 vasp.5.4.4.18Apr17-6-g9f103f2a35 (build Oct 31 2019 15:01:46) complex

 executed on             LinuxIFC date 2024.04.29  05:15:13

 INCAR:
 POTCAR:    PAW_PBE Ca_sv 06Sep2000
 POTCAR:    PAW_PBE Si 05Jan2001
 POTCAR:    PAW_PBE O 08Apr2002
 POTCAR:    PAW_PBE Ca_sv 06Sep2000
   VRHFIN =Ca: 3s3p4s

   TITEL  = PAW_PBE Ca_sv 06Sep2000
   POMASS =   40.078; ZVAL   =   10.000    mass and valenz
   ENMAX  =  266.622; ENMIN  =  199.967 eV

   TITEL  = PAW_PBE Si 05Jan2001
   POMASS =   28.085; ZVAL   =    4.000    mass and valenz
   ENMAX  =  245.345; ENMIN  =  184.009 eV

   TITEL  = PAW_PBE O 08Apr2002
   POMASS =   16.000; ZVAL   =    6.000    mass and valenz
   ENMAX  =  400.000; ENMIN  =  300.000 eV

 Optimization of the real space projectors (new method)

 maximal supplied QI-value         = 16.25
 optimisation between [QCUT,QGAM] = [ 12.51, 25.03] = [ 43.85,175.40] Ry
 Optimized for a Real-space Cutoff    1.47 Angstroem

   l    n(q)    QCUT    max X(q) W(low)/X(q) W(high)/X(q)  e(spline)
   0     11    12.514    11.817    0.25E-04    0.32E-05    0.87E-07
   0     11    12.514     8.461    0.39E-04    0.59E-05    0.18E-06
   1     11    12.514     3.957    0.97E-05    0.57E-05    0.28E-07
   1     11    12.514     4.314    0.42E-04    0.14E-04    0.23E-06
   2     10    12.514    14.565    0.79E-04    0.50E-03    0.16E-05
   2     10    12.514    14.552    0.75E-04    0.48E-03    0.15E-05
 Optimization of the real space projectors (new method)

[...]

   l    n(q)    QCUT    max X(q) W(low)/X(q) W(high)/X(q)  e(spline)
   0      9    12.501   159.560    0.10E-03    0.83E-04    0.71E-07
   0      9    12.501   115.863    0.99E-04    0.81E-04    0.70E-07
   1      8    12.501    88.339    0.20E-03    0.25E-03    0.76E-07
   1      8    12.501    48.592    0.20E-03    0.24E-03    0.75E-07
 Optimization of the real space projectors (new method)

 maximal supplied QI-value         = 24.76
 optimisation between [QCUT,QGAM] = [ 12.38, 25.00] = [ 42.90,175.06] Ry
 Optimized for a Real-space Cutoff    1.16 Angstroem

   l    n(q)    QCUT    max X(q) W(low)/X(q) W(high)/X(q)  e(spline)
   0      9    12.378    20.381    0.16E-03    0.67E-05    0.31E-06
   0      9    12.378    15.268    0.17E-03    0.81E-05    0.33E-06
   1      8    12.378     5.964    0.20E-03    0.16E-03    0.30E-06
   1      8    12.378     5.382    0.18E-03    0.14E-03    0.26E-06
  PAW_PBE Ca_sv 06Sep2000               :
  PAW_PBE Si 05Jan2001                  :
  PAW_PBE O 08Apr2002                   :

 POSCAR: Ca Si  O
  positions in direct lattice
 exchange correlation table for  LEXCH =        8
   RHO(1)=    0.500       N(1)  =     2000
   RHO(2)=  100.500       N(2)  =     4000

 ion  position               nearest neighbor table
   1  0.830  0.273  0.231- 125 2.20 100 2.21 102 2.53  30 3.08
   2  0.361  0.217  0.867- 117 2.23  99 2.39  49 2.97
   3  0.927  0.993  0.421- 127 2.02 118 2.02  97 2.54
   4  0.955  0.779  0.604-  86 2.26 114 2.29  85 2.35  68 2.48
   5  0.546  0.894  0.523- 132 2.18 120 2.47  89 2.48  31 2.55  35 2.76
   6  0.777  0.424  0.636-  65 2.13  70 2.29  64 2.44  44 2.97
   7  0.757  0.092  0.741- 108 2.23
   8  0.997  0.856  0.136- 103 1.98  83 2.32  67 2.38  28 3.16
   9  0.264  0.458  0.263-  92 2.02  82 2.08 111 2.43  53 2.83  38 3.12
  10  0.524  0.747  0.036-  77 1.98  73 2.05 107 2.51  29 2.95
  11  0.130  0.137  0.279-  72 2.10 133 2.26 105 2.37 111 2.46  21 2.99
  12  0.619  0.218  0.980- 122 2.13 110 2.36
  13  0.975  0.187  0.544- 133 2.03  76 2.22 127 2.30  32 2.95  15 3.06
  14  0.700  0.985  0.321-  57 2.01  97 2.32 118 2.35  75 2.48  48 2.57
  15  0.137  0.337  0.582-  66 2.01  61 2.15  76 2.20  43 2.93  13 3.06
  16  0.327  0.111  0.663-  58 2.25 120 2.27  96 2.39  20 3.04
  17  0.738  0.972  0.974- 130 2.26 108 2.37  75 2.50 124 2.56  25 3.00  29 3.07
  18  0.740  0.661  0.432-  87 2.19  56 2.20 112 2.40
  19  0.382  0.599  0.867-  84 1.90  74 2.28 116 2.48  80 2.54  27 3.12  46 3.13
  20  0.247  0.923  0.752-  96 2.30 129 2.41  88 2.48  16 3.04
  21  0.259  0.008  0.159-  98 2.39  62 2.45  83 2.48 105 2.52  72 2.54  11 2.99  51 3.13
  22  0.106  0.596  0.028- 119 2.05  95 2.53
  23  0.892  0.599  0.886-  78 2.07  81 2.14  55 2.39  42 2.88
  24  0.098  0.561  0.433-  61 2.10 114 2.20  92 2.31  37 2.68
  25  0.931  0.074  0.952-  67 2.24 108 2.26 124 2.29  17 3.00
  26  0.356  0.769  0.248- 107 2.17 131 2.20  62 2.21
  27  0.415  0.486  0.672-  94 2.21  74 2.39 116 2.41  41 3.12  19 3.12
  28  0.159  0.824  0.976- 128 1.54  83 1.64  88 1.95  95 1.97  52 2.75   8 3.16
  29  0.584  0.856  0.859-  77 1.58 130 1.68 121 1.69  59 2.04  10 2.95  17 3.07
  30  0.896  0.061  0.192-  97 1.73  67 1.73 100 1.76 125 2.24   1 3.08
  31  0.566  0.072  0.575- 132 1.59  71 1.62 113 1.65 120 1.77   5 2.55  36 2.95
  32  0.133  0.040  0.543- 106 1.52  58 1.62 127 1.74 133 2.37  13 2.95  51 2.99
  33  0.319  0.738  0.613-  63 1.65 129 1.65  80 1.94  89 1.96  46 3.13
  34  0.148  0.219  0.031- 105 1.60 109 1.75  91 1.75 117 2.43  47 3.11
  35  0.747  0.893  0.539- 118 1.46  56 1.54  85 2.00 132 2.20   5 2.76
  36  0.587  0.285  0.601- 113 1.57  65 1.66 123 1.85 115 1.87  31 2.95  50 3.12
  37  0.288  0.551  0.479-  94 1.59  63 1.64  92 1.68  61 1.82  24 2.68
  38  0.351  0.248  0.290- 104 1.50 111 1.70 134 1.74 126 1.99  50 2.48   9 3.12
  39  0.072  0.795  0.353- 103 1.50 135 1.64  86 1.67  51 2.67
  40  0.411  0.323  0.067- 126 1.51 122 1.65 117 1.66  82 2.02  53 3.11
  41  0.219  0.441  0.779-  99 1.51  74 1.83  66 1.83  79 1.86  27 3.12
  42  0.827  0.471  0.040-  78 1.53 102 1.59 101 2.03  55 2.28  23 2.88  54 3.14
  43  0.999  0.318  0.744-  76 1.54  64 1.63  90 1.69  66 2.00  47 2.67  15 2.93
  44  0.957  0.547  0.634-  81 1.52 114 1.82  70 1.82   6 2.97
  45  0.696  0.628  0.159-  73 1.64 112 1.67 101 1.84  69 2.49  54 3.09
  46  0.521  0.689  0.709-  80 1.49 116 1.61  59 1.64  33 3.13  19 3.13
  47  0.011  0.371  0.932-  55 1.48  90 1.61  91 1.72  79 2.05  43 2.67  34 3.11
  48  0.582  0.889  0.211-  57 1.71  69 1.78  75 1.81 107 2.06  14 2.57
  49  0.402  0.011  0.920-  98 1.46  96 1.61 121 1.94 110 1.95   2 2.97
  50  0.407  0.273  0.461- 104 1.62  93 1.67 115 1.77 134 2.10  38 2.48  36 3.12
  51  0.211  0.932  0.370-  62 1.61 106 1.63  72 1.69 135 1.87  39 2.67  32 2.99  21 3.13
  52  0.988  0.835  0.871-  68 1.50 124 1.73  88 1.82  95 1.84  28 2.75
  53  0.355  0.542  0.096-  82 1.57 119 1.59  84 1.63 131 1.67   9 2.83  40 3.11
  54  0.894  0.557  0.242-  60 1.62  87 1.75 101 2.08  45 3.09  42 3.14
  55  0.976  0.468  0.966-  47 1.48  42 2.28  23 2.39
  56  0.734  0.782  0.538-  35 1.54  18 2.20
  57  0.567  0.922  0.330-  48 1.71  14 2.01
  58  0.165  0.085  0.648-  32 1.62  16 2.25
  59  0.564  0.800  0.722-  46 1.64  29 2.04
  60  0.973  0.474  0.208-  54 1.62
[...]
 121  0.477  0.890  0.910-  29 1.69  49 1.94
 122  0.506  0.325  0.992-  40 1.65  12 2.13
 123  0.570  0.382  0.695-  36 1.85
 124  0.911  0.909  0.940-  52 1.73  25 2.29  17 2.56
 125  0.923  0.169  0.312-   1 2.20  30 2.24
 126  0.424  0.279  0.168-  40 1.51  38 1.99
 127  0.008  0.022  0.541-  32 1.74   3 2.02  13 2.30
 128  0.249  0.758  0.960-  28 1.54
 129  0.256  0.751  0.715-  33 1.65  20 2.41
 130  0.697  0.894  0.834-  29 1.68  17 2.26
 131  0.354  0.620  0.191-  53 1.67  26 2.20
 132  0.639  0.989  0.610-  31 1.59   5 2.18  35 2.20
 133  0.063  0.150  0.429-  13 2.03  11 2.26  32 2.37
 134  0.425  0.166  0.353-  38 1.74  50 2.10
 135  0.188  0.798  0.383-  39 1.64  51 1.87

IMPORTANT INFORMATION: All symmetrisations will be switched off!
NOSYMM: (Re-)initialisation of all symmetry stuff for point group C_1.

Automatic generation of k-mesh.
 generate k-points for:    2    2    2
Space group operators:
 irot       det(A)        alpha          n_x          n_y          n_z        tau_x        tau_y        tau_z
    1     1.000000     0.000000     1.000000     0.000000     0.000000     0.000000     0.000000     0.000000

 Subroutine IBZKPT returns following result:

 Found      8 irreducible k-points:

 Following reciprocal coordinates:
            Coordinates               Weight
  0.000000  0.000000  0.000000      1.000000
  0.500000  0.000000  0.000000      1.000000
  0.000000  0.500000  0.000000      1.000000
  0.500000  0.500000  0.000000      1.000000
  0.000000  0.000000  0.500000      1.000000
  0.500000  0.000000  0.500000      1.000000
  0.000000  0.500000  0.500000      1.000000
  0.500000  0.500000  0.500000      1.000000

 Following cartesian coordinates:
            Coordinates               Weight
  0.000000  0.000000  0.000000      1.000000
  0.036574  0.000000  0.000000      1.000000
  0.000000  0.036574  0.000000      1.000000
  0.036574  0.036574  0.000000      1.000000
  0.000000  0.000000  0.036574      1.000000
  0.036574  0.000000  0.036574      1.000000
  0.000000  0.036574  0.036574      1.000000
  0.036574  0.036574  0.036574      1.000000

 SYSTEM =  unknown system
 POSCAR =  Ca Si  O

 Startparameter for this run:
   NWRITE =      2    write-flag & timer
   PREC   = a         normal or accurate (medium, high low for compatibility)
   ISTART =      0    job   : 0-new  1-cont  2-samecut
   ICHARG =      2    charge: 1-file 2-atom 10-const
   ISPIN  =      1    spin polarized calculation?
   LNONCOLLINEAR =      F non collinear calculations
   LSORBIT =      F    spin-orbit coupling
   INIWAV =      1    electr: 0-lowe 1-rand  2-diag
   LASPH  =      F    aspherical Exc in radial PAW
   METAGGA=      F    non-selfconsistent MetaGGA calc.

 Electronic Relaxation 1
   ENCUT  =  600.0 eV  44.10 Ry    6.64 a.u.  27.30 27.30 27.30*2*pi/ulx,y,z
   ENINI  =  600.0     initial cutoff
   ENAUG  =  605.4 eV  augmentation charge cutoff
   NELM   =     60;   NELMIN=  2; NELMDL= -5     # of ELM steps
   EDIFF  = 0.1E-05   stopping-criterion for ELM
   LREAL  =      T    real-space projection
   NLSPLINE    = F    spline interpolate recip. space projectors
   LCOMPAT=      F    compatible to vasp.4.4
   GGA_COMPAT  = T    GGA compatible to vasp.4.4-vasp.4.6
   LMAXPAW     = -100 max onsite density
   LMAXMIX     =    2 max onsite mixed and CHGCAR
   VOSKOWN=      0    Vosko Wilk Nusair interpolation
   ROPT   =   -0.00025  -0.00025  -0.00025
 Ionic relaxation
   EDIFFG = -.1E-01   stopping-criterion for IOM
   NSW    =      1    number of steps for IOM
   NBLOCK =      1;   KBLOCK =      1    inner block; outer block
   IBRION =     -1    ionic relax: 0-MD 1-quasi-New 2-CG
   NFREE  =      0    steps in history (QN), initial steepest desc. (CG)
   ISIF   =      2    stress and relaxation
   IWAVPR =     10    prediction:  0-non 1-charg 2-wave 3-comb
   ISYM   =      0    0-nonsym 1-usesym 2-fastsym
   LCORR  =      T    Harris-Foulkes like correction to forces

   POTIM  = 1.0000    time-step for ionic-motion
   TEIN   =    0.0    initial temperature
   TEBEG  =    0.0;   TEEND  =   0.0 temperature during run
   SMASS  =  -3.00    Nose mass-parameter (am)
   estimated Nose-frequenzy (Omega)   =  0.10E-29 period in steps =****** mass=  -0.427E-26a.u.
   SCALEE = 1.0000    scale energy and forces
   NPACO  =    256;   APACO  = 16.0  distance and # of slots for P.C.
   PSTRESS=    0.0 pullay stress

[...]
     0.000000000  0.000000000 13.670863650     0.000000000  0.000000000  0.073148268

  length of vectors
    13.670863650 13.670863650 13.670863650     0.073148268  0.073148268  0.073148268

 FORCES acting on ions
    electron-ion (+dipol)            ewald-force                    non-local-force                 convergence-correction
   0.264E+03 -.354E+03 -.165E+03   -.261E+03 0.345E+03 0.162E+03   -.322E+01 0.826E+01 0.275E+01   -.159E-02 -.249E-02 0.835E-03
   -.141E+03 -.382E+02 0.794E+02   0.141E+03 0.436E+02 -.712E+02   0.729E+00 -.394E+01 -.626E+01   0.140E-02 -.175E-02 -.877E-03
   0.109E+03 -.625E+02 0.657E+02   -.108E+03 0.611E+02 -.658E+02   0.786E+00 0.119E+01 -.317E+01   -.429E-02 -.420E-02 0.136E-01
   0.101E+02 0.817E+02 -.139E+03   -.117E+02 -.795E+02 0.140E+03   0.917E+00 -.130E+01 0.803E+00   -.185E-01 0.266E-01 0.745E-02
   0.562E+02 0.309E+03 0.997E+02   -.643E+02 -.306E+03 -.100E+03   0.398E+01 -.452E+01 -.121E+01   0.750E-02 -.177E-02 0.412E-02
   0.181E+03 -.967E+02 0.265E+02   -.182E+03 0.918E+02 -.289E+02   0.565E-01 0.393E+01 0.307E+01   -.780E-02 -.260E-02 0.780E-03
   -.940E+01 -.162E+03 0.672E+02   0.865E+01 0.159E+03 -.610E+02   0.324E+00 0.208E+01 -.561E+01   0.546E-02 -.153E-01 -.571E-02
   0.205E+03 0.190E+03 0.599E+02   -.202E+03 -.185E+03 -.610E+02   -.365E+01 -.223E+01 -.215E+01   -.180E-02 0.154E-02 -.735E-03
   0.925E+02 0.132E+02 -.297E+02   -.879E+02 -.139E+02 0.289E+02   -.464E+01 -.110E+01 -.903E-01   0.203E-02 0.311E-02 -.149E-03
   0.235E+02 0.627E+02 -.133E+03   -.214E+02 -.635E+02 0.133E+03   -.526E+01 0.140E+01 0.244E+01   0.185E-02 0.164E-02 -.241E-02
   0.504E+02 -.264E+03 0.189E+02   -.533E+02 0.268E+03 -.155E+02   0.133E+01 -.603E+00 -.276E+01   -.460E-02 -.520E-02 0.382E-02
   -.164E+03 -.180E+03 -.991E+02   0.158E+03 0.178E+03 0.970E+02   0.591E+01 0.775E+00 0.168E+01   0.105E-02 -.215E-02 -.747E-03
   0.380E+03 -.235E+03 0.257E+02   -.375E+03 0.231E+03 -.251E+02   -.675E+01 0.354E+01 0.250E+00   -.226E-02 -.133E-01 -.154E-03
   0.605E+02 -.239E+03 0.761E+02   -.609E+02 0.238E+03 -.759E+02   0.233E+01 0.297E+01 0.175E+00   0.477E-02 -.190E-02 0.347E-02
   0.131E+02 0.201E+02 0.237E+03   -.892E+01 -.176E+02 -.234E+03   -.161E+01 -.388E+01 -.523E+01   0.392E-02 -.688E-02 -.330E-03
   -.846E+02 -.146E+03 -.236E+02   0.867E+02 0.144E+03 0.167E+02   -.603E+00 0.325E+01 0.472E+01   -.472E-03 -.205E-02 0.504E-03
   0.113E+03 0.224E+02 -.107E+03   -.114E+03 -.231E+02 0.103E+03   0.688E+00 0.253E+00 0.410E+01   0.117E-02 -.250E-02 -.607E-02
   0.259E+03 0.271E+03 -.217E+02   -.255E+03 -.270E+03 0.189E+02   -.397E+01 -.112E+01 0.187E+01   -.121E-02 0.728E-02 0.246E-02
   -.905E+02 0.276E+02 -.553E+02   0.891E+02 -.275E+02 0.555E+02   0.221E+00 0.172E+01 -.287E+01   0.175E-02 0.210E-02 -.518E-03
   0.794E+02 0.424E+02 0.203E+02   -.796E+02 -.480E+02 -.174E+02   -.632E+00 0.340E+01 -.228E+01   -.254E-02 -.246E-03 -.757E-03
   -.239E+03 -.648E+02 0.534E+02   0.239E+03 0.610E+02 -.586E+02   0.216E+00 0.268E+01 0.313E+01   -.185E-05 -.274E-02 0.533E-05
   0.144E+03 -.109E+01 -.114E+03   -.135E+03 -.177E+01 0.111E+03   -.765E+01 0.216E+01 0.128E+01   -.123E-02 0.273E-02 -.120E-02
   0.195E+03 -.104E+03 0.627E+02   -.196E+03 0.102E+03 -.659E+02   0.212E+01 0.407E+01 0.186E+01   -.216E-02 0.637E-02 0.682E-03
   0.283E+03 0.767E+02 0.209E+03   -.281E+03 -.767E+02 -.203E+03   -.402E+01 0.660E+00 -.670E+01   0.259E-02 0.414E-02 -.381E-02
   0.842E+01 -.194E+03 0.140E+03   -.683E+01 0.193E+03 -.139E+03   0.327E+00 0.257E+01 -.201E+01   -.304E-02 -.452E-02 -.388E-02
   -.132E+03 0.176E+03 -.119E+03   0.134E+03 -.175E+03 0.115E+03   -.231E+01 -.173E+01 0.403E+01   0.818E-03 0.179E-02 0.197E-03
   -.273E+03 0.168E+03 0.838E+02   0.275E+03 -.167E+03 -.862E+02   -.642E+00 -.168E+01 0.210E+01   0.210E-02 0.102E-02 0.242E-03
   -.134E+01 -.458E+01 0.449E+02   0.139E+02 -.877E+00 -.391E+02   -.147E+02 0.703E+01 -.628E+01   -.701E-03 0.504E-03 -.851E-03
   -.680E+01 -.476E+02 0.637E+02   0.149E+02 0.398E+02 -.543E+02   -.651E+01 0.671E+01 -.116E+02   0.273E-02 0.456E-03 -.152E-02
   0.264E+02 -.891E+02 -.779E+01   -.313E+02 0.850E+02 0.459E+01   0.235E+01 0.447E+01 0.360E+01   -.491E-03 -.784E-03 0.620E-03
   0.260E+01 -.972E+02 -.369E+02   -.731E+00 0.938E+02 0.257E+02   -.558E+01 0.496E+01 0.733E+01   0.234E-02 -.150E-02 0.211E-02
   -.194E+02 -.933E+01 -.395E+02   0.172E+02 0.881E+01 0.431E+02   -.502E+01 0.461E+01 -.228E+01   -.367E-02 -.149E-02 0.594E-03
   -.256E+02 -.276E+02 0.589E+02   0.204E+02 0.311E+02 -.544E+02   0.675E+01 -.204E+00 -.340E+01   0.274E-03 0.758E-03 0.528E-03
   0.599E+01 -.639E+02 0.371E+02   -.823E+01 0.517E+02 -.334E+02   0.123E+01 0.968E+01 -.566E+01   -.682E-03 -.391E-03 -.106E-02
   0.654E+02 0.250E+02 -.833E+02   -.526E+02 -.291E+02 0.763E+02   -.965E+01 0.455E+01 0.179E+02   0.937E-02 0.104E-02 0.927E-02
   0.456E+01 -.105E+03 0.153E+02   0.472E+01 0.106E+03 -.139E+02   -.689E+01 0.606E+01 -.263E+01   0.435E-03 -.591E-03 0.102E-03
   -.650E+02 0.508E+01 0.224E+02   0.726E+02 -.709E+01 -.226E+02   -.714E+01 -.539E-01 0.116E+00   0.131E-02 0.820E-03 0.147E-03
   -.994E+02 0.853E+02 0.797E+02   0.969E+02 -.791E+02 -.694E+02   0.303E+01 -.941E+01 -.165E+02   0.245E-02 -.107E-02 0.501E-03
   -.153E+02 0.111E+03 0.184E+01   0.774E+01 -.109E+03 -.242E+01   0.694E+01 -.733E+00 0.671E+01   -.119E-02 0.179E-02 0.116E-02
   -.122E+03 -.643E+02 0.112E+02   0.122E+03 0.538E+02 -.714E+01   -.246E+01 0.125E+02 -.621E+01   0.108E-02 -.654E-04 -.431E-03
   0.201E+02 -.477E+02 -.289E+01   -.125E+02 0.425E+02 0.661E+01   -.132E+02 0.104E+02 -.215E+01   0.133E-02 0.206E-03 0.668E-03
   0.548E+02 0.678E+02 -.718E+02   -.660E+02 -.707E+02 0.633E+02   0.117E+02 0.192E+01 0.980E+01   -.553E-03 0.170E-03 0.649E-05
   0.690E+02 -.829E+02 -.709E+02   -.736E+02 0.675E+02 0.587E+02   0.413E+01 0.153E+02 0.109E+02   -.171E-03 -.309E-02 0.148E-02
   -.346E+01 0.661E+02 0.576E+02   -.331E+01 -.621E+02 -.526E+02   0.559E+01 -.559E+00 -.121E+02   -.148E-02 0.434E-02 0.168E-02
   0.171E+02 0.593E+02 -.386E+02   -.258E+02 -.607E+02 0.385E+02   0.632E+01 0.286E+01 0.123E+01   -.270E-03 0.585E-03 -.921E-04
   -.208E+03 0.364E+02 0.117E+03   0.196E+03 -.375E+02 -.107E+03   0.169E+02 0.215E+01 -.616E+01   0.148E-02 0.150E-02 0.126E-03
   0.563E+02 0.374E+02 -.483E+01   -.557E+02 -.335E+02 0.866E+01   0.787E+01 -.834E+01 -.298E+01   -.492E-03 -.564E-03 0.337E-03
   0.510E+02 -.129E+02 0.694E+02   -.463E+02 0.105E+02 -.639E+02   -.597E+01 0.712E-01 -.626E+01   0.723E-03 0.556E-04 -.194E-03
   -.909E+02 -.735E+01 -.305E+02   0.810E+02 0.101E+02 0.358E+02   0.205E+02 -.416E+01 -.876E+01   0.731E-03 -.665E-03 -.550E-03
   -.118E+03 -.179E+02 -.308E+02   0.113E+03 0.197E+02 0.289E+02   0.642E+01 -.346E+01 0.152E+01   0.999E-03 -.276E-03 0.683E-03
   -.578E+02 0.910E+01 -.578E+02   0.632E+02 -.829E+01 0.474E+02   -.447E+01 -.295E+01 0.798E+01   -.111E-02 0.133E-03 0.797E-03
   0.174E+02 0.116E+00 0.332E+02   -.256E+02 -.310E+01 -.407E+02   0.979E+01 0.662E+01 0.132E+02   -.278E-02 0.138E-02 -.356E-02
   -.135E+03 -.372E+01 -.113E+02   0.129E+03 0.398E+01 0.120E+02   0.664E+01 0.417E+01 -.975E+00   0.112E-02 0.269E-03 -.639E-03
   0.569E+02 0.524E+02 -.305E+02   -.513E+02 -.554E+02 0.343E+02   -.769E+01 0.561E+01 -.200E+01   -.102E-02 0.828E-03 -.246E-03
   0.113E+03 -.242E+02 -.839E+02   -.116E+03 0.550E+02 0.941E+02   -.278E+01 -.243E+02 -.732E+01   -.793E-03 0.593E-03 0.516E-03
   0.975E+02 0.209E+03 -.704E+02   -.986E+02 -.239E+03 0.786E+02   -.113E+01 0.286E+02 -.927E+01   0.662E-02 0.997E-02 0.789E-02
   0.163E+03 0.183E+02 -.134E+02   -.175E+03 -.135E+02 0.347E+02   0.106E+02 -.575E+01 -.227E+02   0.173E-02 -.788E-03 0.807E-03
   0.561E+02 -.997E+01 -.140E+03   -.595E+02 0.248E+02 0.167E+03   0.502E+01 -.166E+02 -.279E+02   -.306E-02 -.289E-02 -.611E-03
   -.102E+03 0.249E+02 0.688E+02   0.112E+03 -.606E+00 -.747E+02   -.109E+02 -.253E+02 0.580E+01   0.508E-02 0.222E-02 -.262E-03
   -.684E+00 0.976E+02 -.813E+02   0.217E+02 -.121E+03 0.716E+02   -.224E+02 0.249E+02 0.106E+02   -.131E-02 0.370E-03 -.874E-03
[...]
   -.196E+03 -.145E+03 0.192E+02   0.213E+03 0.153E+03 -.360E+02   -.188E+02 -.755E+01 0.176E+02   0.872E-03 -.335E-03 -.196E-03
   -.990E+02 -.523E+02 -.964E+02   0.100E+03 0.660E+02 0.112E+03   -.198E+01 -.166E+02 -.191E+02   0.147E-03 -.270E-03 -.125E-03
   0.105E+03 0.774E+02 0.326E+02   -.118E+03 -.705E+02 -.218E+02   0.136E+02 -.743E+01 -.118E+02   -.193E-02 -.247E-03 -.503E-02
   0.104E+03 -.206E+03 -.453E+02   -.993E+02 0.209E+03 0.551E+02   -.520E+01 -.455E+01 -.122E+02   -.874E-03 -.255E-02 0.162E-02
   -.289E+03 0.641E+02 -.948E+02   0.302E+03 -.741E+02 0.117E+03   -.126E+02 0.603E+01 -.152E+02   0.254E-02 -.198E-03 -.389E-03
   0.540E+02 0.566E+02 -.217E+03   -.721E+02 -.632E+02 0.223E+03   0.217E+02 0.623E+01 -.352E+01   -.823E-02 -.644E-02 0.485E-02
   -.108E+03 0.561E+02 0.224E+02   0.139E+03 -.761E+02 -.261E+02   -.299E+02 0.188E+02 0.286E+01   -.125E-03 0.112E-02 -.882E-03
   0.140E+03 0.582E+01 -.368E+02   -.153E+03 -.113E+02 0.625E+02   0.124E+02 0.780E+01 -.280E+02   -.312E-03 0.180E-02 0.319E-03
   -.850E+02 0.486E+02 0.895E+02   0.110E+03 -.495E+02 -.101E+03   -.275E+02 0.306E+01 0.125E+02   0.558E-02 0.284E-03 -.743E-02
   -.143E+03 -.905E+01 -.107E+03   0.142E+03 0.203E+02 0.124E+03   0.196E+01 -.115E+02 -.179E+02   0.115E-02 0.957E-03 0.229E-05
   -.995E+02 -.122E+02 -.147E+03   0.115E+03 -.158E+01 0.163E+03   -.125E+02 0.114E+02 -.142E+02   0.101E-01 -.532E-02 0.356E-02
   -.276E+02 -.188E+03 0.580E+02   0.248E+02 0.189E+03 -.653E+02   0.589E+01 -.127E+01 0.828E+01   -.236E-02 -.427E-02 0.185E-02
   -.182E+03 0.892E+02 0.734E+02   0.202E+03 -.114E+03 -.695E+02   -.229E+02 0.265E+02 -.404E+01   0.109E-02 -.583E-03 0.209E-03
   -.806E+02 0.159E+03 -.485E+02   0.109E+03 -.175E+03 0.597E+02   -.298E+02 0.170E+02 -.122E+02   -.952E-03 0.180E-02 0.840E-03
   0.214E+02 -.194E+03 0.791E+02   -.384E-12 0.114E-11 -.924E-13   -.215E+02 0.194E+03 -.791E+02   0.978E-02 0.294E-02 0.442E-01

 POSITION                                       TOTAL-FORCE (eV/Angst)
     11.34933      3.73167      3.16226         0.352124     -0.819256     -0.579358
      4.94014      2.96644     11.84962         0.229522      1.435980      1.907784
     12.67901     13.57220      5.75825         1.460709     -0.225943     -3.192755
     13.05421     10.65364      8.25857        -0.649677      0.922428      1.015946
      7.46114     12.22626      7.14528        -4.122198     -1.200418     -1.461431
     10.62312      5.80016      8.68877        -0.833009     -0.989950      0.682327
     10.35214      1.25981     10.12446        -0.416821     -1.161444      0.581975
     13.62377     11.69904      1.86358        -0.577232      2.561430     -3.255551
      3.61197      6.26059      3.58876         0.023377     -1.852420     -0.819484
      7.16035     10.21104      0.48604        -3.084810      0.550583      1.990528
      1.77429      1.87449      3.81436        -1.580693      3.380140      0.669253
      8.45872      2.97779     13.40136         0.033599     -1.349745     -0.426639
     13.33116      2.55890      7.43610        -1.666687     -0.189209      0.838636
      9.56765     13.47019      4.38650         1.934762      2.584769      0.301307
      1.87846      4.60282      7.94982         2.559488     -1.420307     -2.510877
      4.46421      1.51191      9.05904         1.533638      0.395311     -2.207775
     10.09176     13.28142     13.31252        -0.374242     -0.517682      0.269981
     10.11829      9.03681      5.90443         0.273830     -0.867069     -0.928822
      5.22456      8.18694     11.85661        -1.189309      1.764926     -2.678298
      3.37489     12.62423     10.28364        -0.807663     -2.191391      0.628705
      3.54480      0.10372      2.17217         0.864082     -1.168936     -2.075047
      1.44608      8.14436      0.38370         1.356328     -0.699216     -0.924125
     12.19732      8.18349     12.10694         0.639662      2.052197     -1.341071
      1.33671      7.67345      5.91894        -1.481853      0.637601     -0.225243
     12.72227      1.01392     13.01947         1.915788      0.738861     -0.118573
      4.87115     10.51759      3.39708         0.455764     -0.528578      0.121800
      5.67072      6.64437      9.18521         1.077389     -0.732702     -0.306630
      2.17929     11.26788     13.34038        -2.167809      1.572185     -0.397105
      7.97736     11.70022     11.74499         1.625307     -1.076297     -2.173070
     12.25505      0.83566      2.62145        -2.566908      0.330118      0.397492
      7.73148      0.98605      7.86090        -3.708632      1.603998     -3.919628
      1.82456      0.54921      7.42013        -7.204811      4.086409      1.263720
      4.36470     10.08677      8.37485         1.566812      3.262161      1.028954
      2.02385      2.98799      0.42641        -1.018068     -2.563053     -1.931788
     10.20879     12.21170      7.36944         3.203013      0.415890     10.897403
      8.02120      3.90084      8.22220         2.397173      6.686641     -1.161843
      3.93628      7.53061      6.55423         0.426983     -2.066813     -0.090212
      4.79395      3.39642      3.96708         0.589544     -3.180486     -6.238850
      0.98051     10.87125      4.82856        -0.644401      1.644435      6.139071
      5.62436      4.41651      0.92230        -2.230436      2.029706     -2.200039
      2.98983      6.02691     10.64881        -5.615803      5.244809      1.561909
     11.30421      6.44019      0.54385         0.501762     -1.023675      1.224016
     13.66027      4.35189     10.17779        -0.501172     -0.164441     -1.258827
     13.08311      7.47218      8.67244        -1.177972      3.472377     -7.107078
      9.51995      8.57884      2.17913        -2.385835      1.457575      1.100865
      7.11865      9.41558      9.69140         5.473204      1.052176      3.591686
      0.15114      5.07093     12.74014         8.526101     -4.500578      0.857599
      7.95642     12.15060      2.88494        -1.326915     -2.401199     -0.759881
      5.48992      0.14438     12.57760        10.553730     -1.390315     -3.473455
      5.56002      3.72687      6.30561         1.677301     -1.612672     -0.406370
      2.87987     12.73845      5.05232         0.900621     -2.145016     -2.403272
     13.50253     11.41714     11.90801         1.596110      3.631490      5.646372
      4.85252      7.40383      1.31598         0.303783      4.432734     -0.264466
     12.22836      7.60886      3.30809        -2.024706      2.635009      1.812247
     13.34824      6.39335     13.20274        -5.343162      6.471987      2.850390
     10.02897     10.68570      7.36104        -2.224165     -2.021210     -1.064074
      7.75314     12.60887      4.51559        -1.334884     -0.928428     -1.426434
      2.24911      1.16074      8.86202         1.592166     -1.763021     -0.978767
      7.71306     10.93459      9.87522        -0.080340     -1.027550     -0.133893
     13.30419      6.48615      2.84144        -1.372447      1.722091      0.859056
[...]
      6.51659     12.16977     12.44276        -0.303819      1.734120     -0.672160
      6.91466      4.44123     13.56388        -1.244400      0.053249      0.775187
      7.79277      5.22149      9.50149        -0.908532     -2.942285     -3.103483
     12.45251     12.42158     12.84553         1.006992     -0.557628     -0.925777
     12.61182      2.30753      4.27202        -0.344342     -1.669419     -2.336336
      5.80034      3.81568      2.29673         0.324974     -4.015265      6.493920
      0.10705      0.30263      7.40041         3.611524     -0.405827      2.751346
      3.40865     10.36764     13.11864         0.627759     -1.149905     -0.822590
      3.50302     10.27218      9.77087        -1.033707      2.343420     -2.355536
      9.53121     12.22449     11.39870        -2.344269      2.214483      0.871364
      4.83325      8.46950      2.60683         0.930640     -0.322203     -0.559399
      8.73765     13.51858      8.34273         2.827741     -2.354335      2.116724
      0.85717      2.05734      5.87038         3.114640     -0.095469      1.016939
      5.81671      2.26893      4.81972        -2.816076      1.745754     -0.072834
      2.57393     10.90430      5.23538        -1.614869      1.065358     -0.983215
    total drift:                               -0.019710     -0.003281      0.000374

  FREE ENERGIE OF THE ION-ELECTRON SYSTEM (eV)
  free  energy   TOTEN  =      -893.70375105 eV

  energy  without entropy=     -893.65232371  energy(sigma->0) =     -893.67803738