 vasp.5.4.4.18Apr17-6-g9f103f2a35 (build Mar 16 2023 09:39:13) complex

 executed on             LinuxIFC date 2024.04.29  21:56:02

 INCAR:
 POTCAR:    PAW_PBE Ca_sv 06Sep2000
 POTCAR:    PAW_PBE Si 05Jan2001
 POTCAR:    PAW_PBE O 08Apr2002
 POTCAR:    PAW_PBE Ca_sv 06Sep2000
   VRHFIN =Ca: 3s3p4s

   TITEL  = PAW_PBE Ca_sv 06Sep2000
   POMASS =   40.078; ZVAL   =   10.000    mass and valenz
   ENMAX  =  266.622; ENMIN  =  199.967 eV

   TITEL  = PAW_PBE Si 05Jan2001
   POMASS =   28.085; ZVAL   =    4.000    mass and valenz
   ENMAX  =  245.345; ENMIN  =  184.009 eV

   TITEL  = PAW_PBE O 08Apr2002
   POMASS =   16.000; ZVAL   =    6.000    mass and valenz
   ENMAX  =  400.000; ENMIN  =  300.000 eV

 Optimization of the real space projectors (new method)

 maximal supplied QI-value         = 16.25
 optimisation between [QCUT,QGAM] = [ 12.51, 25.03] = [ 43.85,175.40] Ry
 Optimized for a Real-space Cutoff    1.47 Angstroem

   l    n(q)    QCUT    max X(q) W(low)/X(q) W(high)/X(q)  e(spline)
   0     11    12.514    11.817    0.25E-04    0.32E-05    0.87E-07
   0     11    12.514     8.461    0.39E-04    0.59E-05    0.18E-06
   1     11    12.514     3.957    0.97E-05    0.57E-05    0.28E-07
   1     11    12.514     4.314    0.42E-04    0.14E-04    0.23E-06
   2     10    12.514    14.565    0.79E-04    0.50E-03    0.16E-05
   2     10    12.514    14.552    0.75E-04    0.48E-03    0.15E-05
 Optimization of the real space projectors (new method)

[...]

   l    n(q)    QCUT    max X(q) W(low)/X(q) W(high)/X(q)  e(spline)
   0      9    12.501   159.560    0.10E-03    0.83E-04    0.71E-07
   0      9    12.501   115.863    0.99E-04    0.81E-04    0.70E-07
   1      8    12.501    88.339    0.20E-03    0.25E-03    0.76E-07
   1      8    12.501    48.592    0.20E-03    0.24E-03    0.75E-07
 Optimization of the real space projectors (new method)

 maximal supplied QI-value         = 24.76
 optimisation between [QCUT,QGAM] = [ 12.38, 25.00] = [ 42.90,175.06] Ry
 Optimized for a Real-space Cutoff    1.16 Angstroem

   l    n(q)    QCUT    max X(q) W(low)/X(q) W(high)/X(q)  e(spline)
   0      9    12.378    20.381    0.16E-03    0.67E-05    0.31E-06
   0      9    12.378    15.268    0.17E-03    0.81E-05    0.33E-06
   1      8    12.378     5.964    0.20E-03    0.16E-03    0.30E-06
   1      8    12.378     5.382    0.18E-03    0.14E-03    0.26E-06
  PAW_PBE Ca_sv 06Sep2000               :
  PAW_PBE Si 05Jan2001                  :
  PAW_PBE O 08Apr2002                   :

 POSCAR: Ca Si  O
  positions in direct lattice
 exchange correlation table for  LEXCH =        8
   RHO(1)=    0.500       N(1)  =     2000
   RHO(2)=  100.500       N(2)  =     4000

 ion  position               nearest neighbor table
   1  0.334  0.626  0.708-  57 2.28 121 2.36  56 2.52  33 3.03  35 3.09
   2  0.565  0.894  0.370- 116 2.03  72 2.14  66 2.16  89 2.46  23 3.04  54 3.14  32 3.16
   3  0.029  0.824  0.742- 120 1.96  87 1.98 131 2.29  94 2.43  47 2.89
   4  0.868  0.245  0.064-  81 2.17 124 2.30
   5  0.920  0.391  0.836-  96 2.15  73 2.32 134 2.37  76 2.55  28 2.80  44 3.10
   6  0.014  0.966  0.329-  84 2.18 130 2.22 133 2.50
   7  0.386  0.144  0.991- 118 2.30 114 2.38  30 2.97
   8  0.063  0.189  0.551- 106 2.46  84 2.49
   9  0.253  0.035  0.420-  67 2.21 130 2.26 107 2.54  29 2.75
  10  0.055  0.518  0.125- 102 2.28 122 2.38  45 3.06  28 3.08
  11  0.124  0.138  0.962- 124 2.05 100 2.36  43 2.80  49 3.09
  12  0.673  0.329  0.225-  69 2.40  65 2.51  37 3.05
  13  0.231  0.583  0.325-  98 2.19
  14  0.346  0.469  0.995- 105 2.18 102 2.27 121 2.36 123 2.49  33 2.54
  15  0.555  0.866  0.716-  78 1.94  86 2.28  64 2.39  20 3.11
  16  0.990  0.697  0.446-  83 2.12 133 2.19  34 3.15
  17  0.726  0.159  0.698-  97 2.18  73 2.35  82 2.45  70 2.55
  18  0.609  0.504  0.002-  60 2.28 105 2.34 132 2.42
  19  0.707  0.845  0.965- 135 2.09  64 2.14  55 2.46  38 2.93
  20  0.331  0.934  0.712- 109 2.08  68 2.27  95 2.57  15 3.11
  21  0.760  0.468  0.571-  75 2.04 134 2.06 125 2.50  52 2.94  44 3.08
  22  0.358  0.351  0.260-  80 2.39  98 2.39  74 2.41  36 2.78  45 2.88  41 2.89
  23  0.426  0.789  0.222- 128 2.15  66 2.30   2 3.04
  24  0.419  0.205  0.697-  82 2.12  92 2.21
  25  0.953  0.946  0.025-  94 2.19 135 2.33
  26  0.560  0.297  0.467-  75 2.05  79 2.34  82 2.45 126 2.54
  27  0.618  0.670  0.499- 125 1.82  99 2.31  89 2.40  32 3.13
  28  0.860  0.506  0.002-  96 1.48 122 1.52  76 1.59  60 1.85   5 2.80  38 3.03  10 3.08
  29  0.202  0.854  0.504- 130 1.57 131 1.66 103 1.83 107 1.84  48 2.60   9 2.75
  30  0.552  0.048  0.878- 114 1.63  97 1.68  64 1.76 109 1.96   7 2.97  40 3.13
  31  0.850  0.073  0.478-  90 1.56  70 1.63 112 1.65  84 1.72  52 2.76  37 2.81
  32  0.725  0.875  0.545-  89 1.54 110 1.59  78 1.60 112 1.84  34 2.90  27 3.13   2 3.16
  33  0.402  0.438  0.815- 121 1.55  92 1.58 105 1.66  56 1.90  14 2.54 123 2.56   1 3.03
  34  0.841  0.712  0.630-  99 1.52 119 1.62  87 1.67 110 1.85  44 2.80  32 2.90  16 3.15
  35  0.562  0.591  0.728-  56 1.57  86 1.59 127 1.74 125 1.78  44 3.06   1 3.09
  36  0.500  0.504  0.234-  58 1.58  80 1.61 132 1.74  79 1.88  22 2.78  50 3.10
  37  0.759  0.129  0.296-  81 1.69  61 1.71  90 1.78  65 2.01  31 2.81  12 3.05  52 3.10
  38  0.838  0.716  0.086- 135 1.59  85 1.61  88 1.74 122 1.98  19 2.93  50 3.00  28 3.03
  39  0.196  0.011  0.152-  67 1.57 115 1.60 118 1.63  93 1.74
  40  0.614  0.101  0.099-  69 1.59  55 1.64 114 1.64 104 1.73  54 2.96  30 3.13
  41  0.178  0.335  0.380- 106 1.59  74 1.62 101 1.64  98 1.73  53 2.69  22 2.89
  42  0.805  0.782  0.318- 133 1.58  88 1.72  71 1.75  89 2.15  50 2.79
  43  0.182  0.127  0.760- 108 1.41 100 1.67  91 1.69  68 1.70  11 2.80
  44  0.786  0.571  0.776- 119 1.51 127 1.57 134 1.65  76 1.70  34 2.80  35 3.06  21 3.08   5 3.10

  45  0.186  0.329  0.131- 129 1.54  63 1.67  74 1.70 102 1.77  22 2.88  10 3.06
  46  0.183  0.768  0.151-  93 1.55  77 1.63 128 1.64 117 2.10  47 3.14
  47  0.143  0.829  0.927- 120 1.58  94 1.67 117 1.70   3 2.89  46 3.14
  48  0.368  0.752  0.488-  72 1.64 103 1.70  57 1.76 107 1.99  29 2.60
  49  0.936  0.141  0.825-  59 1.58  73 1.75  91 1.78 124 1.80  11 3.09
  50  0.658  0.674  0.215- 132 1.74  66 1.78  85 1.79  71 1.85  42 2.79  38 3.00  36 3.10
  51  0.447  0.714  0.937- 123 1.52 113 1.77  95 1.95
  52  0.801  0.275  0.473-  75 1.65  70 1.71  65 1.72 111 1.73  31 2.76  21 2.94  37 3.10
  53  0.022  0.461  0.403-  62 1.53 101 1.58  83 1.62  41 2.69
  54  0.499  0.106  0.289- 104 1.62 116 1.69 126 1.69  61 1.77  40 2.96   2 3.14
  55  0.672  0.998  0.062-  40 1.64  19 2.46
  56  0.481  0.507  0.718-  35 1.57  33 1.90   1 2.52
  57  0.418  0.654  0.561-  48 1.76   1 2.28
  58  0.440  0.590  0.290-  36 1.58
  59  0.876  0.039  0.839-  49 1.58
  60  0.755  0.445  0.070-  28 1.85  18 2.28
  61  0.630  0.123  0.290-  37 1.71  54 1.77
  62  0.959  0.500  0.315-  53 1.53
  63  0.072  0.296  0.089-  45 1.67
  64  0.626  0.939  0.863-  30 1.76  19 2.14  15 2.39
  65  0.805  0.265  0.343-  52 1.72  37 2.01  12 2.51
  66  0.596  0.786  0.253-  50 1.78   2 2.16  23 2.30
  67  0.234  0.051  0.256-  39 1.57   9 2.21
  68  0.207  0.009  0.801-  43 1.70  20 2.27
  69  0.665  0.208  0.091-  40 1.59  12 2.40
  70  0.766  0.157  0.511-  31 1.63  52 1.71  17 2.55
  71  0.723  0.681  0.338-  42 1.75  50 1.85
  72  0.472  0.775  0.426-  48 1.64   2 2.14
  73  0.865  0.239  0.774-  49 1.75   5 2.32  17 2.35
  74  0.178  0.333  0.258-  41 1.62  45 1.70  22 2.41
  75  0.702  0.341  0.508-  52 1.65  21 2.04  26 2.05
  76  0.816  0.541  0.896-  28 1.59  44 1.70   5 2.55
  77  0.101  0.693  0.203-  46 1.63
  78  0.624  0.914  0.597-  32 1.60  15 1.94
  79  0.527  0.412  0.338-  36 1.88  26 2.34
  80  0.468  0.432  0.142-  36 1.61  22 2.39
  81  0.830  0.153  0.194-  37 1.69   4 2.17
  82  0.565  0.224  0.636-  24 2.12  17 2.45  26 2.45
  83  0.053  0.554  0.475-  53 1.62  16 2.12
  84  0.967  0.090  0.424-  31 1.72   6 2.18   8 2.49
  85  0.723  0.681  0.098-  38 1.61  50 1.79
  86  0.515  0.701  0.733-  35 1.59  15 2.28
  87  0.960  0.754  0.631-  34 1.67   3 1.98
  88  0.861  0.771  0.202-  42 1.72  38 1.74
  89  0.713  0.814  0.447-  32 1.54  42 2.15  27 2.40   2 2.46
  90  0.817  0.036  0.372-  31 1.56  37 1.78
  91  0.056  0.118  0.772-  43 1.69  49 1.78
  92  0.412  0.320  0.816-  33 1.58  24 2.21
  93  0.209  0.881  0.150-  46 1.55  39 1.74
  94  0.054  0.913  0.899-  47 1.67  25 2.19   3 2.43
  95  0.392  0.824  0.858-  51 1.95  20 2.57
  96  0.928  0.418  0.995-  28 1.48   5 2.15
  97  0.612  0.139  0.814-  30 1.68  17 2.18
  98  0.262  0.434  0.387-  41 1.73  13 2.19  22 2.39
  99  0.784  0.662  0.545-  34 1.52  27 2.31
 100  0.235  0.207  0.841-  43 1.67  11 2.36
 101  0.075  0.363  0.442-  53 1.58  41 1.64
 102  0.212  0.456  0.100-  45 1.77  14 2.27  10 2.28
 103  0.243  0.727  0.471-  48 1.70  29 1.83
 104  0.504  0.103  0.167-  54 1.62  40 1.73
[...]
 121  0.303  0.498  0.825-  33 1.55   1 2.36  14 2.36
 122  0.915  0.596  0.046-  28 1.52  38 1.98  10 2.38
 123  0.414  0.612  0.896-  51 1.52  14 2.49  33 2.56
 124  0.971  0.160  0.954-  49 1.80  11 2.05   4 2.30
 125  0.620  0.587  0.608-  35 1.78  27 1.82  21 2.50
 126  0.441  0.199  0.354-  54 1.69  26 2.54
 127  0.671  0.588  0.800-  44 1.57  35 1.74
 128  0.290  0.713  0.179-  46 1.64  23 2.15
 129  0.273  0.258  0.104-  45 1.54
 130  0.129  0.921  0.441-  29 1.57   6 2.22   9 2.26
 131  0.137  0.835  0.608-  29 1.66   3 2.29
 132  0.595  0.567  0.172-  36 1.74  50 1.74  18 2.42
 133  0.910  0.814  0.362-  42 1.58  16 2.19   6 2.50
 134  0.810  0.465  0.717-  44 1.65  21 2.06   5 2.37
 135  0.853  0.803  0.006-  38 1.59  19 2.09  25 2.33

IMPORTANT INFORMATION: All symmetrisations will be switched off!
NOSYMM: (Re-)initialisation of all symmetry stuff for point group C_1.

Automatic generation of k-mesh.
 generate k-points for:    2    2    2
Space group operators:
 irot       det(A)        alpha          n_x          n_y          n_z        tau_x        tau_y        tau_z
    1     1.000000     0.000001     1.000000     0.000000     0.000000     0.000000     0.000000     0.000000

 Subroutine IBZKPT returns following result:

 Found      8 irreducible k-points:

 Following reciprocal coordinates:
            Coordinates               Weight
  0.000000  0.000000  0.000000      1.000000
  0.500000  0.000000  0.000000      1.000000
  0.000000  0.500000  0.000000      1.000000
  0.500000  0.500000  0.000000      1.000000
  0.000000  0.000000  0.500000      1.000000
  0.500000  0.000000  0.500000      1.000000
  0.000000  0.500000  0.500000      1.000000
  0.500000  0.500000  0.500000      1.000000

 Following cartesian coordinates:
            Coordinates               Weight
  0.000000  0.000000  0.000000      1.000000
  0.037563  0.000000  0.000000      1.000000
  0.000000  0.037563  0.000000      1.000000
  0.037563  0.037563  0.000000      1.000000
  0.000000  0.000000  0.037563      1.000000
  0.037563  0.000000  0.037563      1.000000
  0.000000  0.037563  0.037563      1.000000
  0.037563  0.037563  0.037563      1.000000

 SYSTEM =  unknown system
 POSCAR =  Ca Si  O

 Startparameter for this run:
[...]
     0.000000000  0.000000000 13.310935620     0.000000000  0.000000000  0.075126199

  length of vectors
    13.310935620 13.310935620 13.310935620     0.075126199  0.075126199  0.075126199

 FORCES acting on ions
    electron-ion (+dipol)            ewald-force                    non-local-force                 convergence-correction
   0.468E+03 0.951E+02 0.896E+02   -.461E+03 -.965E+02 -.878E+02   -.582E+01 0.174E+01 -.654E+00   0.938E-03 -.464E-02 0.387E-02
   -.427E+02 -.246E+03 -.226E+02   0.403E+02 0.242E+03 0.229E+02   0.459E+01 0.306E+01 0.132E+01   -.577E-02 0.163E-02 0.126E-02
   0.761E+02 0.235E+02 -.280E+02   -.711E+02 -.239E+02 0.259E+02   -.508E+01 0.384E+01 0.207E+01   0.185E-02 -.435E-03 0.950E-03
   0.658E+01 -.525E+02 0.209E+02   -.386E+01 0.487E+02 -.202E+02   -.203E+01 0.366E+01 -.902E+00   0.654E-03 0.135E-02 -.129E-02
   -.342E+03 -.234E+02 0.198E+03   0.337E+03 0.196E+02 -.199E+03   0.472E+01 0.231E+01 -.117E+01   0.144E-02 -.668E-04 0.858E-04
   -.162E+02 0.180E+02 0.160E+03   0.160E+02 -.158E+02 -.156E+03   -.279E+00 -.182E+01 -.485E+01   0.389E-02 0.269E-02 0.141E-03
   -.632E+01 -.694E+02 0.636E+02   0.231E+01 0.669E+02 -.605E+02   0.226E+01 0.262E+01 -.246E+01   -.181E-02 0.723E-02 -.441E-02
   -.685E+02 -.123E+03 -.192E+03   0.694E+02 0.124E+03 0.187E+03   -.805E+00 -.194E+00 0.425E+01   0.212E-02 0.137E-02 0.208E-02
   -.102E+03 -.183E+03 -.152E+03   0.101E+03 0.185E+03 0.143E+03   0.208E+01 0.631E+00 0.690E+01   -.113E-04 0.114E-02 0.650E-03
   0.250E+02 -.372E+02 0.522E+02   -.228E+02 0.367E+02 -.534E+02   -.213E+01 0.375E+00 0.116E+01   0.284E-02 -.199E-02 -.206E-02
   -.755E+02 -.896E+02 -.399E+01   0.752E+02 0.919E+02 0.468E+01   0.238E+01 -.223E+01 0.681E+00   0.390E-02 0.295E-02 -.274E-02
   -.667E+02 -.144E+03 -.143E+02   0.664E+02 0.142E+03 0.108E+02   0.181E+00 0.229E+01 0.215E+01   -.183E-02 0.588E-03 -.261E-02
   0.655E+02 -.338E+02 -.113E+03   -.615E+02 0.333E+02 0.112E+03   -.280E+01 0.170E+01 -.208E+00   0.108E-02 -.140E-02 -.484E-03
   0.241E+03 -.225E+02 -.521E+01   -.240E+03 0.229E+02 0.526E+01   -.136E+01 0.182E+00 0.155E+01   0.893E-02 -.543E-02 -.100E-01
   0.698E+02 -.672E+02 -.703E+02   -.662E+02 0.670E+02 0.748E+02   -.432E+01 -.516E+00 -.318E+00   -.221E-02 -.227E-02 0.154E-02
   -.138E+03 0.985E+02 -.305E+02   0.137E+03 -.991E+02 0.335E+02   0.131E+01 0.125E+01 -.169E+01   0.344E-02 -.249E-02 0.274E-02
   -.515E+02 -.200E+02 -.510E+02   0.450E+02 0.210E+02 0.551E+02   0.473E+01 -.124E+01 -.359E+01   0.383E-02 0.210E-02 0.108E-03
   -.325E+02 0.891E+02 0.110E+03   0.319E+02 -.914E+02 -.109E+03   0.136E+00 0.225E+01 -.122E+01   -.103E-01 -.524E-02 -.708E-02
   -.171E+02 -.146E+01 0.505E+02   0.119E+02 0.852E+01 -.507E+02   0.164E+01 -.516E+01 0.617E-01   -.138E-02 -.144E-02 -.246E-02
   0.104E+03 0.416E+02 0.120E+03   -.107E+03 -.375E+02 -.110E+03   0.147E+01 -.412E+01 -.797E+01   -.140E-02 0.630E-03 0.157E-02
   -.134E+03 0.357E+02 0.105E+03   0.133E+03 -.368E+02 -.101E+03   0.142E+01 0.301E+01 -.408E+01   -.501E-03 -.356E-03 0.252E-02
   -.260E+02 0.844E+02 -.108E+03   0.276E+02 -.860E+02 0.108E+03   -.566E+00 0.444E-01 -.179E+00   -.187E-03 0.453E-03 -.302E-02
   0.111E+03 -.107E+03 0.164E+03   -.111E+03 0.101E+03 -.165E+03   0.692E+00 0.477E+01 0.566E+00   -.278E-02 -.118E-02 -.198E-02
   0.138E+03 -.847E+02 0.203E+03   -.132E+03 0.876E+02 -.198E+03   -.546E+01 -.317E+01 -.321E+01   -.880E-02 0.121E-01 0.122E-01
   0.842E+02 0.902E+01 -.113E+03   -.814E+02 -.760E+01 0.107E+03   -.296E+01 0.282E+00 0.498E+01   0.235E-02 0.161E-02 -.245E-02
   0.264E+03 -.120E+02 -.120E+03   -.264E+03 0.116E+02 0.123E+03   -.280E+01 -.564E+00 -.270E+01   -.224E-02 0.241E-02 -.164E-02
   0.143E+03 0.152E+03 0.163E+03   -.143E+03 -.152E+03 -.162E+03   -.148E+01 0.201E+01 -.514E+01   -.321E-02 -.319E-02 0.383E-02
   0.521E+01 -.130E+02 -.215E+02   0.247E+01 0.738E+01 0.210E+02   -.166E+02 0.419E+01 0.287E+01   -.338E-03 -.764E-03 -.821E-03
   -.642E+01 0.367E+02 -.103E+02   -.460E+01 -.336E+02 0.176E+02   0.104E+02 -.648E+01 -.175E+01   0.361E-03 -.601E-04 0.615E-03
   0.497E+02 0.148E+02 0.465E+01   -.386E+02 -.983E+01 -.854E+01   -.746E+01 -.633E+01 -.114E+01   -.240E-02 -.109E-03 0.109E-02
   -.107E+03 -.227E+02 -.944E+02   0.995E+02 0.171E+02 0.890E+02   0.806E+01 0.304E+01 0.689E+01   0.733E-03 0.102E-02 0.651E-03
   -.515E+02 -.843E+02 0.164E+02   0.473E+02 0.806E+02 -.914E+01   0.640E+01 0.910E+01 -.253E+01   -.252E-03 0.291E-03 0.203E-02
   0.645E+02 0.410E+02 0.146E+03   -.683E+02 -.488E+02 -.138E+03   0.880E+01 0.669E+01 -.101E+02   0.250E-02 -.666E-02 0.407E-02
   -.153E+03 0.267E+02 -.484E+02   0.149E+03 -.263E+02 0.435E+02   0.490E+01 0.670E+01 0.714E+01   0.319E-03 -.735E-03 0.120E-02
   -.765E+01 0.807E+02 -.399E+02   0.218E+01 -.750E+02 0.339E+02   0.985E+01 -.401E+01 0.285E+01   -.155E-02 -.190E-02 0.197E-02
   -.168E+02 0.802E+01 -.531E+02   0.931E+01 -.502E+01 0.532E+02   0.890E+01 -.321E+01 0.262E+01   -.916E-03 -.853E-03 -.158E-02
   -.102E+02 0.284E+02 0.490E+01   0.165E+02 -.282E+02 -.130E+02   -.285E+01 0.153E+00 0.625E+01   -.260E-04 0.144E-02 -.370E-03
   -.116E+03 0.527E+02 0.104E+01   0.109E+03 -.421E+02 -.192E+01   0.996E+01 -.107E+02 0.293E+01   0.510E-04 -.120E-02 -.224E-02
   0.261E+01 0.179E+02 -.162E+01   -.437E+00 -.109E+02 0.272E+01   0.390E-01 -.722E+01 -.269E+01   0.474E-03 0.675E-03 -.753E-03
   -.255E+02 0.322E+02 -.417E+02   0.309E+02 -.311E+02 0.318E+02   -.494E+01 -.283E+01 0.783E+01   -.957E-03 0.141E-02 -.427E-03
   -.374E+02 -.184E+02 -.134E+03   0.356E+02 0.111E+02 0.131E+03   0.331E+01 0.678E+01 0.272E+01   0.423E-03 0.587E-04 0.156E-03
   0.630E+01 -.357E+02 0.468E+02   0.249E+01 0.362E+02 -.472E+02   -.102E+02 -.106E+01 0.517E+00   0.137E-02 -.184E-02 0.701E-03
   0.531E+02 -.424E+02 0.449E+02   -.417E+02 0.457E+02 -.471E+02   -.140E+02 -.820E+01 0.140E+02   0.153E-02 0.196E-02 0.121E-02
   -.151E+03 0.429E+02 -.258E+02   0.142E+03 -.410E+02 0.217E+02   0.807E+01 -.759E+01 0.675E+01   -.751E-03 -.706E-03 0.490E-03
   0.593E+02 -.179E+02 0.405E+02   -.590E+02 0.106E+02 -.461E+02   -.517E+01 0.847E+01 0.475E+01   0.109E-02 0.204E-03 -.146E-02
   0.659E+02 0.739E+01 0.505E+02   -.600E+02 -.101E+02 -.444E+02   -.437E+01 -.224E+01 -.834E+01   0.820E-03 -.433E-03 -.712E-03
   -.827E+02 -.721E+01 -.664E+02   0.731E+02 -.459E+01 0.561E+02   0.904E+01 0.934E+01 0.876E+01   0.769E-03 -.151E-03 -.450E-03
   0.768E+02 0.278E+02 -.193E+02   -.679E+02 -.343E+02 0.199E+02   -.514E+01 0.447E+01 0.168E+01   -.438E-03 -.556E-03 0.668E-03
   -.373E+01 -.596E+02 0.724E+02   -.470E+01 0.498E+02 -.675E+02   0.865E+01 0.968E+01 -.293E+01   0.112E-02 0.619E-03 0.123E-03
   -.308E+02 0.415E+02 -.689E+01   0.272E+02 -.384E+02 0.786E+01   0.194E+01 -.103E+01 -.682E+00   -.189E-02 -.230E-02 -.187E-02
   0.586E+02 -.102E+03 -.677E+02   -.587E+02 0.936E+02 0.630E+02   0.204E+01 0.154E+02 0.366E+01   -.570E-03 -.237E-02 -.698E-03
   -.970E+02 -.421E+02 0.262E+02   0.938E+02 0.459E+02 -.211E+02   0.364E+01 -.224E+01 -.322E+01   0.506E-03 0.437E-03 0.134E-03
   0.331E+02 0.426E+02 -.499E+02   -.333E+02 -.334E+02 0.475E+02   0.789E-01 -.671E+01 0.535E+01   0.682E-03 -.466E-03 0.320E-03
   0.449E+02 -.162E+02 -.581E+02   -.509E+02 0.151E+02 0.557E+02   0.381E+01 0.853E+00 0.368E+01   -.884E-03 0.847E-03 -.561E-03
   -.995E+02 0.797E+02 -.465E+02   0.110E+03 -.983E+02 0.352E+02   -.904E+01 0.177E+02 0.140E+02   -.941E-03 0.104E-02 -.114E-02
   0.841E+02 0.227E+03 0.139E+03   -.939E+02 -.245E+03 -.157E+03   0.661E+01 0.152E+02 0.194E+02   -.254E-02 -.442E-02 0.615E-02
   0.131E+03 0.172E+03 0.374E+02   -.117E+03 -.190E+03 -.295E+02   -.171E+02 0.204E+02 -.932E+01   -.825E-03 -.144E-02 0.188E-02
   0.793E+02 -.143E+02 -.103E+03   -.918E+02 0.363E+02 0.120E+03   0.109E+02 -.215E+02 -.173E+02   -.123E-02 -.131E-02 -.997E-03
   0.931E+02 0.106E+03 0.475E+02   -.111E+03 -.133E+03 -.437E+02   0.171E+02 0.266E+02 -.460E+01   0.138E-02 0.430E-03 0.751E-04
   -.344E+02 0.828E+02 -.752E+02   0.253E+02 -.915E+02 0.844E+02   0.105E+02 0.101E+02 -.103E+02   -.201E-02 -.700E-03 -.188E-02
[...]
   -.146E+03 -.986E+02 0.107E+02   0.170E+03 0.116E+03 -.543E+01   -.229E+02 -.101E+02 -.150E+01   0.778E-03 -.195E-02 -.194E-02
   0.111E+03 -.477E+02 -.375E+02   -.122E+03 0.184E+02 0.224E+02   0.102E+02 0.280E+02 0.161E+02   0.101E-02 -.668E-02 0.799E-04
   0.784E+02 -.545E+02 -.629E+01   -.769E+02 0.555E+02 0.220E+02   -.376E+01 -.127E-01 -.178E+02   0.158E-02 0.100E-02 -.613E-03
   0.663E+02 0.212E+03 -.155E+02   -.612E+02 -.217E+03 0.824E+01   -.538E+01 -.793E-01 0.129E+02   -.158E-02 -.147E-02 0.244E-02
   0.115E+03 -.180E+02 -.143E+03   -.129E+03 0.332E+02 0.157E+03   0.153E+02 -.165E+02 -.149E+02   -.105E-02 0.875E-03 -.739E-03
   0.502E+02 0.487E+02 -.123E+03   -.605E+02 -.411E+02 0.140E+03   0.371E+01 -.938E+01 -.154E+02   -.282E-02 -.224E-02 0.131E-02
   0.723E-01 0.650E+02 0.727E+02   0.186E+02 -.803E+02 -.714E+02   -.185E+02 0.149E+02 -.587E+00   0.326E-03 -.110E-02 -.132E-02
   -.576E+02 0.618E+02 0.605E+02   0.792E+02 -.853E+02 -.676E+02   -.181E+02 0.225E+02 0.643E+01   0.137E-02 0.135E-02 -.310E-02
   0.604E+02 0.937E+01 -.235E+02   -.829E+02 0.425E+01 0.141E+02   0.230E+02 -.127E+02 0.707E+01   0.125E-02 0.469E-03 0.742E-03
   0.579E+01 0.472E+02 -.642E+02   -.207E+02 -.514E+02 0.840E+02   0.176E+02 0.444E+01 -.213E+02   0.926E-03 -.228E-03 0.112E-02
   -.462E+02 0.260E+02 -.332E+02   0.497E+02 -.330E+02 0.142E+02   -.211E+01 0.828E+01 0.213E+02   -.231E-02 -.254E-02 -.315E-02
   -.101E+03 -.393E+02 0.147E+02   0.124E+03 0.494E+02 -.676E+01   -.221E+02 -.932E+01 -.611E+01   0.618E-02 -.741E-03 0.284E-02
   -.148E+03 0.127E+03 -.150E+02   0.151E+03 -.151E+03 0.595E+01   -.175E+01 0.263E+02 0.110E+02   -.512E-03 -.150E-03 0.115E-02
   -.138E+03 0.188E+01 0.990E+02   0.146E+03 0.163E+02 -.120E+03   -.596E+01 -.188E+02 0.205E+02   0.379E-03 -.159E-03 -.263E-02
   -.495E+02 -.780E+02 -.663E+02   -.313E-12 -.426E-13 0.938E-12   0.495E+02 0.780E+02 0.663E+02   -.177E-02 -.209E-01 -.279E-02

 POSITION                                       TOTAL-FORCE (eV/Angst)
      4.44471      8.33864      9.42013         0.900490      0.287837      1.141448
      7.51651     11.90193      4.92742         2.161546     -0.147202      1.668238
      0.39121     10.96350      9.87930        -0.060951      3.484711     -0.014300
     11.55991      3.25629      0.85455         0.697980     -0.082084     -0.223028
     12.25203      5.20976     11.13212        -0.276004     -1.465660     -1.982170
      0.18967     12.85668      4.37381        -0.420934      0.388501     -0.793046
      5.13472      1.91226     13.18823        -1.755306      0.147613      0.656069
      0.84319      2.50936      7.32850         0.099158      0.727736     -0.845154
      3.37344      0.47228      5.59706         1.258407      2.442164     -2.532398
      0.73170      6.89644      1.67033         0.093057     -0.136345     -0.047015
      1.64689      1.84275     12.79867         2.080762      0.118067      1.375640
      8.96221      4.38109      2.99530        -0.114812      0.040611     -1.355603
      3.07238      7.75930      4.33025         1.274987      1.183830     -0.535861
      4.60015      6.24327     13.24755        -0.784889      0.623111      1.588029
      7.38291     11.53065      9.52520        -0.763810     -0.693375      4.204695
     13.17589      9.27656      5.93804        -0.099143      0.706277      1.355247
      9.66623      2.11884      9.28875        -1.691686     -0.162044      0.540594
      8.10112      6.70591      0.02553        -0.495207     -0.028395     -0.503745
      9.41156     11.24982     12.84439        -3.534613      1.904240     -0.071673
      4.40908     12.43087      9.47522        -1.977376     -0.035741      2.107881
     10.11627      6.22966      7.60128         0.026359      1.859197     -0.317931
      4.77099      4.67729      3.45470         0.990776     -1.514322      0.066572
      5.67267     10.49737      2.95735         0.021710     -0.619596     -0.444394
      5.57888      2.72487      9.27950         0.463624     -0.281097      1.412631
     12.67901     12.58783      0.33232        -0.160602      1.706475     -0.709141
      7.45984      3.94994      6.21200        -2.295462     -0.915385      0.891064
      8.22149      8.92279      6.64492        -1.400482      2.810443     -4.138246
     11.44167      6.72917      0.02687        -8.880322     -1.459309      2.401434
      2.68820     11.36521      6.70504        -0.580736     -3.409738      5.524796
      7.35371      0.63702     11.68664         3.673330     -1.339535     -5.027348
     11.31880      0.97656      6.36170         0.889675     -2.617220      1.420479
      9.64410     11.64750      7.25076         2.162916      5.375374      4.755887
      5.35718      5.83144     10.85492         5.058959     -1.129745     -1.920334
     11.19998      9.47643      8.38336         1.089858      7.106057      2.193310
      7.48180      7.87005      9.69592         4.376018      1.707142     -3.155812
      6.64968      6.70377      3.11940         1.409301     -0.216215      2.707598
     10.09647      1.71350      3.94023         3.514192      0.365159     -1.810741
     11.14875      9.52523      1.14510         2.600960     -0.132587      2.041363
      2.60941      0.14979      2.02005         2.212098     -0.213895     -1.592859
      8.17541      1.33819      1.31359         0.456846     -1.685021     -2.100229
      2.37130      4.46182      5.05453         1.462795     -0.455083     -1.025064
     10.71127     10.41500      4.22975        -1.440950     -0.577783      0.155704
      2.42793      1.69559     10.11712        -2.637017     -4.859825     11.815662
     10.46014      7.60480     10.33079        -1.333622     -5.782743      2.654139
      2.47398      4.37661      1.73837        -4.903032      1.213480     -0.879685
      2.43654     10.21892      2.01262         1.519002     -4.901914     -2.252034
      1.90607     11.03451     12.33739        -0.634747     -2.456464     -1.612666
      4.89578     10.00381      6.49333         3.738639     -2.047663      2.223939
     12.45473      1.87570     10.98066         0.223610     -0.171561      1.991055
      8.75332      8.96563      2.86399        -1.640432      2.029843      0.286720
      5.94823      9.50031     12.47807         1.959009      6.755200     -0.994596
     10.65893      3.65976      6.28989         0.411147      1.496201      1.926726
      0.29146      6.14009      5.36441        -0.145535      2.503495      3.018375
      6.63572      1.40594      3.84291        -2.216708     -0.231493      1.245769
      8.94116     13.28846      0.82081         1.304731     -0.869953      2.798874
      6.39706      6.74425      9.55576        -3.179055     -2.897742      1.891901
      5.56967      8.70514      7.46927        -3.075628      2.957583     -1.414642
      5.85863      7.85580      3.86600        -1.478609      0.503325     -0.208257
     11.66127      0.52163     11.16462        -0.503398     -0.757904     -0.844016
     10.04516      5.92800      0.93544         1.489894      1.324804     -1.055302
[...]
      4.03118      6.62898     10.98803        -2.404834     -0.065793     -0.986043
     12.18198      7.92814      0.60740         0.749630      6.802025      3.813816
      5.51372      8.14648     11.92892        -0.194592     -1.278623      0.997901
     12.92868      2.13294     12.69380        -2.303485      0.971380     -2.067375
      8.25061      7.81390      8.09145        -0.285274     -4.375243      5.699800
      5.87656      2.64709      4.70876         1.498103     -1.236723     -1.384379
      8.93793      7.82107     10.65065        -6.609390     -1.753039      1.493414
      3.86125      9.49675      2.38474         0.118855     -0.350554      0.746209
      3.63385      3.43184      1.38162         3.422712     -0.950980     -0.756653
      1.71694     12.26214      5.86633         0.478661      0.952732     -2.338919
      1.81816     11.12049      8.09718         2.738352      0.311489     -1.599103
      7.91853      7.54720      2.28933         1.361645      1.274273      2.341044
     12.11570     10.82893      4.82012         1.061283      0.861104      1.879508
     10.78759      6.18968      9.54761         1.537197      1.689788      1.979426
     11.35230     10.68896      0.08456         1.811371     -0.671590     -0.028822
    total drift:                                0.020381     -0.003062     -0.013452

  FREE ENERGIE OF THE ION-ELECTRON SYSTEM (eV)
  free  energy   TOTEN  =      -917.48395445 eV

  energy  without entropy=     -917.43774124  energy(sigma->0) =     -917.46084785