 vasp.5.4.4.18Apr17-6-g9f103f2a35 (build Oct 31 2019 15:01:46) complex

 executed on             LinuxIFC date 2024.04.29  08:09:39

 INCAR:
 POTCAR:    PAW_PBE Ca_sv 06Sep2000
 POTCAR:    PAW_PBE Si 05Jan2001
 POTCAR:    PAW_PBE O 08Apr2002
 POTCAR:    PAW_PBE Ca_sv 06Sep2000
   VRHFIN =Ca: 3s3p4s

   TITEL  = PAW_PBE Ca_sv 06Sep2000
   POMASS =   40.078; ZVAL   =   10.000    mass and valenz
   ENMAX  =  266.622; ENMIN  =  199.967 eV

   TITEL  = PAW_PBE Si 05Jan2001
   POMASS =   28.085; ZVAL   =    4.000    mass and valenz
   ENMAX  =  245.345; ENMIN  =  184.009 eV

   TITEL  = PAW_PBE O 08Apr2002
   POMASS =   16.000; ZVAL   =    6.000    mass and valenz
   ENMAX  =  400.000; ENMIN  =  300.000 eV

 Optimization of the real space projectors (new method)

 maximal supplied QI-value         = 16.25
 optimisation between [QCUT,QGAM] = [ 12.51, 25.03] = [ 43.85,175.40] Ry
 Optimized for a Real-space Cutoff    1.47 Angstroem

   l    n(q)    QCUT    max X(q) W(low)/X(q) W(high)/X(q)  e(spline)
   0     11    12.514    11.817    0.25E-04    0.32E-05    0.87E-07
   0     11    12.514     8.461    0.39E-04    0.59E-05    0.18E-06
   1     11    12.514     3.957    0.97E-05    0.57E-05    0.28E-07
   1     11    12.514     4.314    0.42E-04    0.14E-04    0.23E-06
   2     10    12.514    14.565    0.79E-04    0.50E-03    0.16E-05
   2     10    12.514    14.552    0.75E-04    0.48E-03    0.15E-05
 Optimization of the real space projectors (new method)

[...]

   l    n(q)    QCUT    max X(q) W(low)/X(q) W(high)/X(q)  e(spline)
   0      9    12.501   159.560    0.10E-03    0.83E-04    0.71E-07
   0      9    12.501   115.863    0.99E-04    0.81E-04    0.70E-07
   1      8    12.501    88.339    0.20E-03    0.25E-03    0.76E-07
   1      8    12.501    48.592    0.20E-03    0.24E-03    0.75E-07
 Optimization of the real space projectors (new method)

 maximal supplied QI-value         = 24.76
 optimisation between [QCUT,QGAM] = [ 12.38, 25.00] = [ 42.90,175.06] Ry
 Optimized for a Real-space Cutoff    1.16 Angstroem

   l    n(q)    QCUT    max X(q) W(low)/X(q) W(high)/X(q)  e(spline)
   0      9    12.378    20.381    0.16E-03    0.67E-05    0.31E-06
   0      9    12.378    15.268    0.17E-03    0.81E-05    0.33E-06
   1      8    12.378     5.964    0.20E-03    0.16E-03    0.30E-06
   1      8    12.378     5.382    0.18E-03    0.14E-03    0.26E-06
  PAW_PBE Ca_sv 06Sep2000               :
  PAW_PBE Si 05Jan2001                  :
  PAW_PBE O 08Apr2002                   :

 POSCAR: Ca Si  O
  positions in direct lattice
 exchange correlation table for  LEXCH =        8
   RHO(1)=    0.500       N(1)  =     2000
   RHO(2)=  100.500       N(2)  =     4000

 ion  position               nearest neighbor table
   1  0.769  0.126  0.475-  80 2.20  89 2.23 107 2.40  91 2.43  43 2.67
   2  0.398  0.530  0.082-  72 2.00 119 2.06  84 2.38
   3  0.158  0.137  0.826- 106 1.99  57 2.29 120 2.46  12 2.79   6 3.17
   4  0.435  0.395  0.580-  76 1.99 101 2.23  86 2.36 102 2.49  33 2.97
   5  0.855  0.237  0.712- 112 2.01  80 2.14  65 2.55  36 2.94
   6  0.373  0.114  0.725-  94 2.17 106 2.22  57 2.27  63 2.41  55 2.52  40 2.98   3 3.17
   7  0.406  0.087  0.386- 125 2.14 135 2.23  33 3.11
   8  0.574  0.765  0.298-  81 2.09  83 2.18  95 2.26  60 2.57  48 2.91  37 3.03
   9  0.489  0.074  0.939-  68 2.14  55 2.18  63 2.26  70 2.54  40 3.05
  10  0.979  0.888  0.727- 110 2.33  73 2.34 117 2.39 131 2.43  22 2.79
  11  0.882  0.579  0.373-  82 2.34 114 2.41 127 2.41 124 2.46  48 3.00
  12  0.099  0.239  0.652- 106 1.92 115 2.28   3 2.79
  13  0.679  0.537  0.682-  58 1.96 105 2.53 116 2.54  34 2.69
  14  0.283  0.853  0.198-  74 2.22  96 2.46 103 2.49 135 2.53  29 2.76  42 3.13
  15  0.920  0.114  0.273-  61 2.23  56 2.47
  16  0.779  0.324  0.980- 118 2.27 134 2.39  50 3.06
  17  0.662  0.355  0.514- 101 2.24  80 2.27 107 2.31 114 2.53  36 2.93  39 3.09
  18  0.722  0.613  0.976-  79 2.08 118 2.14 105 2.39
  19  0.636  0.929  0.629-  71 2.14  93 2.33  91 2.47  45 2.73  34 3.14
  20  0.755  0.976  0.075-  92 2.13 128 2.50  44 2.91  41 2.98
  21  0.398  0.286  0.036-  68 2.39  55 2.40  84 2.43
  22  0.132  0.839  0.593- 100 2.01  73 2.24  10 2.79  27 2.87  47 3.11
  23  0.169  0.428  0.924-  78 2.03  59 2.29  51 3.06
  24  0.031  0.815  0.018- 108 2.29  74 2.49 131 2.54  41 2.95
  25  0.453  0.692  0.827- 119 2.24  77 2.25 132 2.53  38 2.83  52 3.15
  26  0.975  0.875  0.351- 124 2.04 100 2.33  48 3.11
  27  0.281  0.684  0.601-  75 2.00  66 2.15  86 2.22  85 2.54  28 2.75  22 2.87
  28  0.400  0.848  0.641-  66 1.60  94 1.62  85 1.67  93 1.80  53 2.67  27 2.75
  29  0.336  0.902  0.003- 129 1.50  70 1.57 103 1.64  14 2.76  38 3.00  53 3.01
  30  0.163  0.642  0.391-  75 1.50  82 1.57  96 1.78  87 1.96  69 2.49  42 2.89
  31  0.164  0.123  0.372- 130 1.51  64 1.59 104 1.71  56 1.79  35 2.50  47 2.90
  32  0.257  0.432  0.291- 121 1.62  87 1.67 126 1.67 123 1.73  35 2.98
  33  0.459  0.314  0.374- 125 1.48  76 1.57 113 1.79   4 2.97  39 3.01   7 3.11
  34  0.739  0.729  0.700- 105 1.62 117 1.67  58 1.69  13 2.69  19 3.14
  35  0.128  0.255  0.243- 104 1.57  90 1.77 126 1.80  56 1.95  31 2.50 121 2.50  32 2.98  49 3.01

  36  0.879  0.378  0.543- 115 1.62 114 1.63  80 1.91 116 2.21  17 2.93   5 2.94
  37  0.532  0.569  0.406-  81 1.50 101 1.67   8 3.03
  38  0.496  0.745  0.029-  83 1.58 132 1.67 119 1.85  70 2.31  25 2.83  29 3.00
  39  0.665  0.332  0.283- 109 1.56 113 1.58 107 1.67  99 1.71  33 3.01  17 3.09
  40  0.544  0.242  0.792- 102 1.58  65 1.81  67 1.85  55 1.89  63 2.07  45 2.37   6 2.98   9 3.05

  41  0.954  0.019  0.983- 131 1.56 128 1.80 133 1.82 120 1.91  24 2.95  20 2.98  49 3.10
  42  0.172  0.647  0.173-  74 1.53  72 1.63  96 1.72  69 1.76  54 2.82  30 2.89  14 3.13
  43  0.634  0.008  0.386-  91 1.57  60 1.79  89 1.80  97 2.19   1 2.67
  44  0.620  0.128  0.157-  97 1.55  99 1.64  92 1.71  68 2.06  20 2.91
  45  0.642  0.118  0.710-  65 1.44  63 1.65  71 1.83  40 2.37  19 2.73
  46  0.007  0.447  0.736-  98 1.71  78 1.77 112 1.90 116 2.16  51 2.95
  47  0.029  0.036  0.520- 100 1.60  61 1.65 110 1.93  64 2.14  31 2.90  22 3.11
  48  0.791  0.756  0.269- 124 1.57  62 1.66  95 1.68 127 2.44   8 2.91  11 3.00  26 3.11
  49  0.054  0.224  0.032- 120 1.53  90 1.59  59 1.74 134 1.80  35 3.01  41 3.10
  50  0.827  0.466  0.154- 118 1.57  88 1.62 109 1.82 127 1.96  54 2.49  16 3.06
  51  0.059  0.620  0.863-  98 1.54 111 1.62 108 1.76 122 2.24  46 2.95  23 3.06
  52  0.513  0.468  0.871-  77 1.61  79 1.65  84 1.77  67 1.96  25 3.15
  53  0.270  0.893  0.787-  57 1.57  73 1.66  66 1.66 129 2.10  94 2.16  28 2.67  29 3.01
  54  0.975  0.579  0.137- 122 1.69  88 1.70 127 1.74  69 1.81  50 2.49  42 2.82
  55  0.432  0.214  0.874-  40 1.89   9 2.18  21 2.40   6 2.52
  56  0.057  0.203  0.360-  31 1.79  35 1.95  15 2.47
  57  0.271  0.008  0.813-  53 1.57   6 2.27   3 2.29
  58  0.758  0.640  0.611-  34 1.69  13 1.96
  59  0.170  0.275  0.003-  49 1.74  23 2.29
  60  0.632  0.884  0.438-  43 1.79   8 2.57
  61  0.949  0.062  0.429-  47 1.65  15 2.23
  62  0.742  0.801  0.163-  48 1.66
  63  0.544  0.087  0.779-  45 1.65  40 2.07   9 2.26   6 2.41
  64  0.161  0.124  0.492-  31 1.59  47 2.14
  65  0.672  0.209  0.761-  45 1.44  40 1.81   5 2.55
  66  0.298  0.814  0.695-  28 1.60  53 1.66  27 2.15
  67  0.605  0.360  0.830-  40 1.85  52 1.96
  68  0.482  0.135  0.087-  44 2.06   9 2.14  21 2.39
  69  0.064  0.606  0.236-  42 1.76  54 1.81  30 2.49
  70  0.450  0.912  0.031-  29 1.57  38 2.31   9 2.54
  71  0.747  0.039  0.668-  45 1.83  19 2.14
  72  0.274  0.582  0.149-  42 1.63   2 2.00
  73  0.152  0.902  0.748-  53 1.66  22 2.24  10 2.34
  74  0.168  0.753  0.129-  42 1.53  14 2.22  24 2.49
  75  0.206  0.705  0.473-  30 1.50  27 2.00
  76  0.377  0.334  0.456-  33 1.57   4 1.99
  77  0.490  0.535  0.774-  52 1.61  25 2.25
  78  0.134  0.446  0.777-  46 1.77  23 2.03
  79  0.606  0.515  0.937-  52 1.65  18 2.08
  80  0.796  0.263  0.564-  36 1.91   5 2.14   1 2.20  17 2.27
  81  0.494  0.675  0.399-  37 1.50   8 2.09
  82  0.046  0.637  0.402-  30 1.57  11 2.34
  83  0.531  0.739  0.142-  38 1.58   8 2.18
  84  0.399  0.435  0.930-  52 1.77   2 2.38  21 2.43
  85  0.403  0.808  0.523-  28 1.67  27 2.54
  86  0.315  0.521  0.612-  27 2.22   4 2.36
  87  0.196  0.499  0.378-  32 1.67  30 1.96
  88  0.946  0.463  0.179-  50 1.62  54 1.70
  89  0.767  0.006  0.358-  43 1.80   1 2.23
  90  0.053  0.199  0.149-  49 1.59  35 1.77
  91  0.604  0.050  0.492-  43 1.57   1 2.43  19 2.47
  92  0.675  0.111  0.042-  44 1.71  20 2.13
  93  0.522  0.808  0.683-  28 1.80  19 2.33
  94  0.365  0.960  0.673-  28 1.62  53 2.16   6 2.17
  95  0.713  0.669  0.316-  48 1.68   8 2.26
  96  0.205  0.708  0.283-  42 1.72  30 1.78  14 2.46
  97  0.643  0.036  0.224-  44 1.55  43 2.19
  98  0.988  0.537  0.825-  51 1.54  46 1.71
  99  0.658  0.240  0.193-  44 1.64  39 1.71
 100  0.069  0.928  0.488-  47 1.60  22 2.01  26 2.33
[...]
 121  0.302  0.323  0.261-  32 1.62  35 2.50
 122  0.994  0.620  0.018-  54 1.69  51 2.24
 123  0.378  0.473  0.267-  32 1.73
 124  0.870  0.762  0.356-  48 1.57  26 2.04  11 2.46
 125  0.496  0.218  0.415-  33 1.48   7 2.14
 126  0.153  0.388  0.237-  32 1.67  35 1.80
 127  0.861  0.603  0.195-  54 1.74  50 1.96  11 2.41  48 2.44
 128  0.853  0.109  0.987-  41 1.80  20 2.50
 129  0.374  0.868  0.903-  29 1.50  53 2.10
 130  0.166  0.017  0.333-  31 1.51
 131  0.001  0.957  0.895-  41 1.56  10 2.43  24 2.54
 132  0.582  0.774  0.942-  38 1.67  25 2.53
 133  0.956  0.985  0.115-  41 1.82
 134  0.952  0.312  0.023-  49 1.80  16 2.39
 135  0.342  0.935  0.358-   7 2.23  14 2.53

IMPORTANT INFORMATION: All symmetrisations will be switched off!
NOSYMM: (Re-)initialisation of all symmetry stuff for point group C_1.

Automatic generation of k-mesh.
 generate k-points for:    2    2    2
Space group operators:
 irot       det(A)        alpha          n_x          n_y          n_z        tau_x        tau_y        tau_z
    1     1.000000     0.000001     1.000000     0.000000     0.000000     0.000000     0.000000     0.000000

 Subroutine IBZKPT returns following result:

 Found      8 irreducible k-points:

 Following reciprocal coordinates:
            Coordinates               Weight
  0.000000  0.000000  0.000000      1.000000
  0.500000  0.000000  0.000000      1.000000
  0.000000  0.500000  0.000000      1.000000
  0.500000  0.500000  0.000000      1.000000
  0.000000  0.000000  0.500000      1.000000
  0.500000  0.000000  0.500000      1.000000
  0.000000  0.500000  0.500000      1.000000
  0.500000  0.500000  0.500000      1.000000

 Following cartesian coordinates:
            Coordinates               Weight
  0.000000  0.000000  0.000000      1.000000
  0.037563  0.000000  0.000000      1.000000
  0.000000  0.037563  0.000000      1.000000
  0.037563  0.037563  0.000000      1.000000
  0.000000  0.000000  0.037563      1.000000
  0.037563  0.000000  0.037563      1.000000
  0.000000  0.037563  0.037563      1.000000
  0.037563  0.037563  0.037563      1.000000

 SYSTEM =  unknown system
 POSCAR =  Ca Si  O

 Startparameter for this run:
   NWRITE =      2    write-flag & timer
[...]
     0.000000000  0.000000000 13.310935620     0.000000000  0.000000000  0.075126199

  length of vectors
    13.310935620 13.310935620 13.310935620     0.075126199  0.075126199  0.075126199

 FORCES acting on ions
    electron-ion (+dipol)            ewald-force                    non-local-force                 convergence-correction
   -.103E+03 0.585E+02 -.208E+02   0.102E+03 -.588E+02 0.192E+02   0.139E+01 0.883E-01 0.207E+01   0.510E-03 0.507E-04 -.884E-03
   -.164E+03 0.107E+03 -.911E+02   0.160E+03 -.102E+03 0.910E+02   0.557E+01 -.595E+01 0.123E+01   0.276E-03 -.151E-03 0.105E-02
   0.115E+03 -.627E+02 -.168E+03   -.110E+03 0.587E+02 0.169E+03   -.533E+01 0.180E+01 0.172E+01   -.375E-03 -.185E-03 0.157E-03
   0.178E+03 -.110E+03 -.220E+03   -.186E+03 0.113E+03 0.218E+03   0.536E+01 -.169E+01 0.505E+01   0.399E-02 -.346E-02 -.211E-02
   -.726E-02 0.101E+03 -.203E+03   0.910E+00 -.991E+02 0.201E+03   -.191E+01 -.401E+01 0.232E+01   0.733E-03 0.670E-03 0.869E-05
   -.145E+02 -.135E+03 0.177E+03   0.967E+01 0.132E+03 -.177E+03   0.420E+01 0.278E+01 -.564E+00   -.660E-03 -.658E-03 -.270E-03
   0.689E+02 0.899E+02 0.691E+02   -.685E+02 -.945E+02 -.693E+02   -.140E+01 0.286E+01 0.176E+00   -.955E-03 -.202E-02 -.842E-03
   0.874E+02 -.929E+02 0.136E+02   -.859E+02 0.906E+02 -.114E+02   -.966E+00 0.400E+01 -.178E+01   -.414E-03 -.148E-03 0.565E-03
   -.931E+02 0.161E+03 -.118E+03   0.942E+02 -.158E+03 0.123E+03   -.349E+00 -.467E+01 -.308E+01   -.107E-03 -.274E-03 0.949E-03
   0.232E+03 0.165E+03 -.250E+02   -.235E+03 -.161E+03 0.327E+02   0.993E+00 -.308E+01 -.484E+01   -.139E-03 -.122E-03 -.111E-03
   0.381E+01 0.548E+02 -.247E+03   -.146E+01 -.521E+02 0.247E+03   -.173E+01 -.202E+01 0.749E+00   -.627E-03 0.814E-04 0.726E-04
   -.254E+02 -.170E+03 0.134E+03   0.285E+02 0.173E+03 -.137E+03   -.477E+01 -.907E+00 0.636E+00   -.748E-03 -.347E-03 -.140E-03
   0.600E+02 0.658E+01 0.108E+02   -.553E+02 -.192E+01 -.814E+01   -.521E+01 -.630E+01 -.444E+00   0.157E-02 0.219E-03 -.765E-03
   -.152E+03 -.134E+03 -.817E+02   0.147E+03 0.133E+03 0.874E+02   0.423E+01 0.826E+00 -.256E+01   0.477E-03 0.129E-02 0.148E-02
   0.829E+02 -.725E+02 0.181E+03   -.786E+02 0.713E+02 -.178E+03   -.344E+01 0.128E+01 -.345E+01   0.304E-03 -.163E-03 0.125E-03
   0.568E+02 0.606E+02 0.610E+02   -.510E+02 -.605E+02 -.585E+02   -.450E+01 -.147E+01 -.265E+01   0.328E-03 0.828E-04 0.341E-03
   0.267E+01 -.156E+03 -.143E+03   0.444E+00 0.151E+03 0.135E+03   -.262E+01 0.273E+01 0.619E+01   0.414E-03 0.559E-03 -.766E-03
   -.139E+03 -.222E+03 -.324E+02   0.134E+03 0.219E+03 0.286E+02   0.451E+01 0.473E+01 0.289E+01   0.542E-03 0.798E-04 0.306E-03
   -.452E+02 0.212E+03 -.814E+02   0.453E+02 -.214E+03 0.768E+02   -.958E+00 -.133E+00 0.212E+01   -.259E-03 -.126E-02 -.832E-03
   -.329E+01 0.249E+03 0.133E+03   0.337E+01 -.243E+03 -.132E+03   0.314E+00 -.554E+01 -.327E+00   0.378E-04 -.499E-04 0.280E-03
   0.440E+02 -.247E+02 -.162E+03   -.428E+02 0.201E+02 0.158E+03   -.166E+01 0.323E+01 0.363E+01   -.655E-04 -.334E-03 0.940E-03
   0.112E+03 0.218E+03 0.514E+02   -.107E+03 -.214E+03 -.555E+02   -.186E+01 -.523E+01 0.319E+01   -.262E-03 0.919E-03 -.582E-03
   -.737E+02 -.344E+02 -.393E+02   0.727E+02 0.333E+02 0.372E+02   0.164E+01 0.125E+01 0.349E+01   -.970E-03 -.315E-03 0.403E-03
   0.135E+03 -.393E+02 -.629E+02   -.130E+03 0.367E+02 0.592E+02   -.290E+01 0.178E+01 0.326E+01   -.204E-03 0.219E-03 0.225E-03
   0.332E+02 0.932E+01 0.129E+03   -.290E+02 -.110E+02 -.127E+03   -.326E+01 0.222E+01 -.283E+01   0.102E-02 0.175E-02 0.101E-02
   -.290E+02 0.599E+02 0.102E+03   0.287E+02 -.613E+02 -.971E+02   0.214E+01 0.264E+01 -.414E+01   0.211E-03 0.430E-03 -.742E-04
   0.329E+02 0.282E+03 -.790E+02   -.282E+02 -.290E+03 0.720E+02   -.229E+01 0.369E+01 0.634E+01   -.514E-03 0.670E-02 -.122E-02
   -.108E+03 0.267E+02 0.524E+02   0.106E+03 -.237E+02 -.605E+02   0.790E+01 -.185E+01 0.306E+01   0.212E-03 0.274E-03 -.830E-03
   0.719E+02 -.106E+02 -.954E+02   -.669E+02 0.124E+02 0.906E+02   -.943E+01 0.119E+01 0.741E+01   -.712E-04 0.126E-03 0.326E-03
   -.370E+02 0.780E+02 -.376E+02   0.301E+02 -.678E+02 0.447E+02   0.655E+01 -.138E+02 -.124E+02   -.500E-03 0.641E-03 -.566E-03
   -.820E+02 -.550E+02 -.188E+02   0.765E+02 0.405E+02 0.165E+02   0.238E+01 0.166E+02 0.870E+00   0.141E-03 -.309E-03 -.178E-04
   0.401E+01 -.422E+02 -.524E+02   -.199E+01 0.384E+02 0.527E+02   -.669E+00 0.605E+01 0.852E+00   0.330E-03 -.287E-03 -.630E-03
   0.697E+02 -.445E+02 0.158E+03   -.715E+02 0.319E+02 -.141E+03   -.752E-01 0.180E+02 -.204E+02   0.304E-03 -.100E-03 -.488E-03
   0.211E+02 -.787E+02 0.482E+01   -.109E+02 0.730E+02 -.347E+01   -.538E+01 0.512E+01 -.252E+01   0.232E-03 -.324E-04 -.112E-03
   0.450E+02 -.809E+02 0.153E+02   -.393E+02 0.749E+02 -.129E+02   -.866E+01 0.902E+01 -.269E+01   -.705E-04 -.249E-03 0.929E-05
   -.677E+02 -.103E+03 0.112E+02   0.718E+02 0.101E+03 -.160E+02   -.475E+01 0.322E+00 0.638E+01   -.116E-04 -.333E-05 -.130E-04
   -.277E+02 -.134E+02 0.233E+02   0.250E+02 0.229E+02 -.249E+02   0.306E+01 -.138E+02 0.125E+01   0.514E-03 0.200E-03 -.455E-03
   0.351E+01 -.254E+02 -.327E+02   0.796E+01 0.224E+02 0.356E+02   -.101E+02 0.283E+01 -.485E+01   0.130E-03 0.171E-03 0.332E-03
   -.279E+02 -.261E+02 0.992E+02   0.255E+02 0.236E+02 -.932E+02   0.235E+01 -.378E+01 -.478E+01   -.171E-04 0.105E-03 0.470E-04
   -.122E+01 -.556E+02 -.102E+03   -.286E+01 0.624E+02 0.913E+02   0.325E+01 -.332E+01 0.134E+02   0.166E-03 -.529E-04 0.336E-03
   0.663E+02 0.336E+02 0.287E+01   -.669E+02 -.328E+02 -.741E+01   -.205E+00 0.674E+01 0.827E+01   0.190E-04 -.446E-04 0.806E-04
   0.267E+02 0.783E+02 0.544E+02   -.190E+02 -.674E+02 -.523E+02   -.605E+01 -.122E+02 0.204E+01   -.339E-04 0.238E-03 -.594E-04
   0.923E+02 0.434E+02 0.133E+03   -.876E+02 -.497E+02 -.118E+03   -.192E+00 -.421E+00 -.159E+02   -.247E-03 -.253E-03 -.235E-03
   0.849E+02 -.177E+02 0.274E+01   -.782E+02 0.121E+02 -.467E+01   -.954E+01 0.808E+01 -.412E+01   0.737E-05 -.142E-03 0.203E-03
   -.315E+02 0.108E+03 0.517E+02   0.349E+02 -.103E+03 -.445E+02   -.257E+01 -.152E+02 -.129E+02   0.161E-03 0.759E-04 0.145E-03
   -.713E+01 -.850E+02 0.116E+03   0.120E+02 0.820E+02 -.107E+03   -.594E+01 -.526E+00 -.611E+01   -.285E-03 -.455E-04 0.114E-03
   -.154E+02 -.505E+02 -.804E+02   0.923E+01 0.427E+02 0.728E+02   0.450E+01 0.984E+01 0.822E+01   0.111E-03 -.396E-04 -.303E-03
   -.863E+01 -.611E+02 0.526E+02   0.323E+01 0.573E+02 -.486E+02   0.906E+00 0.727E+00 -.584E+01   -.108E-03 -.550E-05 0.114E-03
   0.137E+02 -.633E+02 0.182E+02   -.130E+02 0.583E+02 -.176E+02   -.156E+01 0.118E+02 -.127E+01   -.680E-04 -.277E-04 0.116E-03
   0.389E+02 0.585E+02 -.293E+02   -.351E+02 -.547E+02 0.208E+02   -.576E+01 -.223E+01 0.118E+02   -.158E-03 -.129E-04 0.149E-04
   -.294E+01 -.271E+02 0.115E+03   0.675E+01 0.294E+02 -.108E+03   -.244E+01 0.488E+01 -.187E+01   -.424E-03 -.463E-04 0.326E-04
   0.276E+02 0.553E+02 -.932E+01   -.253E+02 -.462E+02 0.732E+01   -.161E+01 -.105E+02 0.281E+01   0.547E-03 -.234E-03 0.724E-03
   0.295E+01 0.121E+03 -.113E+03   -.111E+02 -.107E+03 0.108E+03   0.761E+01 -.112E+02 0.440E+01   -.110E-03 0.280E-03 -.130E-04
   -.271E+02 -.259E+02 0.669E+02   0.261E+02 0.263E+02 -.667E+02   0.267E+01 0.691E+00 0.997E+00   -.160E-03 0.469E-04 -.403E-04
   0.102E+03 -.132E+03 -.496E+02   -.117E+03 0.135E+03 0.543E+02   0.179E+02 -.179E+01 -.599E+01   -.819E-04 -.286E-03 0.436E-03
   0.644E+02 -.191E+03 -.579E+02   -.840E+02 0.199E+03 0.739E+02   0.209E+02 -.641E+01 -.197E+02   0.105E-03 -.477E-03 -.173E-03
   0.318E+02 -.307E+02 -.148E+03   -.333E+02 0.541E+02 0.153E+03   0.231E+01 -.197E+02 -.154E+01   -.133E-03 -.610E-04 -.127E-04
   -.118E+03 -.917E+02 0.163E+03   0.130E+03 0.818E+02 -.185E+03   -.133E+02 0.125E+02 0.222E+02   0.146E-03 -.822E-05 -.190E-03
   -.111E+03 -.369E+01 -.250E+02   0.129E+03 0.775E+01 0.243E+02   -.195E+02 -.404E+01 0.641E-01   -.162E-03 -.169E-03 0.297E-03
   0.515E+01 0.164E+03 -.127E+02   -.431E+01 -.181E+03 0.218E+02   -.151E+01 0.186E+02 -.119E+02   -.455E-03 -.151E-03 -.301E-03
[...]
   0.944E+02 0.367E+01 0.674E+02   -.903E+02 0.309E+01 -.888E+02   -.591E+01 -.753E+01 0.250E+02   -.226E-03 0.300E-04 -.156E-04
   -.128E+03 -.853E+02 -.197E+02   0.148E+03 0.895E+02 0.177E+02   -.197E+02 -.408E+01 0.262E+01   0.469E-03 0.811E-04 -.412E-03
   0.219E+02 -.107E+02 -.136E+03   -.877E+01 0.743E+01 0.163E+03   -.120E+02 0.383E+01 -.273E+02   -.135E-03 0.145E-03 0.805E-05
   0.223E+02 0.115E+03 -.737E+01   -.575E+01 -.144E+03 0.250E+02   -.137E+02 0.229E+02 -.174E+02   0.438E-04 -.507E-03 -.605E-03
   0.125E+03 -.269E+02 0.362E+02   -.144E+03 0.421E+02 -.475E+02   0.158E+02 -.185E+02 0.100E+02   0.113E-03 -.550E-03 -.268E-03
   0.997E+02 -.114E+03 0.530E+02   -.115E+03 0.128E+03 -.433E+02   0.141E+02 -.124E+02 -.108E+02   -.234E-03 0.786E-04 0.250E-04
   0.628E+02 -.287E+02 0.918E+02   -.767E+02 0.455E+02 -.907E+02   0.161E+02 -.206E+02 -.187E+01   0.432E-04 -.404E-04 0.205E-03
   -.187E+02 0.768E+02 0.419E+02   0.424E+02 -.857E+02 -.664E+02   -.264E+02 0.513E+01 0.142E+02   -.124E-03 0.310E-03 0.373E-03
   -.560E+02 0.152E+03 0.114E+03   0.591E+02 -.187E+03 -.126E+03   -.386E+01 0.311E+02 0.112E+02   0.994E-03 -.185E-03 -.317E-03
   0.791E+02 0.371E+02 0.338E+02   -.629E+02 -.499E+02 -.579E+02   -.170E+02 0.109E+02 0.237E+02   -.725E-04 -.291E-04 0.130E-03
   -.198E+03 -.114E+03 0.337E+02   0.218E+03 0.124E+03 -.519E+02   -.225E+02 -.118E+02 0.194E+02   0.281E-03 0.226E-03 0.276E-03
   -.187E+02 0.863E+02 -.669E+02   0.228E+02 -.873E+02 0.845E+02   -.469E+01 -.146E+00 -.201E+02   0.944E-04 0.199E-04 0.230E-03
   0.262E+02 -.684E+02 0.118E+02   -.361E+02 0.825E+02 -.115E+02   0.108E+02 -.157E+02 -.107E+01   -.679E-04 -.155E-04 0.463E-04
   -.426E+02 0.689E+02 0.141E+02   0.376E+02 -.746E+02 -.864E+01   0.583E+01 0.616E+01 -.679E+01   0.552E-03 -.719E-04 0.422E-04
   0.121E+03 -.602E+01 0.624E+02   0.519E-12 0.384E-12 -.842E-12   -.121E+03 0.602E+01 -.624E+02   0.813E-02 0.539E-02 -.546E-02

 POSITION                                       TOTAL-FORCE (eV/Angst)
     10.24168      1.67651      6.32335         0.650113     -0.212692      0.490443
      5.29140      7.05451      1.08841         0.994474     -0.628066      1.151091
      2.10523      1.82101     10.99244        -0.432660     -2.244541      3.471165
      5.78688      5.25562      7.72647        -2.349825      1.707837      3.044622
     11.38106      3.14986      9.47127        -1.007764     -1.717025      0.574808
      4.96156      1.51206      9.65616        -0.596806      0.510681     -0.977332
      5.40569      1.16068      5.13239        -0.986248     -1.732354      0.016100
      7.64369     10.17888      3.96205         0.592871      1.728742      0.395941
      6.51380      0.99056     12.49978         0.821325     -1.702230      1.785164
     13.02629     11.82537      9.68001        -1.532523      0.538454      2.877440
     11.74683      7.70156      4.96602         0.616673      0.614885      0.489038
      1.32355      3.17470      8.67594        -1.616914      1.767683     -2.882110
      9.03493      7.15064      9.07372        -0.573019     -1.638165      2.256806
      3.76314     11.35574      2.63401        -0.665368      0.380262      3.222158
     12.24151      1.51627      3.63050         0.842479      0.137511     -0.438005
     10.36527      4.30881     13.03845         1.279113     -1.425958     -0.121899
      8.81437      4.72052      6.83897         0.495786     -1.598659     -1.822329
      9.61582      8.15548     12.99025        -0.591747      2.105769     -0.915713
      8.46101     12.37059      8.37286        -0.854638     -2.403859     -2.514134
     10.04397     12.99140      1.00222         0.384992     -0.347247      0.384693
      5.30156      3.80236      0.48391        -0.438000     -1.325775     -0.226917
      1.75415     11.16985      7.89679         2.686407     -1.276379     -0.892728
      2.25191      5.69573     12.29526         0.658003      0.222082      1.414372
      0.41051     10.84297      0.24062         1.563504     -0.800694     -0.493027
      6.03645      9.21215     11.00980         0.941031      0.573398     -0.691238
     12.97683     11.64264      4.66824         1.788966      1.316716      0.571816
      3.74008      9.10406      8.00324         2.351681     -4.361856     -0.673847
      5.32643     11.28710      8.53213         6.599706      1.106870     -5.012294
      4.47597     12.00968      0.04541        -4.493258      3.084447      2.660525
      2.17392      8.54085      5.20029        -0.341509     -3.644276     -5.293949
      2.18093      1.63778      4.95330        -3.188967      2.048683     -1.372271
      3.41743      5.75514      3.86921         1.346577      2.281807      1.112787
      6.10316      4.18520      4.97327        -1.888873      5.424610     -2.726675
      9.83501      9.70844      9.31391         4.725812     -0.587132     -1.165776
      1.70171      3.39590      3.23926        -3.008099      2.970228     -0.313286
     11.70403      5.03392      7.23217        -0.690914     -0.908218      1.615810
      7.07838      7.57513      5.40010         0.328631     -4.321793     -0.285492
      6.59991      9.91833      0.38288         1.369540     -0.206304     -1.882272
      8.85090      4.41684      3.76599         0.008738     -6.332714      1.201506
      7.23997      3.21946     10.54439        -0.832496      3.472721      2.684784
     12.70140      0.25652     13.08243        -0.795945      7.528833      3.728719
      2.29611      8.61138      2.30912         1.678645     -1.387588      4.095479
      8.44080      0.10907      5.13527         4.506201     -6.704763     -1.429564
      8.25907      1.70446      2.08954        -2.855599      2.481725     -6.047737
      8.55065      1.56981      9.45244         0.866286    -10.029897     -5.616673
      0.09411      5.94351      9.79680        -1.051747     -3.578103      2.802664
      0.39236      0.48391      6.91930        -1.647284      2.092586      0.614067
     10.52828     10.06234      3.58141        -4.501227     -3.074313     -1.834359
      0.72072      2.97700      0.42767        -0.813947      6.780421     -0.677877
     11.01464      6.19887      2.04786        -1.922969      1.609987      3.349425
      0.78934      8.25826     11.48857         1.364367      7.189253      4.700756
      6.83380      6.22690     11.59674         0.652366     -1.341197      0.813005
      3.59693     11.89058     10.47729        -0.529203      2.586195     -0.735868
     12.98109      7.71132      1.81986         1.655151      1.086013      1.250082
      5.74843      2.84566     11.64015         2.552356      1.023004     -1.250152
      0.75330      2.70120      4.79332         1.360059      1.533573     -3.701351
      3.61346      0.10821     10.81990         0.724168      3.714064      3.466332
     10.08647      8.51530      8.13718        -0.949633      2.706712      0.014308
      2.26871      3.65653      0.03693        -1.021081      0.023088     -0.546256
      8.41175     11.76590      5.83132        -0.683436      0.892585     -2.790814
[...]
      4.02259      4.30079      3.47793         3.861212     -2.173393      0.299633
     13.23592      8.25359      0.24224        -1.798673     -0.768334      3.615596
      5.02880      6.30093      3.55008         0.380262      0.127486      0.529697
     11.58169     10.14951      4.74426         1.135106      0.526586     -0.391063
      6.59721      2.89771      5.52313         2.857107     -5.772071      0.197352
      2.03482      5.16043      3.14851        -3.547455     -3.255416     -1.185822
     11.45922      8.03023      2.59232        -1.040221      0.951948     -1.083270
     11.35879      1.45446     13.13960         2.213399     -3.859368     -0.842569
      4.98006     11.55272     12.02487        -2.727411     -3.774693    -10.313739
      2.20698      0.22180      4.43455        -0.718327     -4.408040     -1.534314
      0.01694     12.74456     11.90917        -0.770295     -1.892576     -0.377710
      7.74289     10.30294     12.53340        -2.031562     -1.504427      1.284595
     12.72661     13.10893      1.53552        -0.644505     -1.112773     -2.556675
     12.67843      4.15716      0.30533         0.928713     -1.608265     -0.715127
      4.54984     12.44733      4.77121         0.867019      0.448594     -1.310684
    total drift:                                0.025473      0.006614     -0.023266

  FREE ENERGIE OF THE ION-ELECTRON SYSTEM (eV)
  free  energy   TOTEN  =      -880.99183098 eV

  energy  without entropy=     -880.94742141  energy(sigma->0) =     -880.96962619