 vasp.5.4.4.18Apr17-6-g9f103f2a35 (build Oct 31 2019 15:01:46) complex

 executed on             LinuxIFC date 2024.04.30  00:20:28

 INCAR:
 POTCAR:    PAW_PBE Ca_sv 06Sep2000
 POTCAR:    PAW_PBE Si 05Jan2001
 POTCAR:    PAW_PBE O 08Apr2002
 POTCAR:    PAW_PBE Ca_sv 06Sep2000
   VRHFIN =Ca: 3s3p4s

   TITEL  = PAW_PBE Ca_sv 06Sep2000
   POMASS =   40.078; ZVAL   =   10.000    mass and valenz
   ENMAX  =  266.622; ENMIN  =  199.967 eV

   TITEL  = PAW_PBE Si 05Jan2001
   POMASS =   28.085; ZVAL   =    4.000    mass and valenz
   ENMAX  =  245.345; ENMIN  =  184.009 eV

   TITEL  = PAW_PBE O 08Apr2002
   POMASS =   16.000; ZVAL   =    6.000    mass and valenz
   ENMAX  =  400.000; ENMIN  =  300.000 eV

 Optimization of the real space projectors (new method)

 maximal supplied QI-value         = 16.25
 optimisation between [QCUT,QGAM] = [ 12.51, 25.03] = [ 43.85,175.40] Ry
 Optimized for a Real-space Cutoff    1.47 Angstroem

   l    n(q)    QCUT    max X(q) W(low)/X(q) W(high)/X(q)  e(spline)
   0     11    12.514    11.817    0.25E-04    0.32E-05    0.87E-07
   0     11    12.514     8.461    0.39E-04    0.59E-05    0.18E-06
   1     11    12.514     3.957    0.97E-05    0.57E-05    0.28E-07
   1     11    12.514     4.314    0.42E-04    0.14E-04    0.23E-06
   2     10    12.514    14.565    0.79E-04    0.50E-03    0.16E-05
   2     10    12.514    14.552    0.75E-04    0.48E-03    0.15E-05
 Optimization of the real space projectors (new method)

[...]

   l    n(q)    QCUT    max X(q) W(low)/X(q) W(high)/X(q)  e(spline)
   0      9    12.501   159.560    0.10E-03    0.83E-04    0.71E-07
   0      9    12.501   115.863    0.99E-04    0.81E-04    0.70E-07
   1      8    12.501    88.339    0.20E-03    0.25E-03    0.76E-07
   1      8    12.501    48.592    0.20E-03    0.24E-03    0.75E-07
 Optimization of the real space projectors (new method)

 maximal supplied QI-value         = 24.76
 optimisation between [QCUT,QGAM] = [ 12.38, 25.00] = [ 42.90,175.06] Ry
 Optimized for a Real-space Cutoff    1.16 Angstroem

   l    n(q)    QCUT    max X(q) W(low)/X(q) W(high)/X(q)  e(spline)
   0      9    12.378    20.381    0.16E-03    0.67E-05    0.31E-06
   0      9    12.378    15.268    0.17E-03    0.81E-05    0.33E-06
   1      8    12.378     5.964    0.20E-03    0.16E-03    0.30E-06
   1      8    12.378     5.382    0.18E-03    0.14E-03    0.26E-06
  PAW_PBE Ca_sv 06Sep2000               :
  PAW_PBE Si 05Jan2001                  :
  PAW_PBE O 08Apr2002                   :

 POSCAR: Ca Si  O
  positions in direct lattice
 exchange correlation table for  LEXCH =        8
   RHO(1)=    0.500       N(1)  =     2000
   RHO(2)=  100.500       N(2)  =     4000

 ion  position               nearest neighbor table
   1  0.298  0.429  0.824- 123 2.08 114 2.08  97 2.29  91 2.42  57 2.53  45 2.58   2 2.80  52 2.84

   2  0.304  0.276  0.638-  69 2.09  76 2.15  91 2.23  97 2.40  87 2.42  59 2.52  52 2.79   1 2.80
                            13 2.93  10 2.97  45 3.06
   3  0.575  0.236  0.200-  74 2.01 126 2.16 124 2.47   8 2.78  51 2.85   5 3.00  54 3.11
   4  0.386  0.443  0.117- 123 1.86  74 2.40  57 2.44  56 2.51  36 2.71  50 3.01
   5  0.637  0.991  0.147-  71 2.09 127 2.20  61 2.21  58 2.38 109 2.44  37 2.77   3 3.00  51 3.11

   6  0.400  0.716  0.029-  94 2.16  93 2.22 115 2.25  29 2.69  15 3.12
   7  0.624  0.296  0.902- 103 2.23  68 2.47  57 2.49  28 2.76
   8  0.422  0.266  0.381-  89 1.97 111 2.04  74 2.16  76 2.31   3 2.78  43 2.81
   9  0.726  0.684  0.357- 109 2.09  81 2.23  80 2.41  34 2.43  63 2.51  16 3.01  36 3.13
  10  0.092  0.142  0.595-  69 2.09 107 2.14 133 2.20  64 2.39   2 2.97  30 3.00  26 3.12
  11  0.092  0.697  0.230-  63 2.17 116 2.30  32 2.97  50 3.13
  12  0.854  0.007  0.553-  75 2.07 108 2.26  64 2.26 102 2.37  62 2.40  16 2.56  17 2.68  22 2.89
                            23 3.09  47 3.10
  13  0.428  0.060  0.676-  59 2.16 129 2.16  86 2.31  87 2.32 112 2.57   2 2.93  47 3.07
  14  0.559  0.553  0.550- 106 1.90  73 2.14 122 2.16  80 2.45  19 2.74  39 2.85  53 2.94  28 3.04
                            36 3.10  52 3.12  35 3.15
  15  0.247  0.923  0.105-  94 1.87 134 2.07  85 2.08 115 2.14  61 2.43  51 2.83  29 3.09   6 3.12

  16  0.855  0.909  0.356- 108 1.99 119 2.18  63 2.20 102 2.25 109 2.33 127 2.51  12 2.56  34 2.89
                             9 3.01  48 3.05  49 3.12
  17  0.748  0.842  0.674- 108 2.23 120 2.38  81 2.38 125 2.42  55 2.50  75 2.54  62 2.54  12 2.68
                            47 2.88  49 2.96  39 3.01
  18  0.130  0.256  0.133- 121 2.11  85 2.31 105 2.48  88 2.52  42 2.67  27 2.87
  19  0.765  0.495  0.650-  90 2.05  72 2.09  68 2.27  55 2.31  95 2.49  73 2.52  14 2.74  28 2.85
                            30 3.01  53 3.07
  20  0.911  0.379  0.885-  72 2.16  65 2.24  82 2.24 101 2.28  27 2.70  30 2.93
  21  0.328  0.751  0.731- 118 2.00  77 2.19 128 2.34  99 2.53  96 2.56  39 2.80  33 2.96  46 2.96

  22  0.654  0.147  0.505- 102 1.90 126 2.04 129 2.25  28 2.88  12 2.89  23 2.90  47 2.98  41 3.04

[...]

  32  0.168  0.774  0.462- 104 1.57  99 1.59 113 1.67 130 2.26  79 2.26  49 2.72  11 2.97  35 2.99
                            46 3.09
  33  0.152  0.743  0.914- 115 1.63 128 1.67  83 1.78 116 1.91  50 2.92  46 2.94  21 2.96
  34  0.811  0.745  0.175- 109 1.60 110 1.63  60 1.67  63 1.82   9 2.43  48 2.67  16 2.89  25 2.95
                            44 3.10
  35  0.335  0.587  0.402- 130 1.49  79 1.52 122 1.54  98 1.67  52 2.44  36 2.46  76 2.50  32 2.99
                            29 3.01  14 3.15
  36  0.508  0.543  0.289- 122 1.56  89 1.57  56 1.73  93 1.78  80 2.02  35 2.46   4 2.71  29 2.98
                            44 3.07  14 3.10   9 3.13
  37  0.650  0.979  0.910-  71 1.67  86 1.75 103 1.82 125 1.90  47 2.20  58 2.42   5 2.77
  38  0.864  0.127  0.056- 117 1.51 124 1.57  82 1.63 127 2.00 121 2.25  48 2.74
  39  0.512  0.792  0.581- 120 1.44  96 1.62  81 1.81 112 1.82  21 2.80  14 2.85  41 2.94  17 3.01

[...]

  46  0.107  0.872  0.701-  77 1.60 107 1.68  99 1.70  62 1.82  83 1.92  49 2.84  33 2.94  21 2.96
                            26 3.00  32 3.09
  47  0.682  0.069  0.747-  75 1.57  86 1.61 103 1.69 129 1.93  37 2.20 125 2.54  17 2.88  22 2.98
                            13 3.07  12 3.10
  48  0.951  0.916  0.113- 134 1.56 110 1.70 127 1.81 117 1.89 119 1.96  34 2.67  38 2.74  16 3.05

[...]

  51  0.406  0.106  0.079-  58 1.53  61 1.78 105 1.83  74 2.20  45 2.74  15 2.83   3 2.85   5 3.11

  52  0.298  0.512  0.594- 114 1.51 106 1.56 130 1.63  76 1.75  35 2.44   2 2.79   1 2.84  31 2.99
                            14 3.12  24 3.12
  53  0.572  0.597  0.799-  55 1.54 118 1.63  68 1.70  67 1.86  14 2.94  19 3.07
  54  0.738  0.386  0.351- 135 1.53 100 1.54  80 1.60 126 1.81  23 2.63  40 2.76   3 3.11
  55  0.679  0.649  0.741-  53 1.54  19 2.31  17 2.50
  56  0.587  0.504  0.168-  44 1.50  36 1.73   4 2.51
  57  0.418  0.308  0.960-  45 1.76   4 2.44   7 2.49   1 2.53
  58  0.523  0.103  0.019-  51 1.53   5 2.38  37 2.42
  59  0.423  0.197  0.801-  45 1.69  13 2.16   2 2.52
  60  0.758  0.615  0.145-  44 1.61  34 1.67
  61  0.452  0.964  0.113-  51 1.78   5 2.21  15 2.43
  62  0.964  0.855  0.639-  49 1.55  46 1.82  12 2.40  17 2.54
  63  0.921  0.746  0.286-  34 1.82  11 2.17  16 2.20   9 2.51
  64  0.899  0.197  0.550-  30 1.56  12 2.26  23 2.26  10 2.39
  65  0.084  0.423  0.958-  50 1.68  20 2.24  27 2.47
  66  0.041  0.375  0.308-  40 1.71  31 1.98
  67  0.625  0.609  0.949-  44 1.63  53 1.86  25 2.27
  68  0.613  0.460  0.768-  53 1.70  28 1.99  19 2.27   7 2.47
  69  0.156  0.300  0.539-  31 1.59  10 2.09   2 2.09
  70  0.384  0.951  0.365-  41 1.53  43 1.92  29 2.43
  71  0.632  0.877  0.009-  37 1.67   5 2.09
  72  0.868  0.534  0.792-  19 2.09  20 2.16  24 2.57
  73  0.611  0.377  0.553-  28 1.50  14 2.14  19 2.52
  74  0.403  0.254  0.197-   3 2.01   8 2.16  51 2.20   4 2.40
  75  0.812  0.045  0.722-  47 1.57  12 2.07  17 2.54
  76  0.338  0.399  0.504-  52 1.75   2 2.15  31 2.23   8 2.31  35 2.50
  77  0.230  0.910  0.749-  46 1.60  21 2.19
  78  0.073  0.439  0.489-  31 1.53  40 1.59
  79  0.291  0.692  0.337-  35 1.52  29 2.06  32 2.26
  80  0.652  0.491  0.372-  54 1.60  36 2.02   9 2.41  14 2.45
  81  0.649  0.755  0.517-  39 1.81   9 2.23  17 2.38
  82  0.943  0.231  0.004-  38 1.63  20 2.24  27 2.45
  83  0.048  0.754  0.802-  33 1.78  46 1.92  24 2.26
  84  0.521  0.825  0.306-  29 1.45  41 1.85
  85  0.190  0.073  0.184-  42 1.96  15 2.08  18 2.31  43 2.45
  86  0.579  0.981  0.778-  47 1.61  37 1.75  13 2.31
  87  0.307  0.103  0.522-  43 1.77  13 2.32   2 2.42
  88  0.211  0.214  0.330-  43 1.86  31 2.20  42 2.26  18 2.52
  89  0.477  0.417  0.327-  36 1.57   8 1.97
  90  0.869  0.636  0.627-  49 1.90  19 2.05  24 2.52
  91  0.461  0.348  0.724-  28 1.68   2 2.23   1 2.42
  92  0.927  0.545  0.335-  40 1.57
  93  0.444  0.653  0.203-  29 1.61  36 1.78   6 2.22
  94  0.320  0.797  0.175-  29 1.46  15 1.87   6 2.16
  95  0.736  0.290  0.704-  30 1.71  28 1.77  19 2.49
  96  0.388  0.775  0.521-  39 1.62  21 2.56
  97  0.218  0.249  0.824-  45 1.42   1 2.29   2 2.40  26 2.54
  98  0.300  0.463  0.339-  35 1.67  31 2.12
  99  0.185  0.827  0.587-  32 1.59  46 1.70  21 2.53
 100  0.824  0.402  0.450-  54 1.54  40 1.71
 101  0.977  0.244  0.759-  30 1.63  20 2.28  26 2.57
 102  0.726  0.046  0.399-  22 1.90  16 2.25  23 2.29  12 2.37
 103  0.705  0.123  0.880-  47 1.69  37 1.82   7 2.23
 104  0.174  0.887  0.389-  32 1.57  43 2.48
 105  0.269  0.146  0.014-  45 1.70  51 1.83  18 2.48
 106  0.415  0.570  0.625-  52 1.56  14 1.90
 107  0.059  0.007  0.715-  46 1.68  26 1.85  10 2.14
 108  0.830  0.822  0.502-  49 1.74  16 1.99  17 2.23  12 2.26
 109  0.717  0.821  0.241-  34 1.60   9 2.09  16 2.33   5 2.44
 110  0.889  0.791  0.068-  34 1.63  48 1.70  25 2.23
 111  0.473  0.099  0.368-  41 1.71   8 2.04  43 2.33
 112  0.546  0.938  0.534-  41 1.72  39 1.82  13 2.57
[...]
 121  0.983  0.175  0.202-  42 1.59  18 2.11  38 2.25  23 2.39
 122  0.466  0.607  0.399-  35 1.54  36 1.56  14 2.16
 123  0.287  0.478  0.996-  50 1.70   4 1.86   1 2.08
 124  0.747  0.186  0.087-  38 1.57   3 2.47
 125  0.795  0.921  0.861-  37 1.90  17 2.42  25 2.45  47 2.54
 126  0.663  0.250  0.363-  54 1.81  22 2.04   3 2.16  23 2.31
 127  0.827  0.996  0.161-  48 1.81  38 2.00   5 2.20  16 2.51
 128  0.214  0.633  0.847-  33 1.67  21 2.34  24 2.45
 129  0.574  0.175  0.679-  28 1.73  47 1.93  13 2.16  22 2.25
 130  0.250  0.601  0.497-  35 1.49  52 1.63  32 2.26
 131  0.750  0.435  0.043-  44 1.75  27 2.36
 132  0.117  0.484  0.161-  50 1.59  27 2.31
 133  0.038  0.093  0.420-  42 1.58  10 2.20  23 2.54
 134  0.076  0.882  0.081-  48 1.56  15 2.07
 135  0.817  0.339  0.257-  54 1.53  23 2.14  27 2.34

IMPORTANT INFORMATION: All symmetrisations will be switched off!
NOSYMM: (Re-)initialisation of all symmetry stuff for point group C_1.

Automatic generation of k-mesh.
 generate k-points for:    2    2    2
Space group operators:
 irot       det(A)        alpha          n_x          n_y          n_z        tau_x        tau_y        tau_z
[...]
     0.000000000  0.000000000 11.628173330     0.000000000  0.000000000  0.085998030

  length of vectors
    11.628173330 11.628173330 11.628173330     0.085998030  0.085998030  0.085998030

 FORCES acting on ions
    electron-ion (+dipol)            ewald-force                    non-local-force                 convergence-correction
   0.366E+02 -.833E+02 -.136E+03   -.365E+02 0.873E+02 0.140E+03   0.133E+01 -.186E+01 -.225E+01   -.324E-02 0.445E-03 0.143E-02
   0.819E+02 0.175E+03 -.876E+02   -.817E+02 -.174E+03 0.842E+02   0.151E+00 -.317E+01 0.375E+01   -.640E-02 -.234E-02 -.343E-02
   -.904E+02 0.476E+01 0.240E+03   0.925E+02 -.321E+01 -.239E+03   0.138E+01 -.979E+00 -.220E+01   0.218E-04 -.105E-02 0.591E-03
   -.944E+01 -.385E+02 0.798E+02   0.815E+01 0.304E+02 -.796E+02   0.360E+01 0.456E+01 0.352E+01   0.327E-03 -.107E-03 0.681E-03
   0.494E+02 0.886E+01 0.853E+01   -.467E+02 -.134E+02 -.118E+02   -.191E+01 0.448E+01 0.513E+01   -.130E-02 0.238E-03 -.664E-03
   -.139E+03 0.783E+01 0.206E+03   0.136E+03 -.477E+01 -.209E+03   0.366E+01 -.301E+01 -.608E+00   0.552E-03 0.246E-02 0.163E-03
   -.607E+02 -.951E+02 -.184E+03   0.578E+02 0.931E+02 0.187E+03   0.151E+01 0.191E+01 -.114E+01   0.352E-02 -.328E-02 -.638E-03
   0.790E+02 0.123E+03 -.676E+02   -.805E+02 -.119E+03 0.647E+02   -.389E+00 -.292E+01 0.481E+01   0.381E-03 -.138E-02 -.619E-03
   -.327E+02 0.128E+03 0.223E+02   0.332E+02 -.128E+03 -.147E+02   -.204E+00 -.286E+01 -.316E+01   -.147E-02 0.203E-03 -.218E-02
   -.769E+02 0.700E+02 -.115E+03   0.761E+02 -.687E+02 0.110E+03   0.116E+01 -.115E+01 0.393E+01   -.629E-02 0.390E-02 0.180E-02
   -.474E+02 0.513E+02 0.464E+02   0.435E+02 -.523E+02 -.480E+02   0.393E+01 0.424E+00 0.158E+01   0.148E-02 0.835E-03 0.673E-04
   -.121E+03 -.125E+02 -.814E+02   0.124E+03 0.139E+02 0.848E+02   -.229E+00 -.117E+01 -.357E+01   0.727E-03 0.822E-02 0.136E-02
   0.219E+03 0.251E+03 -.107E+03   -.219E+03 -.251E+03 0.109E+03   -.198E+01 -.290E+01 -.205E+01   0.536E-03 -.286E-02 -.134E-02
   -.140E+03 -.891E+02 -.485E+02   0.138E+03 0.876E+02 0.456E+02   0.560E+01 0.146E+01 0.135E+01   0.354E-03 -.116E-02 -.209E-02
   -.489E+00 -.111E+03 0.148E+03   -.359E+01 0.111E+03 -.148E+03   0.252E+01 0.340E+01 -.163E+01   0.161E-02 0.214E-03 -.821E-03
   -.791E+02 0.179E+01 0.564E+02   0.789E+02 -.335E+01 -.645E+02   0.585E+00 0.308E+01 0.362E+01   0.673E-05 0.338E-02 -.177E-03
   -.252E+02 0.543E+02 -.227E+03   0.219E+02 -.627E+02 0.229E+03   0.190E+01 0.513E+01 -.300E+00   -.253E-02 0.747E-02 0.723E-03
   -.132E+03 -.743E+02 0.175E+03   0.131E+03 0.714E+02 -.173E+03   0.201E+01 0.390E+01 -.263E+01   0.411E-03 -.139E-02 0.693E-03
   -.214E+03 0.465E+02 0.138E+02   0.220E+03 -.408E+02 -.702E+01   -.444E+01 -.487E+01 -.659E+01   0.305E-03 -.211E-01 -.858E-02
   0.232E+02 -.662E+02 0.498E+02   -.192E+02 0.674E+02 -.513E+02   -.374E+01 -.110E+01 0.138E+01   0.205E-02 -.148E-01 -.512E-02
   0.996E+01 -.178E+03 -.108E+03   -.892E+01 0.179E+03 0.109E+03   -.126E+01 0.412E-01 -.217E+01   0.654E-03 0.272E-02 0.157E-02
   0.939E+02 0.244E+02 -.142E+03   -.974E+02 -.228E+02 0.136E+03   0.591E+00 0.437E+00 0.743E+01   0.424E-02 0.211E-02 0.204E-02
   -.109E+03 -.243E+01 0.645E+02   0.109E+03 0.358E+01 -.694E+02   0.150E+01 -.164E+01 0.278E+01   0.684E-03 0.132E-02 0.603E-02
   0.147E+03 0.528E+02 -.660E+02   -.150E+03 -.539E+02 0.704E+02   0.554E+00 0.814E+00 -.327E+01   0.694E-02 -.415E-02 -.286E-02
   -.123E+03 0.367E+02 0.746E+01   0.123E+03 -.333E+02 -.108E+02   0.789E+00 -.269E+01 0.109E+01   -.351E-02 0.565E-02 0.461E-02
   -.761E+02 0.325E+02 -.185E+03   0.721E+02 -.318E+02 0.187E+03   0.375E+01 0.163E+01 0.399E+01   -.206E-02 0.220E-02 -.319E-02
   0.593E+02 -.186E+03 0.879E+02   -.622E+02 0.184E+03 -.821E+02   0.134E+01 0.176E+01 -.306E+01   0.376E-03 -.231E-02 0.208E-02
   -.115E+02 0.240E+02 -.654E+02   0.390E+01 -.180E+02 0.544E+02   0.351E+01 -.561E+01 0.160E+02   0.529E-02 -.225E-02 -.150E-02
   -.118E+02 -.547E+02 0.355E+01   0.957E+01 0.555E+02 -.919E+01   -.281E+01 -.289E+01 0.101E+02   -.756E-04 0.512E-03 -.684E-03
   -.332E+02 -.888E+02 -.563E+02   0.411E+02 0.833E+02 0.552E+02   -.803E+01 0.511E+01 0.380E+01   0.101E-02 0.231E-02 -.143E-02
   -.233E+02 -.624E+01 0.124E+03   0.129E+02 0.436E+01 -.111E+03   0.142E+02 -.869E+00 -.184E+02   -.105E-02 -.108E-02 0.693E-03
   -.930E+01 0.262E+02 0.343E+02   0.411E+01 -.720E+01 -.324E+02   0.856E+01 -.181E+02 -.305E+01   0.553E-03 0.759E-03 -.342E-03
   0.937E+02 -.495E+02 -.457E+02   -.834E+02 0.446E+02 0.409E+02   -.116E+02 0.273E+01 0.514E+01   0.133E-02 0.129E-02 0.333E-03
   -.158E+02 0.597E+02 0.998E+02   0.154E+02 -.535E+02 -.962E+02   0.414E+01 -.549E+01 -.238E+01   -.568E-03 0.635E-03 0.197E-03
   0.439E+02 0.715E+01 0.382E+02   -.520E+02 -.152E+01 -.430E+02   0.702E+01 -.101E+02 0.902E+00   0.826E-06 -.557E-04 -.530E-03
   -.590E+02 -.623E+02 0.115E+03   0.530E+02 0.500E+02 -.107E+03   0.105E+02 0.857E+01 -.989E+01   -.115E-03 -.159E-03 -.363E-03
   0.575E+02 0.318E+02 -.467E+02   -.508E+02 -.404E+02 0.466E+02   -.342E+01 0.554E+01 0.156E+01   -.418E-03 0.268E-03 -.159E-04
   0.315E+02 0.465E+01 0.422E+02   -.295E+02 -.770E+00 -.478E+02   -.268E+01 -.923E+00 0.916E+01   -.200E-03 -.464E-04 -.497E-03
   0.484E+02 -.104E+02 0.231E+02   -.478E+02 0.119E+02 -.135E+02   0.788E-01 -.364E+00 -.202E+02   -.515E-03 0.950E-03 0.180E-03
   0.134E+02 -.165E+02 -.785E+02   -.863E+01 0.277E+02 0.660E+02   -.529E+01 -.939E+01 0.795E+01   -.625E-03 -.277E-02 0.206E-02
   -.886E+02 0.214E+02 0.274E+02   0.704E+02 -.164E+02 -.229E+02   0.190E+02 -.441E+01 -.223E+01   -.163E-03 0.566E-03 -.282E-03
   -.102E+03 0.283E+01 -.134E+01   0.896E+02 -.896E+01 0.340E+00   0.146E+02 0.197E+01 -.155E+01   -.485E-04 0.358E-03 0.799E-03
   0.480E+02 0.718E+02 0.341E+02   -.448E+02 -.679E+02 -.281E+02   -.153E+01 -.547E+01 -.467E+01   -.118E-03 0.147E-03 0.447E-04
   0.191E+02 -.255E+02 0.905E+02   -.147E+02 0.184E+02 -.873E+02   0.199E+01 0.323E+01 -.823E+01   -.102E-02 0.151E-03 0.711E-03
   0.108E+02 0.106E+03 -.840E+02   -.116E+02 -.103E+03 0.743E+02   0.145E+02 -.609E+01 0.159E+02   -.184E-02 -.902E-03 0.110E-02
   0.288E+02 0.242E+02 -.560E+02   -.194E+02 -.152E+02 0.577E+02   -.109E+02 -.776E+01 -.118E+01   0.801E-03 0.187E-02 0.321E-03
   0.103E+02 -.159E+02 0.791E+01   -.422E+01 0.127E+02 -.117E+01   -.624E+01 0.867E+01 -.675E+01   0.125E-02 0.137E-02 -.693E-03
   -.127E+01 0.191E+02 0.636E+02   0.975E+01 -.183E+02 -.673E+02   -.970E+01 0.499E+01 0.432E+01   0.198E-03 0.765E-03 0.442E-04
   -.464E+02 0.792E+02 0.799E+01   0.410E+02 -.758E+02 -.331E+01   -.283E+01 -.804E+01 -.515E+01   0.176E-02 0.247E-02 -.158E-02
   -.260E+01 -.828E+02 0.365E+02   -.350E+01 0.725E+02 -.301E+02   0.410E+01 0.887E+01 -.893E+01   0.835E-03 -.230E-03 0.481E-03
   0.918E+02 0.403E+01 0.604E+01   -.778E+02 -.994E+01 -.107E+02   -.164E+02 0.609E+01 0.732E+01   0.124E-03 -.798E-03 0.181E-03
   0.497E+02 -.138E+02 -.394E+02   -.480E+02 0.147E+02 0.428E+02   0.115E+01 -.308E+01 -.710E+01   -.736E-03 -.210E-03 -.444E-03
   0.481E+02 -.106E+02 -.119E+03   -.439E+02 0.163E+02 0.113E+03   -.539E+01 -.671E+01 0.888E+01   -.147E-02 0.104E-02 0.683E-03
   0.277E+02 -.551E+02 0.548E+02   -.202E+02 0.536E+02 -.580E+02   -.128E+02 0.277E+00 0.196E+01   0.675E-03 -.128E-02 0.141E-02
   -.644E+02 -.873E+02 -.102E+03   0.904E+02 0.100E+03 0.880E+02   -.244E+02 -.107E+02 0.130E+02   -.531E-02 0.173E-02 0.317E-03
   -.339E+02 0.219E+02 0.133E+03   0.306E+02 -.435E+02 -.120E+03   -.162E+01 0.203E+02 -.110E+02   -.762E-03 -.271E-04 0.274E-03
   -.593E+02 -.257E+02 -.816E+02   0.735E+02 0.320E+02 0.877E+02   -.158E+02 -.522E+01 -.497E+01   0.154E-04 -.119E-03 0.273E-02
   0.134E+02 0.123E+02 0.127E+03   0.119E+02 -.107E+02 -.145E+03   -.206E+02 0.204E+01 0.140E+02   0.334E-03 -.147E-02 0.179E-03
   0.198E+02 0.165E+03 -.129E+03   0.905E+00 -.161E+03 0.121E+03   -.244E+02 -.901E+01 0.896E+01   0.172E-03 -.530E-02 0.136E-02
   -.731E+02 0.226E+02 0.732E+02   0.864E+02 -.390E+02 -.626E+02   -.115E+02 0.203E+02 -.994E+01   -.103E-02 0.690E-03 0.793E-03
[...]
   -.565E+02 -.125E+03 0.139E+02   0.751E+02 0.148E+03 0.778E+01   -.151E+02 -.202E+02 -.193E+02   -.277E-03 -.539E-04 -.104E-02
   0.208E+02 -.759E+02 0.972E+01   -.803E+01 0.692E+02 -.202E+02   -.160E+02 0.107E+02 0.992E+01   0.373E-03 0.163E-03 0.617E-03
   0.502E+02 -.670E+02 0.573E+02   -.717E+02 0.839E+02 -.514E+02   0.185E+02 -.171E+02 -.528E+01   -.272E-03 -.676E-03 -.236E-03
   -.120E+03 0.591E+02 -.933E+02   0.140E+03 -.574E+02 0.927E+02   -.241E+02 -.351E+01 0.179E+01   -.487E-03 0.288E-02 -.749E-04
   0.321E+02 -.234E+02 0.584E+02   -.399E+02 0.122E+02 -.594E+02   0.840E+01 0.148E+02 0.826E+00   0.127E-02 -.344E-03 0.164E-02
   0.272E+02 -.369E+01 0.727E+02   -.387E+02 0.764E+01 -.626E+02   0.122E+02 -.436E+01 -.111E+02   -.338E-03 0.610E-03 0.114E-05
   0.280E+02 0.180E+02 -.717E+02   -.167E+02 -.368E+02 0.631E+02   -.117E+02 0.189E+02 0.905E+01   0.140E-02 0.851E-03 0.423E-03
   0.237E+01 0.553E+02 -.420E+02   -.157E+02 -.622E+02 0.454E+02   0.164E+02 0.548E+01 -.382E+01   0.549E-02 -.945E-03 -.122E-02
   0.198E+03 -.838E+02 -.409E+02   -.228E+03 0.100E+03 0.477E+02   0.252E+02 -.152E+02 -.372E+00   0.599E-04 -.316E-03 -.445E-03
   0.161E+01 0.924E+01 0.785E+02   0.894E+01 -.259E+02 -.775E+02   -.124E+02 0.177E+02 -.282E+01   -.113E-02 -.160E-02 0.147E-02
   -.396E+02 -.630E+02 -.456E+02   0.337E+02 0.546E+02 0.770E+02   0.737E+01 0.937E+01 -.309E+02   0.610E-03 -.598E-03 0.777E-03
   -.865E+02 0.599E+02 -.550E+02   0.842E+02 -.636E+02 0.793E+02   0.173E+01 0.428E+01 -.223E+02   -.135E-02 0.185E-02 0.203E-02
   -.761E+01 0.412E+02 0.135E+03   0.313E+02 -.470E+02 -.143E+03   -.226E+02 0.381E+01 0.642E+01   0.860E-03 0.101E-02 -.253E-03
   -.116E+02 -.704E+02 0.174E+03   0.291E+02 0.598E+02 -.201E+03   -.164E+02 0.111E+02 0.234E+02   0.146E-03 -.113E-02 0.203E-02
   0.139E+01 0.236E+02 0.246E+02   0.654E-12 -.632E-12 -.313E-12   -.138E+01 -.236E+02 -.247E+02   0.808E-02 0.789E-02 -.889E-02

 POSITION                                       TOTAL-FORCE (eV/Angst)
      3.46489      4.98677      9.58136         1.466984      2.128347      1.631860
      3.53966      3.21143      7.42174         0.353544     -1.295092      0.340558
      6.68597      2.74678      2.33040         3.452715      0.568313     -1.158539
      4.48946      5.15208      1.35726         2.308792     -3.543354      3.741488
      7.41204     11.52793      1.71420         0.810860     -0.028485      1.902545
      4.64780      8.32476      0.33548         0.383580      0.047268     -3.757781
      7.25165      3.43889     10.48929        -1.347702     -0.092080      1.955232
      4.90492      3.09731      4.43296        -1.868524      1.398541      1.914895
      8.44729      7.95771      4.14939         0.280468     -1.988660      4.435436
      1.06787      1.64917      6.91678         0.322263      0.114446     -1.205511
      1.06965      8.10888      2.67915         0.086973     -0.570102      0.008695
      9.92891      0.08513      6.43172         2.802275      0.292552     -0.181376
      4.97933      0.69965      7.85544        -1.419289     -2.656682      0.107035
      6.49976      6.43382      6.40084         3.310822      0.002367     -1.552807
      2.87737     10.73086      1.22172        -1.562454      4.152137     -1.597170
      9.93928     10.56641      4.14371         0.425429      1.518212     -4.470540
      8.70149      9.78920      7.83986        -1.494482     -3.327160      1.184965
      1.51312      2.97507      1.54538         1.524362      0.959546     -0.834656
      8.89135      5.75582      7.55739         1.172039      0.861270      0.220658
     10.59298      4.41011     10.29403         0.263956      0.087601     -0.170133
      3.81748      8.72745      8.50558        -0.215749      1.015177     -1.348467
      7.60265      1.71216      5.87076        -2.924416      2.020234      1.382576
      9.91371      2.22160      4.19277         1.080822     -0.492233     -2.135947
      0.75446      6.81377      8.20471        -3.084734     -0.264402      1.085048
      9.10812      8.38124     10.74800         0.802865      0.722583     -2.297490
      0.99541      0.90431      9.94835        -0.230108      2.295697      5.618724
     10.91391      4.77745      1.32009        -1.559220      0.005254      2.686755
      6.87927      3.75196      7.77279        -4.075936      0.341946      4.976138
      4.86645      9.06880      2.91272        -5.081475     -2.084732      4.450571
     10.17161      3.03859      7.73415        -0.195037     -0.436105      2.692635
      1.92953      4.33345      4.91931         3.689108     -2.749588     -4.931198
      1.95500      8.99701      5.37560         3.370323      0.955292     -1.152920
      1.76175      8.64444     10.63070        -1.362387     -2.204758      0.337539
      9.42968      8.65813      2.03978         3.708244      0.717848      1.213994
      3.89276      6.82901      4.67431        -1.158584     -4.428960     -3.948628
      5.91075      6.31124      3.35738         4.543230     -3.679420     -2.149292
      7.56177     11.38587     10.58182         3.264336     -3.147306      1.442039
     10.05017      1.48069      0.65497        -0.628498      2.953851      3.605350
      5.95192      9.20950      6.75271         0.765024      1.156010    -10.695827
     11.16828      5.11068      4.79077        -0.543158      1.814874     -4.492209
      5.96074     11.14850      4.54587         0.794276      0.551344      2.257621
      0.69021      1.16646      3.32535         2.551030     -4.164068     -2.552565
      3.18766      0.87030      4.37930         1.622168     -1.580157      1.330839
      7.66708      6.40725      0.83663         6.380827     -3.926892     -5.037476
      3.63874      2.55234     10.40417        13.751067     -2.977705      6.149913
      1.23847     10.13571      8.15411        -1.516881      1.306257      0.434665
      7.92847      0.80399      8.68681        -0.170884      5.385118     -0.009659
     11.05585     10.64870      1.31074        -1.226401      5.830712      0.622257
     11.08024      8.76368      6.41630        -8.296962     -4.704544     -0.466174
      1.78981      6.08517      0.40572        -2.006005     -1.388310     -2.528221
      4.72165      1.23310      0.91710        -2.425492      0.181520      2.651505
      3.46208      5.95706      6.91030         2.840575     -2.190807     -3.714648
      6.64990      6.93786      9.29052        -1.201425     -0.982161      2.597785
      8.57645      4.48434      4.07936        -5.218526     -1.300021     -1.204418
      7.89892      7.55175      8.62070         1.576740      2.210168     -0.967290
      6.82285      5.86205      1.95280        -4.878256     -1.348261      2.548539
      4.85676      3.57839     11.15828        -1.582835      1.117959      1.140702
      6.08703      1.19860      0.21974         4.673519      3.611937     -3.305892
      4.91316      2.28632      9.31943        -3.674709     -4.940378      1.332476
      8.81726      7.14671      1.68367         1.762014      3.894256      0.649076
[...]
     11.42524      2.03767      2.34602        -1.230876      1.260891      0.635363
      5.41543      7.05850      4.63571         3.480326      2.313199      2.472026
      3.33792      5.56086     11.57993        -3.324582      4.013811     -0.536697
      8.68929      2.16842      1.00826        -3.050899     -0.140848      0.682742
      9.24558     10.70818     10.00737        -3.983621     -1.806613      1.245389
      7.70703      2.90401      4.22413         0.601091      3.619354     -0.233321
      9.61074     11.57666      1.86767         0.654944     -0.410026     -0.930064
      2.48604      7.36207      9.85356        -0.416840      0.038342      0.420356
      6.67601      2.03594      7.89356         3.014075     -1.437831     -0.459353
      2.90508      6.99154      5.77983        -5.621516      1.015693      6.486023
      8.72017      5.05524      0.49752        -1.860255      1.064014     -1.776931
      1.36392      5.62251      1.86979         1.432425      0.985715      0.486876
      0.44344      1.07937      4.88836        -0.489631      0.533242      2.001188
      0.88669     10.25395      0.93712         1.137554     -1.983743     -1.162109
      9.50446      3.94147      2.98731         1.067384      0.588766     -3.442027
    total drift:                                0.023398     -0.001898     -0.036178

  FREE ENERGIE OF THE ION-ELECTRON SYSTEM (eV)
  free  energy   TOTEN  =      -877.96516489 eV

  energy  without entropy=     -877.96264955  energy(sigma->0) =     -877.96390722