 vasp.5.4.4.18Apr17-6-g9f103f2a35 (build Oct 31 2019 15:01:46) complex

 executed on             LinuxIFC date 2024.04.28  21:06:27

 INCAR:
 POTCAR:    PAW_PBE Ca_sv 06Sep2000
 POTCAR:    PAW_PBE Si 05Jan2001
 POTCAR:    PAW_PBE O 08Apr2002
 POTCAR:    PAW_PBE Ca_sv 06Sep2000
   VRHFIN =Ca: 3s3p4s

   TITEL  = PAW_PBE Ca_sv 06Sep2000
   POMASS =   40.078; ZVAL   =   10.000    mass and valenz
   ENMAX  =  266.622; ENMIN  =  199.967 eV

   TITEL  = PAW_PBE Si 05Jan2001
   POMASS =   28.085; ZVAL   =    4.000    mass and valenz
   ENMAX  =  245.345; ENMIN  =  184.009 eV

   TITEL  = PAW_PBE O 08Apr2002
   POMASS =   16.000; ZVAL   =    6.000    mass and valenz
   ENMAX  =  400.000; ENMIN  =  300.000 eV

 Optimization of the real space projectors (new method)

 maximal supplied QI-value         = 16.25
 optimisation between [QCUT,QGAM] = [ 12.51, 25.03] = [ 43.85,175.40] Ry
 Optimized for a Real-space Cutoff    1.47 Angstroem

   l    n(q)    QCUT    max X(q) W(low)/X(q) W(high)/X(q)  e(spline)
   0     11    12.514    11.817    0.25E-04    0.32E-05    0.87E-07
   0     11    12.514     8.461    0.39E-04    0.59E-05    0.18E-06
   1     11    12.514     3.957    0.97E-05    0.57E-05    0.28E-07
   1     11    12.514     4.314    0.42E-04    0.14E-04    0.23E-06
   2     10    12.514    14.565    0.79E-04    0.50E-03    0.16E-05
   2     10    12.514    14.552    0.75E-04    0.48E-03    0.15E-05
 Optimization of the real space projectors (new method)

[...]

   l    n(q)    QCUT    max X(q) W(low)/X(q) W(high)/X(q)  e(spline)
   0      9    12.501   159.560    0.10E-03    0.83E-04    0.71E-07
   0      9    12.501   115.863    0.99E-04    0.81E-04    0.70E-07
   1      8    12.501    88.339    0.20E-03    0.25E-03    0.76E-07
   1      8    12.501    48.592    0.20E-03    0.24E-03    0.75E-07
 Optimization of the real space projectors (new method)

 maximal supplied QI-value         = 24.76
 optimisation between [QCUT,QGAM] = [ 12.38, 25.00] = [ 42.90,175.06] Ry
 Optimized for a Real-space Cutoff    1.16 Angstroem

   l    n(q)    QCUT    max X(q) W(low)/X(q) W(high)/X(q)  e(spline)
   0      9    12.378    20.381    0.16E-03    0.67E-05    0.31E-06
   0      9    12.378    15.268    0.17E-03    0.81E-05    0.33E-06
   1      8    12.378     5.964    0.20E-03    0.16E-03    0.30E-06
   1      8    12.378     5.382    0.18E-03    0.14E-03    0.26E-06
  PAW_PBE Ca_sv 06Sep2000               :
  PAW_PBE Si 05Jan2001                  :
  PAW_PBE O 08Apr2002                   :

 POSCAR: Ca Si  O
  positions in direct lattice
 exchange correlation table for  LEXCH =        8
   RHO(1)=    0.500       N(1)  =     2000
   RHO(2)=  100.500       N(2)  =     4000

 ion  position               nearest neighbor table
   1  0.550  0.918  0.418- 122 2.05  80 2.40   7 3.16
   2  0.294  0.925  0.886- 117 2.24  63 2.31 133 2.51  53 2.96  29 2.96
   3  0.041  0.539  0.267-  84 1.99  62 2.03 100 2.36 113 2.57   4 3.11
   4  0.084  0.746  0.197-  61 1.79  84 2.28  87 2.54  44 3.02   3 3.11
   5  0.850  0.793  0.930-  97 2.22 114 2.57  15 2.83  18 3.01
   6  0.696  0.114  0.746-  73 1.81  43 2.87  41 3.10
   7  0.586  0.134  0.472- 122 2.03  79 2.32 120 2.53  52 2.94  41 3.10   1 3.16
   8  0.632  0.357  0.087- 132 2.19 108 2.29  36 3.01
   9  0.428  0.222  0.273-  79 2.12  96 2.28  55 2.36  49 3.08
  10  0.381  0.188  0.767- 110 2.44  89 2.49 115 2.55 121 2.55
  11  0.997  0.346  0.802-  60 2.53
  12  0.088  0.974  0.307-  86 2.06  87 2.34
  13  0.213  0.476  0.466- 111 2.28  72 2.33  50 3.02  30 3.08
  14  0.523  0.375  0.437-  88 2.00  96 2.28  94 2.37  79 2.37  52 2.85
  15  0.707  0.824  0.792-  93 2.32  57 2.41 104 2.44  51 2.71   5 2.83
  16  0.810  0.319  0.535- 103 1.82  94 2.11
  17  0.489  0.013  0.094-  55 1.92 125 2.15  36 2.51  65 2.54
  18  0.831  0.729  0.135-  95 1.99 106 2.10  82 2.13  74 2.42  35 2.85   5 3.01
  19  0.531  0.574  0.023- 135 2.52
  20  0.786  0.523  0.247- 100 2.13  92 2.44  95 2.53
  21  0.381  0.838  0.645-  76 2.16  85 2.35 117 2.45
  22  0.976  0.753  0.555- 119 1.97 102 2.18  50 3.04
  23  0.447  0.723  0.227- 135 2.06 128 2.17  80 2.23
  24  0.657  0.702  0.484-  69 2.15  32 2.55  51 3.05
  25  0.175  0.587  0.999-  90 2.06 113 2.53  61 2.53  29 2.89
  26  0.231  0.317  0.065- 124 2.26  48 2.60
  27  0.857  0.922  0.442- 118 2.09 134 2.25 131 2.46 126 2.53  35 3.00
  28  0.816  0.552  0.979- 130 1.52  68 1.61  95 1.88  47 2.56
  29  0.279  0.715  0.876- 117 1.61  83 1.67  90 1.84 133 1.87  25 2.89   2 2.96
  30  0.268  0.591  0.287-  84 1.66  72 1.67  78 1.74 128 1.84  67 1.87  49 2.58  33 2.59  13 3.08

  31  0.313  0.993  0.326-  86 1.47 116 1.53 123 1.79
  32  0.475  0.698  0.470-  80 1.68  69 1.72  76 1.75  24 2.55
  33  0.251  0.758  0.366-  87 1.62 128 1.67 123 2.04  75 2.20  72 2.53  30 2.59
  34  0.888  0.540  0.463-  92 1.58 119 1.66  62 1.69 103 1.94
  35  0.897  0.746  0.327- 126 1.42  82 1.55 131 1.56  18 2.85  27 3.00
  36  0.507  0.187  0.053- 132 1.58  55 1.60 107 1.72  66 1.79  17 2.51   8 3.01  48 3.14
  37  0.605  0.816  0.086-  65 1.49  74 1.68 135 2.01  81 2.31
  38  0.995  0.107  0.682-  98 1.67 129 1.69  64 1.79  71 2.02  54 2.52
  39  0.146  0.578  0.751-  60 1.42  90 1.73  99 1.93 109 2.05  50 2.68
  40  0.169  0.110  0.852-  63 1.48  71 1.64 110 1.82 121 1.98  53 3.09
  41  0.531  0.008  0.645-  85 1.46 122 1.64 104 1.75 115 1.91   6 3.10   7 3.10
  42  0.725  0.941  0.235- 106 1.62 118 1.69  81 1.78  70 1.82  46 3.13
  43  0.578  0.260  0.663-  89 1.67  73 1.72  88 1.76 115 1.87   6 2.87
  44  0.117  0.834  0.003- 133 1.54 114 1.56  77 1.65  61 1.68   4 3.02  53 3.08
  45  0.702  0.470  0.715-  56 1.57 105 1.58  58 1.87  51 2.66
  46  0.869  0.102  0.290- 101 1.57 134 1.83  70 1.91 120 2.47  42 3.13
  47  0.970  0.486  0.054-  59 1.71 100 1.77 113 1.92  68 2.26  28 2.56
  48  0.404  0.385  0.065- 107 1.59 124 1.59 108 1.73 127 1.81  26 2.60  49 2.92  36 3.14
  49  0.344  0.426  0.261-  96 1.57 124 1.59  78 1.75  67 1.82  30 2.58  48 2.92   9 3.08
  50  0.168  0.655  0.578- 111 1.56  75 1.74 109 1.77  99 2.07  39 2.68  13 3.02  22 3.04
  51  0.685  0.658  0.696-  58 1.53  93 1.59  57 1.87 105 1.93  45 2.66  15 2.71  24 3.05
  52  0.674  0.275  0.344-  79 1.67  91 1.73 120 1.76  94 1.80  14 2.85   7 2.94
  53  0.210  0.027  0.052- 112 1.54  77 1.64  63 1.80 125 1.94   2 2.96  44 3.08  40 3.09
  54  0.919  0.947  0.718-  97 1.60 102 1.75  98 1.79  64 1.83  38 2.52
  55  0.508  0.134  0.154-  36 1.60  17 1.92   9 2.36
  56  0.756  0.371  0.717-  45 1.57
  57  0.777  0.667  0.792-  51 1.87  15 2.41
  58  0.714  0.574  0.632-  51 1.53  45 1.87
  59  0.927  0.394  0.986-  47 1.71
  60  0.098  0.489  0.758-  39 1.42  11 2.53
  61  0.135  0.744  0.080-  44 1.68   4 1.79  25 2.53
  62  0.983  0.507  0.396-  34 1.69   3 2.03
  63  0.179  0.037  0.927-  40 1.48  53 1.80   2 2.31
  64  0.894  0.071  0.752-  38 1.79  54 1.83
  65  0.536  0.857  0.016-  37 1.49  17 2.54
  66  0.495  0.126  0.941-  36 1.79
  67  0.222  0.466  0.276-  49 1.82  30 1.87
  68  0.918  0.582  0.935-  28 1.61  47 2.26
  69  0.547  0.603  0.441-  32 1.72  24 2.15
  70  0.775  0.056  0.202-  42 1.82  46 1.91
  71  0.063  0.134  0.807-  40 1.64  38 2.02
  72  0.312  0.591  0.398-  30 1.67  13 2.33  33 2.53
  73  0.665  0.177  0.638-  43 1.72   6 1.81
  74  0.697  0.762  0.031-  37 1.68  18 2.42
  75  0.246  0.733  0.521-  50 1.74  33 2.20
  76  0.498  0.780  0.562-  32 1.75  21 2.16
  77  0.165  0.921  0.068-  53 1.64  44 1.65
  78  0.366  0.544  0.229-  30 1.74  49 1.75
  79  0.560  0.237  0.345-  52 1.67   9 2.12   7 2.32  14 2.37
  80  0.469  0.773  0.376-  32 1.68  23 2.23   1 2.40
  81  0.601  0.923  0.211-  42 1.78  37 2.31
  82  0.904  0.665  0.252-  35 1.55  18 2.13
  83  0.347  0.657  0.956-  29 1.67
  84  0.161  0.609  0.239-  30 1.66   3 1.99   4 2.28
  85  0.439  0.988  0.692-  41 1.46  21 2.35
  86  0.218  0.032  0.345-  31 1.47  12 2.06
  87  0.162  0.827  0.338-  33 1.62  12 2.34   4 2.54
  88  0.561  0.343  0.570-  43 1.76  14 2.00
  89  0.541  0.262  0.776-  43 1.67  10 2.49
  90  0.182  0.628  0.858-  39 1.73  29 1.84  25 2.06
[...]
 121  0.240  0.230  0.875-  40 1.98  10 2.55
 122  0.529  0.013  0.528-  41 1.64   7 2.03   1 2.05
 123  0.338  0.868  0.328-  31 1.79  33 2.04
 124  0.348  0.370  0.163-  49 1.59  48 1.59  26 2.26
 125  0.348  0.025  0.036-  53 1.94  17 2.15
 126  0.833  0.747  0.405-  35 1.42  27 2.53
 127  0.325  0.466  0.002-  48 1.81
 128  0.297  0.717  0.264-  33 1.67  30 1.84  23 2.17
 129  0.006  0.226  0.663-  38 1.69
 130  0.729  0.506  0.933-  28 1.52
 131  0.962  0.836  0.331-  35 1.56  27 2.46
 132  0.614  0.213  0.029-  36 1.58   8 2.19
 133  0.182  0.791  0.926-  44 1.54  29 1.87   2 2.51
 134  0.901  0.074  0.413-  46 1.83  27 2.25
 135  0.570  0.693  0.152-  37 2.01  23 2.06  19 2.52

IMPORTANT INFORMATION: All symmetrisations will be switched off!
NOSYMM: (Re-)initialisation of all symmetry stuff for point group C_1.

Automatic generation of k-mesh.
 generate k-points for:    2    2    2
Space group operators:
 irot       det(A)        alpha          n_x          n_y          n_z        tau_x        tau_y        tau_z
    1     1.000000     0.000000     1.000000     0.000000     0.000000     0.000000     0.000000     0.000000

 Subroutine IBZKPT returns following result:

 Found      8 irreducible k-points:

 Following reciprocal coordinates:
            Coordinates               Weight
  0.000000  0.000000  0.000000      1.000000
  0.500000  0.000000  0.000000      1.000000
  0.000000  0.500000  0.000000      1.000000
  0.500000  0.500000  0.000000      1.000000
  0.000000  0.000000  0.500000      1.000000
  0.500000  0.000000  0.500000      1.000000
  0.000000  0.500000  0.500000      1.000000
  0.500000  0.500000  0.500000      1.000000

 Following cartesian coordinates:
            Coordinates               Weight
  0.000000  0.000000  0.000000      1.000000
  0.035682  0.000000  0.000000      1.000000
  0.000000  0.035682  0.000000      1.000000
  0.035682  0.035682  0.000000      1.000000
  0.000000  0.000000  0.035682      1.000000
  0.035682  0.000000  0.035682      1.000000
  0.000000  0.035682  0.035682      1.000000
  0.035682  0.035682  0.035682      1.000000

 SYSTEM =  unknown system
 POSCAR =  Ca Si  O

 Startparameter for this run:
   NWRITE =      2    write-flag & timer
   PREC   = a         normal or accurate (medium, high low for compatibility)
   ISTART =      0    job   : 0-new  1-cont  2-samecut
   ICHARG =      2    charge: 1-file 2-atom 10-const
   ISPIN  =      1    spin polarized calculation?
   LNONCOLLINEAR =      F non collinear calculations
   LSORBIT =      F    spin-orbit coupling
   INIWAV =      1    electr: 0-lowe 1-rand  2-diag
   LASPH  =      F    aspherical Exc in radial PAW
   METAGGA=      F    non-selfconsistent MetaGGA calc.

 Electronic Relaxation 1
   ENCUT  =  600.0 eV  44.10 Ry    6.64 a.u.  27.99 27.99 27.99*2*pi/ulx,y,z
   ENINI  =  600.0     initial cutoff
   ENAUG  =  605.4 eV  augmentation charge cutoff
   NELM   =     60;   NELMIN=  2; NELMDL= -5     # of ELM steps
   EDIFF  = 0.1E-05   stopping-criterion for ELM
   LREAL  =      T    real-space projection
[...]
     0.000000000  0.000000000 14.012776000     0.000000000  0.000000000  0.071363447

  length of vectors
    14.012776000 14.012776000 14.012776000     0.071363447  0.071363447  0.071363447

 FORCES acting on ions
    electron-ion (+dipol)            ewald-force                    non-local-force                 convergence-correction
   -.141E+02 -.525E+02 0.204E+02   0.109E+02 0.524E+02 -.203E+02   0.267E+01 -.117E+01 -.232E+01   -.163E-03 -.483E-03 -.431E-03
   -.111E+03 -.852E+02 0.177E+03   0.111E+03 0.872E+02 -.178E+03   0.134E+01 -.455E+00 0.575E+00   -.732E-03 -.267E-03 -.305E-03
   0.486E+02 0.445E+03 -.647E+02   -.498E+02 -.449E+03 0.658E+02   -.623E+00 0.639E+00 -.198E+01   0.466E-04 -.134E-03 0.675E-03
   0.107E+03 -.225E+03 -.370E+02   -.102E+03 0.223E+03 0.391E+02   -.683E+01 0.216E+01 0.346E+01   0.735E-05 0.143E-03 0.108E-02
   -.499E+02 -.210E+03 0.677E+02   0.557E+02 0.210E+03 -.701E+02   -.359E+01 -.788E+00 0.236E+01   0.240E-03 -.706E-03 0.370E-03
   -.281E+03 0.291E+02 -.472E+03   0.279E+03 -.283E+02 0.470E+03   0.228E+01 -.309E+01 0.654E+01   0.622E-03 -.265E-03 -.121E-02
   0.592E+02 -.191E+01 -.205E+02   -.557E+02 0.555E+01 0.223E+02   -.124E+01 -.468E+00 -.164E+01   0.392E-03 0.158E-03 -.718E-03
   -.358E+03 0.582E+02 0.240E+03   0.356E+03 -.639E+02 -.238E+03   0.376E+01 0.478E+01 -.138E+01   0.422E-03 0.164E-02 0.135E-02
   0.363E+03 0.147E+03 -.112E+03   -.356E+03 -.148E+03 0.112E+03   -.694E+01 -.288E+00 -.868E+00   -.475E-03 0.722E-04 0.102E-02
   0.196E+03 -.249E+03 0.121E+03   -.197E+03 0.245E+03 -.118E+03   0.481E+00 0.275E+01 -.188E+01   -.160E-02 0.136E-03 -.229E-02
   -.189E+01 0.120E+03 -.207E+02   0.424E+01 -.120E+03 0.182E+02   -.179E+01 0.182E+00 0.176E+01   0.278E-03 -.940E-04 -.125E-02
   0.116E+03 -.478E+03 -.159E+02   -.112E+03 0.475E+03 0.197E+02   -.469E+01 0.163E+01 -.350E+01   0.409E-04 0.417E-04 0.297E-03
   0.265E+02 0.603E+03 -.378E+03   -.278E+02 -.594E+03 0.376E+03   0.786E+00 -.793E+01 0.227E+01   -.670E-03 -.547E-03 -.694E-03
   0.268E+03 -.208E+03 -.194E+03   -.263E+03 0.206E+03 0.196E+03   -.386E+01 0.392E+01 -.266E+01   0.601E-03 0.106E-03 -.126E-03
   0.827E+02 -.190E+03 -.194E+03   -.852E+02 0.188E+03 0.184E+03   0.133E+01 0.298E+01 0.715E+01   0.284E-03 -.342E-03 -.387E-03
   -.382E+03 0.258E+03 -.931E+02   0.379E+03 -.255E+03 0.918E+02   0.280E+01 -.759E+01 0.152E+01   0.924E-03 0.640E-03 -.111E-02
   -.907E+02 0.138E+03 0.148E+03   0.877E+02 -.140E+03 -.151E+03   0.267E+01 -.366E+01 0.717E+00   -.220E-03 -.210E-02 0.279E-02
   -.247E+02 -.182E+03 0.195E+03   0.194E+02 0.182E+03 -.193E+03   0.534E+01 0.184E+01 -.335E+01   0.525E-03 -.212E-03 0.685E-03
   -.795E+01 0.505E+02 0.377E+03   0.739E+01 -.478E+02 -.372E+03   0.380E+00 -.144E+01 -.400E+01   0.135E-03 0.856E-04 0.120E-02
   0.167E+03 0.325E+03 0.332E+01   -.165E+03 -.326E+03 -.558E+00   -.355E+01 0.366E+00 -.109E+01   0.122E-03 0.206E-05 0.827E-03
   0.249E+03 -.126E+02 -.995E+02   -.245E+03 0.136E+02 0.101E+03   -.421E+01 -.732E+00 -.952E+00   -.275E-03 0.196E-03 -.128E-02
   -.253E+03 -.131E+03 -.244E+03   0.246E+03 0.126E+03 0.247E+03   0.718E+01 0.434E+01 -.214E+01   0.370E-03 -.577E-04 -.782E-03
   -.691E+02 -.438E+02 0.193E+03   0.704E+02 0.430E+02 -.190E+03   -.194E+01 0.109E+01 -.258E+01   -.747E-03 0.203E-03 0.104E-02
   -.697E+02 0.357E+00 -.574E+02   0.729E+02 -.766E+01 0.586E+02   0.789E+00 0.589E+01 -.566E+00   0.766E-04 0.749E-05 -.780E-03
   0.272E+02 0.260E+03 0.171E+03   -.247E+02 -.260E+03 -.169E+03   -.157E+01 -.149E+01 0.970E+00   -.543E-03 0.151E-04 0.675E-03
   0.410E+03 0.215E+03 0.140E+03   -.411E+03 -.217E+03 -.143E+03   -.130E+01 -.299E-01 0.164E+01   -.565E-03 0.352E-03 0.954E-03
   -.131E+03 -.254E+03 -.237E+03   0.129E+03 0.257E+03 0.233E+03   0.190E+01 -.310E+01 0.469E+01   0.419E-03 0.261E-03 -.365E-03
   -.776E+01 0.101E+03 0.619E+02   0.955E-01 -.103E+03 -.692E+02   0.600E+01 0.394E+01 0.104E+02   0.299E-03 0.199E-03 0.153E-03
   -.761E+02 0.512E+02 0.965E+02   0.858E+02 -.501E+02 -.940E+02   -.104E+02 -.220E+01 -.627E+00   -.386E-03 0.146E-03 0.987E-04
   -.657E+01 0.372E+02 -.282E+02   0.609E+01 -.381E+02 0.288E+02   0.847E+00 0.135E+00 -.274E+01   0.111E-03 0.318E-03 0.327E-03
   0.751E+02 -.974E+02 -.397E+02   -.739E+02 0.100E+03 0.428E+02   0.400E+01 -.106E+02 -.332E+01   -.156E-03 -.287E-03 0.930E-04
   0.112E+03 0.115E+03 -.124E+03   -.105E+03 -.111E+03 0.119E+03   -.710E+01 -.348E+01 0.316E+01   -.132E-03 0.142E-03 -.392E-03
   0.685E+01 -.387E+02 -.186E+03   -.125E+02 0.472E+02 0.174E+03   0.689E+01 -.454E+01 0.123E+02   0.142E-03 -.684E-04 0.378E-05
   -.765E+02 0.134E+03 -.814E+02   0.707E+02 -.131E+03 0.805E+02   0.667E+01 -.565E+01 0.488E+01   0.678E-04 -.443E-03 -.181E-04
   -.336E+02 -.236E+02 0.114E+02   0.276E+02 0.260E+02 -.257E+01   0.954E+01 -.111E+01 -.128E+02   0.221E-03 -.264E-04 -.375E-04
   -.153E+02 -.194E+02 0.107E+03   0.268E+02 0.151E+02 -.110E+03   -.113E+02 0.416E+01 -.345E+01   -.283E-03 0.810E-03 0.178E-02
   -.234E+02 -.583E+02 0.428E+01   0.172E+02 0.578E+02 -.219E+02   0.989E+01 -.498E+01 0.209E+02   -.248E-04 -.977E-04 0.486E-03
   -.875E+02 -.787E+02 0.534E+02   0.854E+02 0.827E+02 -.536E+02   0.293E+01 0.591E+00 0.420E+01   0.298E-03 0.285E-03 -.624E-03
   -.351E+02 0.550E+02 0.422E+02   0.269E+02 -.670E+02 -.399E+02   0.141E+02 0.235E+02 -.467E+01   -.252E-03 0.157E-03 -.217E-03
   0.780E+02 -.112E+03 0.577E+02   -.767E+02 0.109E+03 -.613E+02   0.224E+01 0.113E+02 -.569E+01   -.150E-03 -.119E-03 -.426E-03
   -.283E+02 -.210E+02 -.784E+02   0.160E+02 0.154E+02 0.816E+02   0.180E+02 0.781E+01 -.493E+01   -.106E-03 -.120E-03 -.389E-03
   0.457E+01 -.106E+03 0.111E+03   0.241E+01 0.103E+03 -.107E+03   -.613E+01 0.496E+01 -.275E+01   -.113E-03 -.550E-04 0.301E-03
   0.528E+02 -.146E+03 -.808E+02   -.560E+02 0.143E+03 0.859E+02   0.138E+01 0.201E+01 -.572E+01   0.552E-05 0.172E-03 -.606E-03
   0.655E+02 -.158E+03 0.119E+03   -.690E+02 0.146E+03 -.113E+03   0.280E+01 0.891E+01 -.161E+01   0.693E-04 0.831E-04 0.219E-03
   -.760E+01 0.818E+02 -.103E+03   0.476E+01 -.841E+02 0.103E+03   0.327E+01 0.420E+01 -.229E+01   0.402E-03 -.386E-04 -.436E-03
   -.979E+02 -.496E+02 0.563E+02   0.106E+03 0.617E+02 -.612E+02   -.111E+02 -.108E+02 0.688E+01   0.208E-03 0.123E-03 0.520E-03
   -.262E+02 0.127E+03 0.990E+02   0.236E+02 -.137E+03 -.958E+02   0.349E+01 0.536E+01 -.246E+00   0.145E-03 0.245E-03 0.195E-03
   -.324E+02 -.388E+02 0.235E+03   0.320E+02 0.379E+02 -.228E+03   0.190E+01 0.653E+01 -.804E+01   -.259E-03 0.324E-03 0.396E-03
   0.461E+02 0.721E+02 -.893E+02   -.472E+02 -.733E+02 0.897E+02   -.216E+01 0.648E+01 -.625E+00   -.208E-03 0.222E-03 0.248E-03
   0.282E+01 -.317E+02 -.128E+03   -.195E+01 0.238E+02 0.119E+03   0.344E+01 0.893E+01 0.117E+02   0.695E-04 0.251E-03 -.534E-03
   0.312E+02 0.720E+01 -.105E+03   -.295E+02 -.936E+01 0.980E+02   -.200E+00 0.333E+00 0.119E+02   0.324E-03 -.600E-04 -.329E-03
   -.166E+03 0.539E+01 0.137E+03   0.164E+03 -.518E+01 -.129E+03   0.388E+01 0.486E+00 -.435E+01   0.403E-03 -.229E-04 0.421E-03
   0.524E+02 -.560E+02 -.701E+02   -.541E+02 0.680E+02 0.712E+02   0.617E+01 -.107E+02 -.409E+01   -.394E-03 -.265E-03 0.405E-03
   -.531E+02 -.814E+02 -.698E+02   0.487E+02 0.746E+02 0.680E+02   0.340E+01 0.640E+01 -.239E+01   0.221E-03 0.152E-03 -.398E-03
   -.999E+02 -.204E+02 -.626E+02   0.107E+03 0.120E+02 0.905E+02   -.850E+01 0.120E+02 -.255E+02   -.112E-03 -.194E-03 0.218E-02
   -.109E+03 0.110E+03 -.199E+03   0.126E+03 -.140E+03 0.201E+03   -.177E+02 0.310E+02 -.142E+01   0.442E-03 0.274E-03 -.793E-03
   -.929E+02 0.104E+03 -.383E+02   0.109E+03 -.112E+03 0.480E+02   -.196E+02 0.106E+02 -.113E+02   0.299E-03 -.850E-04 -.160E-03
   -.539E+02 0.117E+03 0.112E+02   0.649E+02 -.133E+03 -.421E+02   -.569E+01 0.138E+02 0.249E+02   0.505E-03 -.231E-03 -.687E-03
   0.323E+02 0.325E+03 0.795E+02   -.424E+02 -.346E+03 -.892E+02   0.112E+02 0.241E+02 0.107E+02   0.305E-03 0.610E-03 0.156E-03
   0.188E+02 0.240E+03 0.497E+02   -.380E+02 -.278E+03 -.492E+02   0.142E+02 0.300E+02 0.687E+00   -.411E-03 -.266E-03 -.463E-03
[...]
   0.150E+03 -.159E+02 -.480E+02   -.156E+03 0.171E+02 0.329E+02   0.641E+01 -.318E+01 0.151E+02   -.197E-03 -.235E-03 -.449E-03
   0.436E+02 -.166E+03 -.441E+02   -.288E+02 0.153E+03 0.397E+02   -.166E+02 0.168E+02 0.561E+01   -.347E-03 -.468E-03 0.130E-03
   0.154E+03 0.134E+03 -.248E+02   -.161E+03 -.148E+03 0.250E+02   0.312E+01 0.118E+02 0.221E+01   -.448E-03 0.210E-03 0.722E-03
   0.504E+02 -.291E+02 0.302E+02   -.379E+02 0.351E+02 -.342E+02   -.175E+02 -.763E+01 0.429E+01   -.127E-02 -.109E-02 0.105E-02
   0.125E+03 -.140E+02 -.120E+03   -.153E+03 0.928E+01 0.154E+03   0.203E+02 0.549E+01 -.273E+02   -.139E-03 -.407E-04 -.419E-04
   0.706E+00 0.208E+02 0.304E+03   -.108E+02 -.401E+01 -.317E+03   0.128E+02 -.207E+02 0.149E+02   -.319E-03 0.113E-03 0.630E-03
   -.519E+01 -.933E+02 0.110E+03   0.116E+02 0.102E+03 -.133E+03   -.752E+01 -.113E+02 0.248E+02   0.349E-04 0.244E-03 0.397E-03
   -.114E+03 -.986E+02 0.129E+03   0.120E+03 0.123E+03 -.136E+03   -.706E+01 -.269E+02 0.664E+01   0.570E-03 0.381E-03 -.131E-02
   0.101E+03 0.205E+03 0.143E+03   -.130E+03 -.219E+03 -.162E+03   0.259E+02 0.132E+02 0.178E+02   0.293E-03 0.294E-03 0.926E-04
   -.128E+03 -.223E+03 -.805E+01   0.146E+03 0.247E+03 0.859E+01   -.149E+02 -.224E+02 -.122E+01   0.404E-03 0.123E-03 0.142E-04
   -.341E+03 0.488E+02 0.187E+03   0.370E+03 -.516E+02 -.198E+03   -.279E+02 0.601E+01 0.123E+02   0.149E-02 0.105E-02 0.141E-02
   0.405E+02 -.620E+02 0.191E+03   -.371E+02 0.527E+02 -.208E+03   0.363E+00 0.967E+01 0.124E+02   -.219E-03 0.837E-04 0.966E-04
   -.232E+03 -.232E+03 -.886E+02   0.236E+03 0.238E+03 0.108E+03   -.385E+01 -.660E+01 -.236E+02   0.559E-03 0.578E-03 0.180E-03
   -.656E+02 0.611E+02 0.521E+02   0.723E+02 -.727E+02 -.459E+02   -.583E+01 0.135E+02 -.880E+01   -.777E-04 0.208E-04 0.599E-03
   -.685E+02 -.973E+02 -.548E+02   -.108E-11 0.242E-12 0.136E-11   0.685E+02 0.973E+02 0.548E+02   -.125E-03 0.431E-02 0.332E-02

 POSITION                                       TOTAL-FORCE (eV/Angst)
      7.70383     12.86765      5.85706        -0.584847     -1.303573     -2.184258
      4.11282     12.96869     12.41183         0.966424      1.585730     -0.484043
      0.57980      7.55407      3.74123        -1.822227     -2.606347     -0.861853
      1.17168     10.44887      2.76028        -1.620916      0.499364      5.507822
     11.91185     11.11142     13.03695         2.253696     -0.551982     -0.030128
      9.75753      1.59909     10.44907         1.153462     -2.351212      4.494725
      8.21067      1.87580      6.61574         2.290628      3.167904      0.185064
      8.85547      5.00940      1.22192         1.313625     -0.903452      0.596377
      5.99441      3.11776      3.82888         0.588090     -1.570937     -0.925937
      5.33320      2.62762     10.74081        -0.234060     -1.045184      1.188994
     13.97025      4.85031     11.23256         0.561432     -0.386263     -0.717515
      1.23825     13.64725      4.30426        -1.583130     -0.943662      0.331596
      2.99133      6.67125      6.53411        -0.511707      1.119184     -0.141863
      7.33017      5.25233      6.11993         1.410385      1.670341     -0.716748
      9.90347     11.54818     11.09313        -1.114223      0.894156     -2.024419
     11.35166      4.46925      7.50218        -1.007328     -4.509667      0.232828
      6.85642      0.18280      1.31524        -0.315811     -5.686362     -1.769620
     11.64900     10.21120      1.88955         0.111243      1.838855     -1.081061
      7.44612      8.04209      0.32063        -0.175935      1.251986      0.759332
     11.00779      7.33442      3.46584        -0.776755     -0.525241      1.670838
      5.34428     11.73961      9.03335        -0.586022      0.303593      0.937071
     13.66994     10.54835      7.78283         0.447173     -0.059062      0.766029
      6.26341     10.13346      3.17452        -0.668147      0.263111      0.893667
      9.19942      9.83107      6.78911         3.980158     -1.411992      0.574490
      2.45154      8.22349     14.00488         0.989912     -0.554899      3.200193
      3.23847      4.44104      0.91729        -2.578101     -1.574884     -1.753291
     12.00889     12.92261      6.18912         0.340113      0.375138      0.877024
     11.44066      7.73110     13.72375        -1.661414      1.540960      3.165175
      3.91657     10.01387     12.27725        -0.774776     -1.026142      1.863532
      3.75233      8.28631      4.02558         0.367043     -0.832289     -2.196037
      4.39033     13.91124      4.57235         5.170386     -7.764186     -0.239312
      6.66041      9.78702      6.58148        -0.751611      0.596682     -1.356977
      3.51044     10.62179      5.12331         1.242910      3.902094      0.122736
     12.44786      7.57376      6.48952         0.867770     -2.379169      4.047086
     12.57478     10.45681      4.57857         3.578685      1.281884     -4.011361
      7.10427      2.61424      0.73739         0.214946     -0.144621     -6.368733
      8.47298     11.43173      1.20643         3.778099     -5.495402      3.272127
     13.93919      1.49607      9.56334         0.882305      4.569559      4.026214
      2.04356      8.10135     10.53015         5.957796     11.492629     -2.433958
      2.36172      1.54616     11.93614         3.545842      8.607830     -9.270881
      7.43874      0.10537      9.04282         5.653759      2.195500     -1.732798
     10.15341     13.19301      3.29057         0.846540      2.255668      1.332408
      8.09628      3.63688      9.29368        -1.872146     -1.437230     -0.570961
      1.63652     11.69260      0.04842        -0.648063     -2.771465      4.457664
      9.83584      6.58282     10.02306         0.429870      1.928165     -2.266119
     12.18366      1.43252      4.05688        -3.338602      1.293397      2.070062
     13.58590      6.81375      0.75580         0.880589     -4.210075      2.903481
      5.65937      5.39805      0.91729         1.542768      5.643307     -0.693954
      4.82525      5.96568      3.66266        -3.204604      5.312077     -0.277906
      2.35540      9.17962      8.09265         4.315171      1.053290      3.019033
      9.59841      9.21790      9.74680         1.517669     -1.823439      5.158884
      9.43893      3.85049      4.82099         1.540687      0.700712      3.744823
      2.94949      0.38099      0.72250         4.463736      1.401448     -3.053428
     12.87779     13.27468     10.05798        -0.989227     -0.342850     -4.185996
      7.12284      1.88378      2.16199        -1.113878      3.572375      2.422794
     10.59017      5.20322     10.05095        -0.722473      0.856237      0.235862
     10.88262      9.34296     11.10121        -3.203116      2.257001     -1.613810
     10.00453      8.03988      8.85641         5.368411     -1.940720     -6.042478
     12.98839      5.52420     13.81081         1.166700      2.702188      0.992615
      1.37534      6.85188     10.62229        -4.993550     -8.442898      1.092446
[...]
      3.36870      3.22262     12.25803        -1.886807     -2.015236      0.559758
      7.41425      0.17602      7.40041        -0.093423     -1.939856     -0.034916
      4.74316     12.15725      4.59026        -1.810680      2.862627      1.161126
      4.87424      5.18344      2.28484        -4.174045     -2.736669      2.361862
      4.87946      0.34738      0.49836        -4.996057     -1.663387      0.297501
     11.67524     10.46623      5.67803        -7.487109      0.775538      7.410848
      4.56020      6.52393      0.02253         2.690219     -3.907363      1.896871
      4.15899     10.05138      3.69255        -1.115299     -2.276038      1.176907
      0.08436      3.16008      9.28526        -1.360884     -2.419099     -0.417597
     10.21534      7.09702     13.07908        -2.423886     -1.662927     -0.868540
     13.48273     11.72016      4.63661         2.519658      1.861990     -0.683867
      8.60896      2.98647      0.41220         1.557085      3.191709      1.124722
      2.54486     11.08646     12.97104         3.770069      0.352884     -4.321386
     12.62385      1.03203      5.78477         0.290031     -0.917129     -4.254315
      7.98407      9.70897      2.12846         0.792209      1.982764     -2.586416
    total drift:                               -0.001832      0.021265      0.016202

  FREE ENERGIE OF THE ION-ELECTRON SYSTEM (eV)
  free  energy   TOTEN  =      -882.47115390 eV

  energy  without entropy=     -882.42862681  energy(sigma->0) =     -882.44989036