 vasp.5.4.4.18Apr17-6-g9f103f2a35 (build Mar 16 2023 09:39:13) complex

 executed on             LinuxIFC date 2024.04.29  23:50:29

 INCAR:
 POTCAR:    PAW_PBE Ca_sv 06Sep2000
 POTCAR:    PAW_PBE Si 05Jan2001
 POTCAR:    PAW_PBE O 08Apr2002
 POTCAR:    PAW_PBE Ca_sv 06Sep2000
   VRHFIN =Ca: 3s3p4s

   TITEL  = PAW_PBE Ca_sv 06Sep2000
   POMASS =   40.078; ZVAL   =   10.000    mass and valenz
   ENMAX  =  266.622; ENMIN  =  199.967 eV

   TITEL  = PAW_PBE Si 05Jan2001
   POMASS =   28.085; ZVAL   =    4.000    mass and valenz
   ENMAX  =  245.345; ENMIN  =  184.009 eV

   TITEL  = PAW_PBE O 08Apr2002
   POMASS =   16.000; ZVAL   =    6.000    mass and valenz
   ENMAX  =  400.000; ENMIN  =  300.000 eV

 Optimization of the real space projectors (new method)

 maximal supplied QI-value         = 16.25
 optimisation between [QCUT,QGAM] = [ 12.51, 25.03] = [ 43.85,175.40] Ry
 Optimized for a Real-space Cutoff    1.47 Angstroem

   l    n(q)    QCUT    max X(q) W(low)/X(q) W(high)/X(q)  e(spline)
   0     11    12.514    11.817    0.25E-04    0.32E-05    0.87E-07
   0     11    12.514     8.461    0.39E-04    0.59E-05    0.18E-06
   1     11    12.514     3.957    0.97E-05    0.57E-05    0.28E-07
   1     11    12.514     4.314    0.42E-04    0.14E-04    0.23E-06
   2     10    12.514    14.565    0.79E-04    0.50E-03    0.16E-05
   2     10    12.514    14.552    0.75E-04    0.48E-03    0.15E-05
 Optimization of the real space projectors (new method)

[...]

   l    n(q)    QCUT    max X(q) W(low)/X(q) W(high)/X(q)  e(spline)
   0      9    12.501   159.560    0.10E-03    0.83E-04    0.71E-07
   0      9    12.501   115.863    0.99E-04    0.81E-04    0.70E-07
   1      8    12.501    88.339    0.20E-03    0.25E-03    0.76E-07
   1      8    12.501    48.592    0.20E-03    0.24E-03    0.75E-07
 Optimization of the real space projectors (new method)

 maximal supplied QI-value         = 24.76
 optimisation between [QCUT,QGAM] = [ 12.38, 25.00] = [ 42.90,175.06] Ry
 Optimized for a Real-space Cutoff    1.16 Angstroem

   l    n(q)    QCUT    max X(q) W(low)/X(q) W(high)/X(q)  e(spline)
   0      9    12.378    20.381    0.16E-03    0.67E-05    0.31E-06
   0      9    12.378    15.268    0.17E-03    0.81E-05    0.33E-06
   1      8    12.378     5.964    0.20E-03    0.16E-03    0.30E-06
   1      8    12.378     5.382    0.18E-03    0.14E-03    0.26E-06
  PAW_PBE Ca_sv 06Sep2000               :
  PAW_PBE Si 05Jan2001                  :
  PAW_PBE O 08Apr2002                   :

 POSCAR: Ca Si  O
  positions in direct lattice
 exchange correlation table for  LEXCH =        8
   RHO(1)=    0.500       N(1)  =     2000
   RHO(2)=  100.500       N(2)  =     4000

 ion  position               nearest neighbor table
   1  0.687  0.166  0.426-  96 2.14  63 2.57  45 2.95
   2  0.546  0.361  0.739- 107 2.30 108 2.46 131 2.46
   3  0.468  0.862  0.862- 129 2.13
   4  0.568  0.490  0.232-  86 2.04  76 2.16  84 2.28  67 2.47  28 3.14
   5  0.255  0.307  0.848- 104 2.24  93 2.25 121 2.50  43 3.08
   6  0.119  0.998  0.475- 116 2.13 122 2.39 118 2.53  44 2.95  33 3.05
   7  0.030  0.121  0.695- 104 2.20  89 2.50 122 2.51  79 2.55  35 2.82  36 3.16
   8  0.497  0.600  0.952- 129 2.23
   9  0.782  0.653  0.415- 101 2.57  73 2.57
  10  0.006  0.358  0.092-  72 1.98  75 2.25  64 2.28  37 2.96  28 3.12  40 3.16
  11  0.930  0.381  0.434-  57 2.18  60 2.23 120 2.43  37 3.01  30 3.07
  12  0.078  0.898  0.873- 130 2.25 112 2.49  48 3.07  43 3.08
  13  0.794  0.979  0.618-  97 2.21 118 2.28  68 2.39  63 2.40  53 3.11
  14  0.876  0.143  0.957- 106 2.12 117 2.24  95 2.24 114 2.33  64 2.53  53 2.87
  15  0.919  0.694  0.051- 130 2.16 109 2.20 115 2.32  48 2.69
  16  0.209  0.713  0.707- 132 2.41 111 2.49 128 2.50  87 2.53  59 2.56  54 2.79
  17  0.544  0.750  0.494- 102 2.09  94 2.19 110 2.54
  18  0.310  0.490  0.478-  87 2.10 126 2.40  66 2.51
  19  0.814  0.476  0.899- 119 1.94 134 2.19 133 2.33
  20  0.541  0.882  0.159-  69 2.13  74 2.42  56 2.46  41 3.03
  21  0.812  0.968  0.157- 115 2.19  99 2.22  29 2.74
  22  0.839  0.710  0.768-  90 2.11 133 2.20  98 2.28  31 3.05
  23  0.342  0.151  0.488-  58 2.09 126 2.48  96 2.50  45 3.08
  24  0.524  0.147  0.137-  62 2.20  56 2.41
  25  0.243  0.536  0.166- 105 1.99  67 2.27 125 2.38  75 2.55  52 3.04
  26  0.155  0.706  0.394- 103 2.06  66 2.40  30 3.10  49 3.15
  27  0.109  0.003  0.179- 116 2.11 112 2.12 135 2.51  44 2.97
  28  0.802  0.442  0.190-  84 1.53  72 1.80  71 1.83 120 1.88  10 3.12   4 3.14
  29  0.729  0.914  0.344-  73 1.56  97 1.66  99 1.71 102 1.84  21 2.74
  30  0.996  0.559  0.291-  57 1.51  55 1.54 125 1.55  72 2.02  11 3.07  49 3.07  26 3.10
  31  0.696  0.757  0.950-  98 1.67 129 1.79 134 1.84  74 1.86  22 3.05
  32  0.291  0.783  0.085- 124 1.59 100 1.67  61 1.76 105 1.90  41 3.04  52 3.06
  33  0.991  0.814  0.548-  90 1.69 128 1.74 118 1.82 101 1.90   6 3.05
  34  0.503  0.111  0.772-  92 1.57 123 1.63  70 1.66  83 1.88  50 2.64
  35  0.077  0.330  0.656-  77 1.63  89 1.71 104 1.71 127 2.09   7 2.82
  36  0.825  0.254  0.683- 114 1.64  63 1.67 131 1.78  89 1.89   7 3.16
  37  0.913  0.230  0.258-  85 1.58 120 1.58  81 1.64  64 1.76  44 2.95  10 2.96  11 3.01
  38  0.652  0.322  0.010- 107 1.59  71 1.72  80 1.76  62 1.89
  39  0.253  0.019  0.726- 111 1.58 122 1.63  83 1.68  79 1.86
  40  0.219  0.240  0.109-  65 1.54  75 1.60 135 1.69  88 1.81  43 2.97  47 3.10  10 3.16
  41  0.339  0.921  0.270-  78 1.66  82 1.74  69 1.76  61 1.86  20 3.03  32 3.04
  42  0.674  0.396  0.532-  60 1.50 113 1.59 108 1.78 131 1.97  45 2.83  51 2.90
  43  0.129  0.123  0.932-  79 1.57  65 1.65 112 1.71 106 1.75  40 2.97  12 3.08   5 3.08
  44  0.122  0.175  0.330-  58 1.53  85 1.56 135 1.62 116 1.89  37 2.95   6 2.95  27 2.97
  45  0.508  0.308  0.421-  76 1.46  96 1.58 126 1.84 108 1.95  42 2.83   1 2.95  23 3.08
  46  0.090  0.491  0.875- 121 1.65  59 1.66 119 1.68 127 1.83  48 2.57
  47  0.407  0.377  0.049-  93 1.60  67 1.64  88 1.70  62 1.98  40 3.10
  48  0.100  0.675  0.951-  59 1.54 130 1.59 109 1.61 100 2.06  46 2.57  15 2.69  12 3.07
  49  0.951  0.793  0.294- 103 1.64 101 1.67  55 1.69 115 1.87  73 1.89  30 3.07  26 3.15
  50  0.630  0.072  0.927-  56 1.64 117 1.71 123 1.72  80 1.91  70 2.20  34 2.64
  51  0.660  0.584  0.653-  94 1.58 113 1.71  91 1.73 133 1.79  42 2.90
  52  0.395  0.681  0.272-  86 1.64  66 1.64  69 1.77 105 1.78  25 3.04  32 3.06
  53  0.834  0.952  0.853-  68 1.55  95 1.63 117 1.66  98 1.78  14 2.87  13 3.11
  54  0.410  0.637  0.693- 132 1.70  87 1.76  91 1.85 110 1.90  16 2.79
  55  0.973  0.670  0.254-  30 1.54  49 1.69
  56  0.572  0.009  0.021-  50 1.64  24 2.41  20 2.46
  57  0.950  0.544  0.398-  30 1.51  11 2.18
  58  0.205  0.195  0.414-  44 1.53  23 2.09
  59  0.139  0.609  0.859-  48 1.54  46 1.66  16 2.56
  60  0.764  0.355  0.470-  42 1.50  11 2.23
[...]
 121  0.150  0.422  0.964-  46 1.65   5 2.50
 122  0.202  0.070  0.623-  39 1.63   6 2.39   7 2.51
 123  0.561  0.169  0.869-  34 1.63  50 1.72
 124  0.402  0.775  0.034-  32 1.59
 125  0.104  0.510  0.284-  30 1.55  25 2.38
 126  0.367  0.326  0.413-  45 1.84  18 2.40  23 2.48
 127  0.106  0.467  0.737-  46 1.83  35 2.09
 128  0.124  0.820  0.571-  33 1.74  16 2.50
 129  0.575  0.739  0.885-  31 1.79   3 2.13   8 2.23
 130  0.006  0.747  0.919-  48 1.59  15 2.16  12 2.25
 131  0.721  0.343  0.667-  36 1.78  42 1.97   2 2.46
 132  0.349  0.645  0.810-  54 1.70  16 2.41
 133  0.746  0.568  0.761-  51 1.79  22 2.20  19 2.33
 134  0.759  0.631  0.941-  31 1.84  19 2.19
 135  0.156  0.189  0.211-  44 1.62  40 1.69  27 2.51

IMPORTANT INFORMATION: All symmetrisations will be switched off!
NOSYMM: (Re-)initialisation of all symmetry stuff for point group C_1.

Automatic generation of k-mesh.
 generate k-points for:    2    2    2
Space group operators:
 irot       det(A)        alpha          n_x          n_y          n_z        tau_x        tau_y        tau_z
    1     1.000000     0.000000     1.000000     0.000000     0.000000     0.000000     0.000000     0.000000

 Subroutine IBZKPT returns following result:

 Found      8 irreducible k-points:

 Following reciprocal coordinates:
            Coordinates               Weight
  0.000000  0.000000  0.000000      1.000000
  0.500000  0.000000  0.000000      1.000000
  0.000000  0.500000  0.000000      1.000000
  0.500000  0.500000  0.000000      1.000000
  0.000000  0.000000  0.500000      1.000000
  0.500000  0.000000  0.500000      1.000000
  0.000000  0.500000  0.500000      1.000000
  0.500000  0.500000  0.500000      1.000000

 Following cartesian coordinates:
            Coordinates               Weight
  0.000000  0.000000  0.000000      1.000000
  0.038669  0.000000  0.000000      1.000000
  0.000000  0.038669  0.000000      1.000000
  0.038669  0.038669  0.000000      1.000000
  0.000000  0.000000  0.038669      1.000000
  0.038669  0.000000  0.038669      1.000000
  0.000000  0.038669  0.038669      1.000000
  0.038669  0.038669  0.038669      1.000000

 SYSTEM =  unknown system
 POSCAR =  Ca Si  O

 Startparameter for this run:
   NWRITE =      2    write-flag & timer
   PREC   = a         normal or accurate (medium, high low for compatibility)
   ISTART =      0    job   : 0-new  1-cont  2-samecut
   ICHARG =      2    charge: 1-file 2-atom 10-const
   ISPIN  =      1    spin polarized calculation?
   LNONCOLLINEAR =      F non collinear calculations
   LSORBIT =      F    spin-orbit coupling
   INIWAV =      1    electr: 0-lowe 1-rand  2-diag
   LASPH  =      F    aspherical Exc in radial PAW
   METAGGA=      F    non-selfconsistent MetaGGA calc.

 Electronic Relaxation 1
   ENCUT  =  600.0 eV  44.10 Ry    6.64 a.u.  25.83 25.83 25.83*2*pi/ulx,y,z
   ENINI  =  600.0     initial cutoff
   ENAUG  =  605.4 eV  augmentation charge cutoff
   NELM   =     60;   NELMIN=  2; NELMDL= -5     # of ELM steps
   EDIFF  = 0.1E-05   stopping-criterion for ELM
   LREAL  =      T    real-space projection
   NLSPLINE    = F    spline interpolate recip. space projectors
   LCOMPAT=      F    compatible to vasp.4.4
   GGA_COMPAT  = T    GGA compatible to vasp.4.4-vasp.4.6
   LMAXPAW     = -100 max onsite density
   LMAXMIX     =    2 max onsite mixed and CHGCAR
   VOSKOWN=      0    Vosko Wilk Nusair interpolation
   ROPT   =   -0.00025  -0.00025  -0.00025
 Ionic relaxation
   EDIFFG = -.1E-01   stopping-criterion for IOM
   NSW    =      1    number of steps for IOM
   NBLOCK =      1;   KBLOCK =      1    inner block; outer block
   IBRION =     -1    ionic relax: 0-MD 1-quasi-New 2-CG
   NFREE  =      0    steps in history (QN), initial steepest desc. (CG)
   ISIF   =      2    stress and relaxation
   IWAVPR =     10    prediction:  0-non 1-charg 2-wave 3-comb
   ISYM   =      0    0-nonsym 1-usesym 2-fastsym
   LCORR  =      T    Harris-Foulkes like correction to forces

   POTIM  = 1.0000    time-step for ionic-motion
   TEIN   =    0.0    initial temperature
   TEBEG  =    0.0;   TEEND  =   0.0 temperature during run
   SMASS  =  -3.00    Nose mass-parameter (am)
   estimated Nose-frequenzy (Omega)   =  0.10E-29 period in steps =****** mass=  -0.382E-26a.u.
   SCALEE = 1.0000    scale energy and forces
[...]
     0.000000000  0.000000000 12.930412990     0.000000000  0.000000000  0.077337050

  length of vectors
    12.930412990 12.930412990 12.930412990     0.077337050  0.077337050  0.077337050

 FORCES acting on ions
    electron-ion (+dipol)            ewald-force                    non-local-force                 convergence-correction
   0.116E+03 0.887E+02 0.217E+02   -.112E+03 -.927E+02 -.197E+02   -.481E+00 0.196E+01 -.153E+01   -.121E-03 -.625E-03 0.200E-02
   0.252E+03 0.126E+02 0.311E+02   -.245E+03 -.140E+02 -.323E+02   -.526E+01 0.685E+00 0.900E+00   -.658E-03 -.800E-03 -.188E-02
   0.119E+03 -.960E+02 0.145E+03   -.116E+03 0.935E+02 -.146E+03   -.359E+01 0.308E+01 0.433E+00   0.332E-03 0.285E-03 -.217E-02
   0.171E+01 0.220E+02 -.107E+02   -.387E+01 -.212E+02 0.139E+02   0.186E+01 -.246E+01 -.357E+01   -.558E-03 -.798E-03 0.123E-02
   -.256E+03 -.616E+02 0.257E+03   0.251E+03 0.646E+02 -.253E+03   0.425E+01 -.230E+01 -.261E+01   -.335E-03 -.369E-03 -.171E-02
   -.126E+03 -.961E+01 -.940E+02   0.125E+03 0.654E+01 0.910E+02   0.134E+01 0.127E+01 0.285E+01   0.213E-05 0.599E-03 0.217E-03
   0.623E+02 0.412E+02 0.163E+03   -.585E+02 -.387E+02 -.161E+03   -.390E+01 -.325E+01 -.133E+01   -.339E-04 -.191E-04 0.306E-03
   0.312E+02 0.124E+03 -.202E+02   -.328E+02 -.117E+03 0.155E+02   0.603E+00 -.572E+01 0.371E+01   -.445E-03 0.386E-03 -.241E-02
   0.158E+03 0.720E+02 -.687E+02   -.154E+03 -.682E+02 0.708E+02   -.293E+01 -.268E+01 -.139E+01   -.229E-03 0.116E-02 0.140E-02
   0.366E+02 -.130E+01 0.140E+03   -.299E+02 -.169E+00 -.139E+03   -.343E+01 -.106E+00 -.366E+01   0.657E-03 -.146E-02 -.781E-03
   -.103E+03 -.336E+02 -.232E+03   0.103E+03 0.342E+02 0.233E+03   0.137E+01 -.188E+01 0.401E+00   0.155E-03 -.206E-02 0.124E-02
   -.119E+03 0.369E+02 0.117E+03   0.119E+03 -.362E+02 -.112E+03   0.187E+00 0.424E+00 -.405E+01   -.503E-03 0.159E-02 -.111E-03
   0.319E+03 0.423E+02 0.944E+01   -.314E+03 -.399E+02 -.171E+02   -.533E+01 -.201E+01 0.595E+01   0.167E-03 0.138E-02 0.368E-03
   0.599E+02 -.118E+03 -.791E+02   -.571E+02 0.119E+03 0.772E+02   -.270E+01 0.686E+00 0.300E+01   0.142E-02 -.761E-03 -.871E-03
   0.194E+03 0.425E+02 -.594E+02   -.192E+03 -.390E+02 0.616E+02   -.420E+01 -.282E+01 -.623E-01   0.151E-04 0.156E-02 -.369E-03
   0.241E+02 0.640E+02 0.127E+03   -.199E+02 -.623E+02 -.129E+03   -.363E+01 -.101E+01 0.122E+01   0.131E-02 0.590E-03 -.454E-03
   0.194E+03 -.121E+03 -.573E+02   -.191E+03 0.124E+03 0.591E+02   -.441E+01 -.283E+01 -.105E+01   -.280E-03 0.630E-03 0.160E-02
   0.359E+02 0.862E+02 -.505E+02   -.344E+02 -.881E+02 0.526E+02   -.184E+01 0.222E+00 -.286E+01   0.552E-03 -.137E-02 0.192E-02
   0.103E+03 0.137E+03 0.897E+02   -.103E+03 -.132E+03 -.931E+02   -.307E+01 -.518E+01 0.221E+01   0.527E-03 -.643E-03 -.145E-02
   0.123E+02 -.340E+02 -.444E+02   -.851E+01 0.313E+02 0.446E+02   -.149E+01 0.234E+01 -.670E+00   0.933E-03 0.758E-03 0.321E-03
   0.693E+02 -.128E+03 -.203E+02   -.680E+02 0.124E+03 0.198E+02   -.149E+00 0.468E+01 -.113E+01   0.105E-02 -.230E-03 -.542E-03
   -.350E+02 0.924E+02 0.168E+03   0.345E+02 -.923E+02 -.171E+03   0.137E+01 -.125E+00 0.296E+01   -.431E-03 0.109E-02 0.212E-03
   -.169E+03 0.966E+02 -.151E+03   0.168E+03 -.926E+02 0.146E+03   0.247E+01 -.385E+01 0.448E+01   -.393E-03 0.620E-03 0.109E-02
   0.907E+02 0.618E+02 -.192E+03   -.926E+02 -.607E+02 0.190E+03   0.964E+00 -.165E+01 0.239E+01   -.422E-04 -.734E-03 0.520E-03
   -.982E+02 0.794E+02 -.141E+02   0.936E+02 -.837E+02 0.143E+02   0.119E+01 -.253E+00 -.114E+01   -.963E-03 -.577E-03 -.124E-03
   -.186E+03 0.155E+03 -.256E+03   0.185E+03 -.147E+03 0.253E+03   0.108E+01 -.669E+01 0.282E+01   0.620E-03 0.158E-02 0.581E-03
   -.871E+02 0.110E+03 0.223E+01   0.866E+02 -.110E+03 -.170E+01   0.563E+00 -.163E+01 -.446E+00   -.115E-02 0.544E-03 0.206E-03
   0.738E+02 0.272E+02 -.213E+01   -.753E+02 -.159E+02 0.568E+01   0.632E+01 -.152E+02 -.430E+01   0.371E-03 -.409E-03 -.309E-03
   0.114E+03 -.221E+02 -.338E+02   -.110E+03 0.225E+02 0.405E+02   -.884E+01 0.107E+01 -.194E+01   0.826E-04 0.496E-03 0.183E-03
   0.285E+01 0.362E+02 -.709E+01   0.412E+01 -.336E+02 0.174E+02   -.623E+01 -.524E+01 -.142E+02   0.267E-03 0.592E-04 -.400E-03
   0.823E+02 0.269E+02 -.428E+02   -.805E+02 -.253E+02 0.427E+02   -.183E+01 -.204E+01 0.205E+01   0.397E-03 0.476E-03 -.370E-03
   0.955E+01 0.221E+02 0.118E+02   -.313E+01 -.161E+02 -.203E+02   -.747E+01 -.339E+01 0.957E+01   -.430E-03 0.357E-03 0.717E-04
   -.159E+02 0.632E+02 -.487E+01   0.150E+02 -.612E+02 0.130E+02   -.805E+00 -.882E-01 -.665E+01   0.113E-03 0.816E-03 0.182E-03
   0.104E+03 -.143E+02 0.300E+02   -.937E+02 0.120E+02 -.419E+02   -.117E+02 -.143E+01 0.856E+01   0.236E-03 0.272E-03 -.824E-03
   -.535E+02 -.106E+03 0.153E+02   0.570E+02 0.104E+03 -.227E+02   -.216E+01 0.483E+01 0.839E+01   0.157E-03 -.522E-03 0.108E-03
   -.122E+02 -.509E+02 0.234E+02   0.543E+01 0.431E+02 -.184E+02   0.445E+01 0.753E+01 -.555E+01   0.296E-04 -.486E-03 -.216E-04
   0.834E+02 0.234E+02 0.174E+02   -.844E+02 -.331E+02 -.120E+02   0.139E+00 0.178E+01 -.758E+01   0.173E-03 -.701E-03 -.783E-04
   0.240E+02 -.210E+02 -.537E+02   -.273E+02 0.212E+02 0.431E+02   0.206E+01 -.348E+01 0.111E+02   0.443E-03 -.225E-03 -.525E-03
   -.115E+03 0.208E+01 0.489E+02   0.114E+03 -.887E+01 -.523E+02   0.153E+01 0.836E+01 0.487E+01   0.747E-05 0.174E-03 -.330E-03
   -.112E+03 0.458E+02 -.656E+02   0.107E+03 -.351E+02 0.633E+02   0.673E+01 -.630E+01 0.700E+01   -.498E-03 -.744E-04 0.515E-04
   -.525E+02 -.461E+02 -.405E+02   0.491E+02 0.511E+02 0.504E+02   0.213E+01 -.268E+01 -.776E+01   -.292E-03 0.219E-03 0.309E-03
   0.493E+02 0.172E+02 -.168E+02   -.406E+02 -.147E+02 0.130E+02   -.122E+02 -.350E+01 0.873E+01   -.540E-03 -.320E-03 0.717E-03
   -.422E+02 -.318E+01 -.496E+01   0.389E+02 -.111E+01 0.604E+01   -.139E+01 0.325E+01 0.262E+01   -.688E-03 -.603E-04 -.276E-03
   -.769E+02 -.116E+02 -.828E+02   0.788E+02 0.134E+02 0.858E+02   -.331E+01 -.598E+01 -.399E+01   0.252E-03 -.559E-03 0.464E-03
   0.703E+02 0.372E+02 -.921E+01   -.694E+02 -.350E+02 0.368E+01   -.104E+02 -.387E+01 0.110E+02   -.338E-03 -.583E-03 0.110E-02
   -.298E+02 0.250E+02 0.102E+03   0.290E+02 -.301E+02 -.993E+02   -.625E+00 0.171E+01 -.563E+01   0.162E-03 -.325E-03 -.299E-03
   -.406E+02 -.343E+02 0.241E+02   0.352E+02 0.335E+02 -.242E+02   0.557E+01 -.324E+01 0.293E+01   -.403E-03 -.187E-03 -.356E-03
   -.123E+03 -.272E+02 0.223E+02   0.114E+03 0.210E+02 -.211E+02   0.105E+02 0.920E+01 0.413E+01   0.245E-03 -.117E-03 -.223E-03
   0.597E+02 -.669E+02 0.256E+02   -.479E+02 0.659E+02 -.233E+02   -.118E+02 0.300E+01 -.455E+01   0.113E-03 0.821E-03 -.310E-03
   0.637E+02 0.432E+02 0.222E+02   -.663E+02 -.434E+02 -.201E+02   0.359E+01 0.185E+01 -.408E+01   0.188E-03 0.551E-05 -.864E-03
   0.965E+01 0.135E+02 -.466E+02   -.744E+01 -.434E+01 0.414E+02   -.113E+01 -.939E+01 0.745E+01   -.495E-03 -.353E-03 0.122E-03
   -.534E+02 0.263E+02 -.616E+02   0.555E+02 -.274E+02 0.651E+02   -.216E+01 0.400E+01 -.386E+01   -.327E-03 0.479E-03 0.428E-03
   0.586E+02 0.398E+01 0.737E+02   -.505E+02 -.616E+01 -.697E+02   -.103E+02 -.115E+00 0.203E+01   0.238E-03 0.804E-04 -.412E-04
   -.478E+02 0.139E+02 0.320E+02   0.391E+02 -.904E+01 -.308E+02   0.762E+01 -.250E+01 -.266E+01   0.340E-04 -.134E-03 -.180E-03
   0.296E+02 0.222E+02 0.522E+02   -.285E+02 -.104E+02 -.697E+02   -.288E+01 -.107E+02 0.150E+02   -.128E-03 0.120E-02 -.446E-03
   0.125E+03 0.473E+02 -.111E+02   -.135E+03 -.625E+02 0.274E+02   0.974E+01 0.159E+02 -.169E+02   0.103E-02 -.571E-03 -.144E-03
   -.522E+01 -.320E+01 -.251E+03   -.282E+01 0.462E+01 0.284E+03   0.441E+01 -.243E+01 -.288E+02   -.435E-03 0.752E-04 0.442E-03
   -.831E+02 -.107E+03 -.831E+02   0.103E+03 0.120E+03 0.104E+03   -.202E+02 -.135E+02 -.199E+02   0.472E-03 -.429E-04 0.100E-02
   -.135E+03 0.586E+01 0.163E+03   0.155E+03 -.566E+01 -.192E+03   -.187E+02 -.114E+00 0.262E+02   0.573E-03 -.135E-03 -.598E-03
   -.523E+00 0.605E+01 0.257E+02   0.262E+02 -.184E+02 -.439E+02   -.237E+02 0.104E+02 0.151E+02   0.117E-03 -.131E-02 0.825E-03
[...]
   -.147E+03 -.421E+02 0.818E+02   0.138E+03 0.542E+02 -.102E+03   0.921E+01 -.121E+02 0.205E+02   -.125E-03 0.401E-03 -.465E-03
   0.140E+03 -.785E+02 0.435E+02   -.136E+03 0.109E+03 -.313E+02   -.662E+01 -.300E+02 -.118E+02   0.573E-03 0.254E-03 -.156E-02
   -.691E+02 0.145E+02 0.896E+02   0.946E+02 -.157E+02 -.101E+03   -.240E+02 0.387E+00 0.104E+02   0.108E-03 0.166E-03 -.539E-03
   -.165E+03 0.908E+02 -.149E+03   0.192E+03 -.110E+03 0.148E+03   -.230E+02 0.199E+02 0.677E+00   0.812E-03 -.688E-03 -.252E-03
   0.649E+02 -.289E+02 0.161E+02   -.846E+02 0.284E+02 -.224E+02   0.233E+02 0.717E+00 0.756E+01   -.623E-03 -.631E-03 0.114E-02
   -.323E+02 -.579E+02 0.191E+03   0.371E+02 0.683E+02 -.207E+03   -.542E+01 -.127E+02 0.175E+02   0.626E-03 -.111E-02 0.278E-03
   -.137E+03 0.761E+02 -.441E+02   0.159E+03 -.691E+02 0.498E+02   -.241E+02 -.927E+01 -.701E+01   0.591E-03 0.878E-03 0.979E-04
   0.207E+02 0.152E+02 0.978E+02   -.309E+02 -.185E+02 -.111E+03   0.128E+02 0.304E+01 0.157E+02   0.312E-03 0.204E-03 -.829E-03
   0.205E+02 -.210E+02 0.136E+03   -.431E+02 0.364E+02 -.145E+03   0.222E+02 -.142E+02 0.707E+01   -.522E-03 0.119E-02 -.136E-03
   -.632E+00 -.376E+02 -.348E+02   -.782E+01 0.435E+02 0.449E+02   0.807E+01 -.472E+01 -.114E+02   -.196E-03 -.845E-03 -.183E-03
   -.135E+02 0.524E+02 -.525E+02   -.320E+00 -.527E+02 0.744E+02   0.164E+02 0.476E-01 -.231E+02   -.130E-04 0.685E-04 -.485E-03
   0.268E+02 0.707E+02 0.903E+02   -.187E+02 -.746E+02 -.744E+02   -.110E+02 0.367E+01 -.203E+02   -.699E-03 -.373E-03 -.631E-03
   0.120E+03 0.280E+02 -.791E+02   -.117E+03 -.427E+02 0.764E+02   -.441E+01 0.188E+02 0.472E+01   0.343E-03 0.966E-03 -.597E-03
   -.172E+03 0.657E+00 -.392E+02   0.163E+03 -.648E+00 0.330E+02   0.116E+02 -.196E+01 0.302E+01   -.189E-03 -.460E-03 0.115E-04
   0.117E+03 0.112E+03 -.985E+01   0.000E+00 -.661E-12 -.102E-11   -.117E+03 -.112E+03 0.988E+01   0.213E-02 0.177E-02 -.329E-02

 POSITION                                       TOTAL-FORCE (eV/Angst)
      8.88181      2.15127      5.51200         3.539976     -1.977670      0.434617
      7.05914      4.66600      9.55604         1.296684     -0.727911     -0.282102
      6.05331     11.14833     11.15169        -0.847163      0.558271     -1.022185
      7.33945      6.33093      3.00306        -0.299909     -1.605999     -0.380490
      3.29706      3.97248     10.96867        -1.301744      0.720746      0.710069
      1.53287     12.90931      6.13965         0.425004     -1.795080     -0.059627
      0.38268      1.56653      8.98993        -0.055083     -0.758452      0.389251
      6.43227      7.75942     12.30707        -0.957075      1.046379     -1.015225
     10.11535      8.44114      5.37185         0.930827      1.164926      0.661317
      0.08048      4.62575      1.18772         3.256552     -1.575285     -3.103343
     12.02719      4.92645      5.60967         1.286160     -1.319012      1.261981
      1.01329     11.61258     11.29235         0.237321      1.120963      1.228674
     10.27184     12.66123      7.99028         0.327617      0.389659     -1.713082
     11.32131      1.85326     12.37642         0.059418      1.670476      1.091882
     11.88497      8.97211      0.66250        -1.781535      0.630722      2.119723
      2.70104      9.21987      9.13826         0.514317      0.643109     -0.802434
      7.03382      9.70047      6.38647        -1.370096      0.854017      0.771386
      4.01135      6.33503      6.18165        -0.284173     -1.683233     -0.755821
     10.51951      6.15033     11.63010        -3.180540     -0.925647     -1.164474
      6.99047     11.40006      2.05029         2.319539     -0.309296     -0.468217
     10.50107     12.51127      2.02776         1.131760     -0.227785     -1.633752
     10.84978      9.18186      9.93691         0.767224     -0.028591     -0.137115
      4.41672      1.95119      6.31135         1.115465      0.214564     -0.443930
      6.77413      1.89463      1.77228        -0.989736     -0.543202      0.552108
      3.14583      6.93517      2.14493        -3.362361     -4.607570     -0.904698
      2.01057      9.13431      5.09066         0.275666      1.447831      0.227360
      1.41052      0.03697      2.31676        -0.004880     -1.635622      0.079443
     10.37399      5.72090      2.45587         4.821781     -3.911048     -0.741058
      9.42634     11.81683      4.45077        -5.169055      1.403935      4.776726
     12.87719      7.23156      3.76449         0.744099     -2.662118     -3.806920
      9.00010      9.79313     12.28384        -0.070487     -0.455712      1.986991
      3.75825     10.12700      1.10517        -1.052264      2.518734      0.990199
     12.81362     10.52420      7.08237        -1.629955      1.859153      1.488911
      6.50648      1.44030      9.98485        -1.218602     -3.711640     -3.301246
      0.99573      4.26773      8.47899         1.289483      3.424196      1.046897
     10.66976      3.28340      8.83347        -2.352223     -0.235384     -0.509249
     11.80982      2.97953      3.33003        -0.884451     -7.909611     -2.199246
      8.42632      4.15728      0.13420        -1.304532     -3.258992      0.522203
      3.27224      0.24658      9.39078         0.404662      1.568938      1.496701
      2.83594      3.10385      1.40534         1.738070      4.406764      4.728546
      4.37889     11.90367      3.49705        -1.331976      2.344482      2.130754
      8.72068      5.11627      6.88387        -3.468597     -0.999108      4.998192
      1.67149      1.59248     12.05505        -4.737623     -1.042560      3.695145
      1.58370      2.26690      4.27160        -1.410472     -4.205097     -1.021202
      6.56412      3.97950      5.44160        -9.525398     -1.747306      5.422660
      1.16921      6.34806     11.31205        -1.404464     -3.352168     -2.745277
      5.26785      4.87278      0.63859         0.251233     -3.991472      2.872876
      1.29566      8.72361     12.29429         0.699593      3.041904      5.277612
     12.29777     10.24955      3.79900        -0.013216      1.970206     -2.185631
      8.15040      0.93165     11.98664         1.020652      1.691505     -1.959999
      8.53458      7.55130      8.44341         1.082324     -0.228938      2.326949
      5.10345      8.80704      3.51778        -0.035845      2.897913     -0.353536
     10.78771     12.31052     11.03205        -2.147128     -2.292115      6.039863
      5.30662      8.24164      8.96336        -1.050616      2.334482     -1.374380
     12.58217      8.66387      3.28235        -1.780962      1.163173     -2.518484
      7.39680      0.11782      0.27067        -0.045171      0.674231     -0.638348
     12.28670      7.03464      5.14127        -3.623137     -1.015025      3.967926
      2.64432      2.52051      5.35043        -0.079975     -0.751644      1.274718
      1.79983      7.87188     11.11304         1.916252      0.085438     -2.226945
      9.87700      4.59584      6.07800         2.034966     -1.943998     -3.007981
[...]
      1.94227      5.45760     12.45927        -0.287195      0.673218     -3.182398
      2.61498      0.91038      8.05315         0.527734     -0.066399      0.157238
      7.24871      2.18940     11.23083        -1.925678      0.468088      0.447313
      5.19164     10.02715      0.43328         1.501559     -0.811608     -0.966614
      1.35075      6.59029      3.66941         3.316162      0.501199     -0.029834
      4.74085      4.21068      5.34278         3.554689      0.228003      1.211313
      1.37186      6.04128      9.52371        -0.557686     -2.339250      1.220941
      1.59944     10.60784      7.38170        -2.393306     -2.330269     -1.270424
      7.43590      9.55251     11.44381         2.607345     -0.244988      2.155044
      0.07542      9.65716     11.87919        -0.344284      1.119111     -1.798223
      9.32680      4.42984      8.63083        -0.387633      1.169112     -1.333912
      4.51063      8.33474     10.46795         2.564033     -0.227257     -1.164889
      9.63978      7.34909      9.84149        -2.890098     -0.311582     -4.381727
      9.81813      8.15289     12.16418        -1.105282      4.158285      1.959566
      2.01331      2.44269      2.72439         3.134171     -1.947121     -3.227621
    total drift:                                0.005076      0.016153      0.020837

  FREE ENERGIE OF THE ION-ELECTRON SYSTEM (eV)
  free  energy   TOTEN  =      -933.21045282 eV

  energy  without entropy=     -933.21045282  energy(sigma->0) =     -933.21045282