 vasp.5.4.4.18Apr17-6-g9f103f2a35 (build Oct 31 2019 15:01:46) complex

 executed on             LinuxIFC date 2024.04.30  00:04:16

 INCAR:
 POTCAR:    PAW_PBE Ca_sv 06Sep2000
 POTCAR:    PAW_PBE Si 05Jan2001
 POTCAR:    PAW_PBE O 08Apr2002
 POTCAR:    PAW_PBE Ca_sv 06Sep2000
   VRHFIN =Ca: 3s3p4s

   TITEL  = PAW_PBE Ca_sv 06Sep2000
   POMASS =   40.078; ZVAL   =   10.000    mass and valenz
   ENMAX  =  266.622; ENMIN  =  199.967 eV

   TITEL  = PAW_PBE Si 05Jan2001
   POMASS =   28.085; ZVAL   =    4.000    mass and valenz
   ENMAX  =  245.345; ENMIN  =  184.009 eV

   TITEL  = PAW_PBE O 08Apr2002
   POMASS =   16.000; ZVAL   =    6.000    mass and valenz
   ENMAX  =  400.000; ENMIN  =  300.000 eV

 Optimization of the real space projectors (new method)

 maximal supplied QI-value         = 16.25
 optimisation between [QCUT,QGAM] = [ 12.51, 25.03] = [ 43.85,175.40] Ry
 Optimized for a Real-space Cutoff    1.47 Angstroem

   l    n(q)    QCUT    max X(q) W(low)/X(q) W(high)/X(q)  e(spline)
   0     11    12.514    11.817    0.25E-04    0.32E-05    0.87E-07
   0     11    12.514     8.461    0.39E-04    0.59E-05    0.18E-06
   1     11    12.514     3.957    0.97E-05    0.57E-05    0.28E-07
   1     11    12.514     4.314    0.42E-04    0.14E-04    0.23E-06
   2     10    12.514    14.565    0.79E-04    0.50E-03    0.16E-05
   2     10    12.514    14.552    0.75E-04    0.48E-03    0.15E-05
 Optimization of the real space projectors (new method)

[...]

   l    n(q)    QCUT    max X(q) W(low)/X(q) W(high)/X(q)  e(spline)
   0      9    12.501   159.560    0.10E-03    0.83E-04    0.71E-07
   0      9    12.501   115.863    0.99E-04    0.81E-04    0.70E-07
   1      8    12.501    88.339    0.20E-03    0.25E-03    0.76E-07
   1      8    12.501    48.592    0.20E-03    0.24E-03    0.75E-07
 Optimization of the real space projectors (new method)

 maximal supplied QI-value         = 24.76
 optimisation between [QCUT,QGAM] = [ 12.38, 25.00] = [ 42.90,175.06] Ry
 Optimized for a Real-space Cutoff    1.16 Angstroem

   l    n(q)    QCUT    max X(q) W(low)/X(q) W(high)/X(q)  e(spline)
   0      9    12.378    20.381    0.16E-03    0.67E-05    0.31E-06
   0      9    12.378    15.268    0.17E-03    0.81E-05    0.33E-06
   1      8    12.378     5.964    0.20E-03    0.16E-03    0.30E-06
   1      8    12.378     5.382    0.18E-03    0.14E-03    0.26E-06
  PAW_PBE Ca_sv 06Sep2000               :
  PAW_PBE Si 05Jan2001                  :
  PAW_PBE O 08Apr2002                   :

 POSCAR: Ca Si  O
  positions in direct lattice
 exchange correlation table for  LEXCH =        8
   RHO(1)=    0.500       N(1)  =     2000
   RHO(2)=  100.500       N(2)  =     4000

 ion  position               nearest neighbor table
   1  0.931  0.438  0.182-  85 1.85  67 2.24  95 2.36  43 2.96  29 3.01
   2  0.778  0.084  0.117-  72 2.02 130 2.23  81 2.56  53 3.06  31 3.13  17 3.17
   3  0.409  0.137  0.926- 124 2.31  88 2.35 116 2.43  47 2.65  53 3.05
   4  0.672  0.693  0.941- 107 2.46  68 2.56
   5  0.948  0.964  0.311-  76 2.04 132 2.07  72 2.12  57 2.51  28 2.54  35 2.75  31 2.77
   6  0.518  0.991  0.408- 112 2.11 126 2.16 118 2.24  96 2.52  54 3.11
   7  0.118  0.806  0.588- 128 2.17 123 2.23  42 2.85  41 2.91
   8  0.049  0.566  0.438- 115 1.90  63 2.32  55 2.38 109 2.46  41 2.79  46 2.95
   9  0.079  0.041  0.878-  74 2.23  97 2.41  81 2.51  18 2.98  30 3.06
  10  0.453  0.586  0.345- 103 2.06  77 2.11  86 2.22  78 2.49  54 2.95  39 3.09
  11  0.056  0.355  0.584- 134 2.02  92 2.56
  12  0.036  0.220  0.239- 132 2.05  95 2.22 104 2.38  35 2.79  43 3.15
  13  0.254  0.308  0.410- 104 1.95 110 2.01 115 2.53  40 3.03
  14  0.707  0.295  0.529-  65 1.99  93 2.37  61 2.41  92 2.51  43 2.89  40 3.11
  15  0.272  0.465  0.817-  91 2.29  84 2.32 122 2.38  38 3.00
  16  0.662  0.744  0.340- 102 2.04  90 2.06  86 2.25  28 3.03  39 3.05  33 3.07
  17  0.676  0.285  0.021-  60 1.99  64 2.09 129 2.28  56 2.54   2 3.17
  18  0.890  0.173  0.895-  60 2.09  81 2.40 129 2.55   9 2.98
  19  0.354  0.372  0.162- 131 2.11 125 2.26 110 2.45  52 2.84
  20  0.471  0.848  0.818- 116 2.08  99 2.33 114 2.52  98 2.54
  21  0.163  0.829  0.199-  76 2.42 105 2.48  42 3.06
  22  0.458  0.082  0.628-  58 1.99 118 2.29  48 2.79
  23  0.313  0.060  0.280- 105 1.98 120 2.29 104 2.45  42 3.02
  24  0.906  0.442  0.899-  70 2.00  85 2.17
  25  0.222  0.717  0.875-  69 2.11 122 2.22 123 2.35  94 2.54
  26  0.526  0.455  0.630-  78 2.22  65 2.23  71 2.27  84 2.34
  27  0.348  0.693  0.630- 128 2.08  77 2.27 114 2.34  54 2.89
  28  0.893  0.775  0.313-  76 1.55 102 1.66  90 1.83 106 1.85   5 2.54  33 2.59  16 3.03
  29  0.109  0.466  0.034- 100 1.62  62 1.62  67 1.64 125 2.18  85 2.37  46 2.86  38 2.89   1 3.01

  30  0.252  0.949  0.745-  97 1.60 123 1.73  98 1.74  58 1.88   9 3.06
  31  0.998  0.985  0.103-  81 1.58 135 1.58  72 1.65 111 1.98   5 2.77   2 3.13
  32  0.621  0.180  0.281-  56 1.52 126 1.53  61 1.72 130 2.02  40 3.10
  33  0.824  0.823  0.495- 101 1.78 133 1.78 106 1.81  90 1.83  80 2.04  28 2.59  16 3.07  36 3.10

[...]

  36  0.816  0.889  0.725-  89 1.50  59 1.66  80 1.72 107 2.29  82 2.47  51 2.58  49 2.96  33 3.10

  37  0.385  0.636  0.068-  69 1.58  68 1.63 103 1.82  87 2.51
  38  0.188  0.282  0.934-  88 1.55  74 1.55 100 1.68 125 1.93  29 2.89  15 3.00
  39  0.675  0.516  0.401-  86 1.66  78 1.67  93 1.77  16 3.05  10 3.09
  40  0.487  0.308  0.433-  71 1.51 110 1.82  61 1.94  13 3.03  32 3.10  14 3.11
  41  0.124  0.587  0.639-  63 1.59 122 1.65 134 1.73 128 1.76   8 2.79   7 2.91  34 3.04
  42  0.230  0.890  0.417-  57 1.57 121 1.69 105 1.70 120 2.02 108 2.29  54 2.46   7 2.85  23 3.02
                            21 3.06
  43  0.844  0.316  0.354-  95 1.52  93 1.72  92 1.78  14 2.89   1 2.96  12 3.15
  44  0.961  0.098  0.623-  82 1.58 113 1.62  75 2.08  79 2.17  35 3.03
  45  0.664  0.692  0.649-  66 1.68 101 1.81 107 1.88 114 1.95
  46  0.135  0.571  0.227-  87 1.51 109 1.68  67 1.87  29 2.86   8 2.95
  47  0.317  0.966  0.988- 127 1.55 124 1.58  98 1.61 116 2.56   3 2.65
  48  0.259  0.096  0.549- 120 1.71  96 2.21  97 2.53  22 2.79  35 2.97
  49  0.931  0.812  0.907- 117 1.52  89 1.80  94 1.85 111 1.95  36 2.96
  50  0.647  0.262  0.772- 119 1.63  65 1.65 129 1.73
  51  0.718  0.020  0.611-  59 1.49 133 1.68  79 1.70 118 1.76  36 2.58
  52  0.464  0.405  0.975- 131 1.43  83 1.46  91 1.57  19 2.84
  53  0.604  0.012  0.974-  73 1.59 116 1.63  64 1.65   3 3.05   2 3.06
  54  0.391  0.788  0.432- 112 1.42  77 1.68 108 1.72 121 1.87  42 2.46 105 2.54  27 2.89  10 2.95
                             6 3.11
  55  0.885  0.519  0.508-  34 2.19   8 2.38
  56  0.656  0.271  0.216-  32 1.52  17 2.54
  57  0.113  0.898  0.387-  42 1.57   5 2.51
  58  0.379  0.958  0.675-  30 1.88  22 1.99
  59  0.716  0.970  0.714-  51 1.49  36 1.66
  60  0.826  0.254  0.019-  17 1.99  18 2.09
  61  0.595  0.208  0.409-  32 1.72  40 1.94  14 2.41
  62  0.151  0.579  0.999-  29 1.62
  63  0.005  0.597  0.609-  41 1.59  34 1.63   8 2.32
  64  0.619  0.135  0.004-  53 1.65  17 2.09
  65  0.632  0.323  0.660-  50 1.65  14 1.99  26 2.23
  66  0.749  0.595  0.654-  45 1.68  34 1.84
  67  0.103  0.447  0.160-  29 1.64  46 1.87   1 2.24
  68  0.493  0.637  0.004-  37 1.63  99 1.72   4 2.56
  69  0.323  0.719  0.003-  37 1.58  25 2.11
  70  0.920  0.515  0.763-  34 1.69  24 2.00
  71  0.454  0.321  0.544-  40 1.51  26 2.27
  72  0.884  0.978  0.160-  31 1.65   2 2.02   5 2.12
  73  0.712  0.953  0.981-  53 1.59
  74  0.095  0.209  0.913-  38 1.55   9 2.23
  75  0.064  0.159  0.515-  35 1.49  44 2.08
  76  0.982  0.823  0.250-  28 1.55   5 2.04  21 2.42
  77  0.438  0.677  0.480-  54 1.68  10 2.11  27 2.27
  78  0.567  0.489  0.467-  39 1.67  26 2.22  10 2.49
  79  0.795  0.126  0.621-  51 1.70  44 2.17
  80  0.884  0.812  0.641-  36 1.72  33 2.04
  81  0.937  0.035  0.010-  31 1.58  18 2.40   9 2.51   2 2.56
  82  0.967  0.979  0.650-  44 1.58  36 2.47
  83  0.531  0.400  0.885-  52 1.46
  84  0.441  0.510  0.780-  15 2.32  26 2.34
  85  0.931  0.502  0.053-   1 1.85  24 2.17  29 2.37
  86  0.620  0.580  0.303-  39 1.66  10 2.22  16 2.25
  87  0.232  0.621  0.187-  46 1.51  37 2.51
  88  0.284  0.256  0.867-  38 1.55   3 2.35
  89  0.826  0.873  0.840-  36 1.50  49 1.80
  90  0.782  0.847  0.362-  28 1.83  33 1.83  16 2.06
  91  0.351  0.450  0.975-  52 1.57  15 2.29
  92  0.895  0.301  0.482-  43 1.78  14 2.51  11 2.56
  93  0.747  0.401  0.386-  43 1.72  39 1.77  14 2.37
  94  0.063  0.830  0.854-  49 1.85  25 2.54
  95  0.875  0.278  0.248-  43 1.52  12 2.22   1 2.36
  96  0.391  0.134  0.448-  48 2.21   6 2.52
  97  0.180  0.048  0.722-  30 1.60   9 2.41  48 2.53
  98  0.304  0.939  0.868-  47 1.61  30 1.74  20 2.54
  99  0.471  0.679  0.880-  68 1.72  20 2.33
 100  0.099  0.375  0.948-  29 1.62  38 1.68
 101  0.734  0.725  0.532-  33 1.78  45 1.81
 102  0.800  0.693  0.282-  28 1.66  16 2.04
 103  0.407  0.576  0.193-  37 1.82  10 2.06
 104  0.191  0.193  0.334-  13 1.95  35 2.22  12 2.38  23 2.45
 105  0.299  0.909  0.307-  42 1.70  23 1.98  21 2.48  54 2.54
 106  0.932  0.748  0.448-  33 1.81  28 1.85
 107  0.692  0.770  0.768-  45 1.88  36 2.29   4 2.46
 108  0.300  0.744  0.344-  54 1.72  42 2.29
 109  0.014  0.610  0.256-  46 1.68   8 2.46
 110  0.387  0.359  0.349-  40 1.82  13 2.01  19 2.45
 111  0.021  0.861  0.018-  49 1.95  31 1.98
 112  0.489  0.831  0.407-  54 1.42   6 2.11
 113  0.994  0.186  0.705-  44 1.62
 114  0.520  0.735  0.667-  45 1.95  27 2.34  20 2.52
[...]
 121  0.301  0.856  0.522-  42 1.69  54 1.87
 122  0.168  0.604  0.757-  41 1.65  25 2.22  15 2.38
 123  0.221  0.821  0.725-  30 1.73   7 2.23  25 2.35
 124  0.265  0.074  0.010-  47 1.58   3 2.31
 125  0.210  0.336  0.071-  38 1.93  29 2.18  19 2.26
 126  0.554  0.083  0.273-  32 1.53   6 2.16
 127  0.325  0.903  0.090-  47 1.55
 128  0.205  0.666  0.562-  41 1.76  27 2.08   7 2.17
 129  0.743  0.299  0.858-  50 1.73  17 2.28  18 2.55
 130  0.752  0.094  0.287-  32 2.02   2 2.23
 131  0.489  0.416  0.083-  52 1.43  19 2.11
 132  0.966  0.120  0.340-  35 1.69  12 2.05   5 2.07
 133  0.774  0.950  0.517-  51 1.68  33 1.78
 134  0.144  0.457  0.663-  41 1.73  11 2.02
 135  0.097  0.024  0.165-  31 1.58

IMPORTANT INFORMATION: All symmetrisations will be switched off!
NOSYMM: (Re-)initialisation of all symmetry stuff for point group C_1.

Automatic generation of k-mesh.
 generate k-points for:    2    2    2
Space group operators:
 irot       det(A)        alpha          n_x          n_y          n_z        tau_x        tau_y        tau_z
    1     1.000000     0.000000     1.000000     0.000000     0.000000     0.000000     0.000000     0.000000

 Subroutine IBZKPT returns following result:

 Found      8 irreducible k-points:

 Following reciprocal coordinates:
            Coordinates               Weight
  0.000000  0.000000  0.000000      1.000000
  0.500000  0.000000  0.000000      1.000000
  0.000000  0.500000  0.000000      1.000000
  0.500000  0.500000  0.000000      1.000000
  0.000000  0.000000  0.500000      1.000000
  0.500000  0.000000  0.500000      1.000000
  0.000000  0.500000  0.500000      1.000000
  0.500000  0.500000  0.500000      1.000000

[...]
     0.000000000  0.000000000 12.930412990     0.000000000  0.000000000  0.077337050

  length of vectors
    12.930412990 12.930412990 12.930412990     0.077337050  0.077337050  0.077337050

 FORCES acting on ions
    electron-ion (+dipol)            ewald-force                    non-local-force                 convergence-correction
   0.291E+03 -.910E+02 -.694E+02   -.289E+03 0.959E+02 0.651E+02   -.230E+01 -.391E+01 0.662E+01   0.186E-02 0.188E-02 -.215E-02
   0.233E+03 0.424E+02 0.479E+02   -.230E+03 -.439E+02 -.444E+02   -.388E+01 0.253E+01 -.380E+01   0.392E-02 -.380E-02 -.151E-01
   -.110E+03 -.149E+03 -.511E+02   0.107E+03 0.152E+03 0.495E+02   0.309E+01 -.563E+00 0.393E+00   -.102E-02 0.748E-03 -.121E-03
   -.106E+03 0.164E+03 -.242E+03   0.107E+03 -.160E+03 0.238E+03   -.403E+00 -.270E+01 0.341E+01   -.253E-02 -.194E-03 0.146E-02
   0.147E+03 -.579E+01 -.132E+03   -.150E+03 0.801E+01 0.126E+03   0.655E+00 -.913E+00 0.614E+01   0.127E-01 -.954E-03 0.333E-02
   -.107E+03 0.893E+02 0.140E+03   0.111E+03 -.861E+02 -.141E+03   -.214E+01 -.132E+01 0.864E+00   -.667E-02 -.433E-02 0.913E-03
   0.243E+03 -.954E+02 -.262E+02   -.241E+03 0.933E+02 0.293E+02   -.404E+01 0.294E+01 -.242E+01   0.908E-03 0.227E-02 -.158E-03
   0.824E+02 0.328E+02 0.112E+03   -.855E+02 -.330E+02 -.116E+03   -.893E+00 0.332E+01 0.254E+01   0.347E-02 0.219E-02 -.674E-03
   0.569E+01 0.136E+02 0.357E+02   -.480E+01 -.106E+02 -.344E+02   -.528E+00 -.323E+01 -.105E+01   0.546E-04 -.354E-02 0.868E-03
   -.652E+01 0.987E+02 0.111E+03   0.634E+01 -.979E+02 -.112E+03   -.100E+01 -.197E+01 0.965E+00   -.386E-02 0.304E-02 -.248E-02
   0.163E+02 0.114E+03 -.828E+02   -.181E+02 -.113E+03 0.857E+02   -.576E+00 -.296E+01 -.310E+01   0.234E-02 -.230E-02 0.701E-03
   -.111E+03 -.189E+03 0.193E+03   0.112E+03 0.185E+03 -.192E+03   0.148E+01 0.410E+01 -.414E+01   0.412E-02 -.364E-02 0.252E-02
   0.167E+02 -.156E+03 -.180E+03   -.157E+02 0.158E+03 0.176E+03   -.160E+01 0.424E+00 0.635E+01   -.278E-02 -.243E-02 0.342E-03
   -.110E+03 -.394E+02 -.732E+02   0.112E+03 0.366E+02 0.736E+02   0.269E+00 0.929E+00 -.185E+01   0.556E-03 0.206E-03 0.499E-02
   -.140E+02 0.159E+03 0.129E+03   0.185E+02 -.155E+03 -.129E+03   -.395E+01 -.274E+01 -.668E+00   0.533E-02 0.252E-02 0.251E-04
   0.215E+03 -.224E+02 0.287E+03   -.209E+03 0.192E+02 -.287E+03   -.746E+01 0.299E+01 0.281E+00   -.179E-02 0.187E-02 -.406E-02
   0.173E+03 -.332E+03 -.665E+02   -.169E+03 0.330E+03 0.667E+02   -.535E+01 0.487E+01 0.919E+00   -.245E-02 0.299E-02 -.461E-02
   0.384E+02 -.393E+02 0.211E+03   -.397E+02 0.432E+02 -.204E+03   0.119E+01 -.335E+01 -.695E+01   0.181E-02 -.107E-02 -.483E-03
   -.851E+02 0.147E+03 -.100E+03   0.847E+02 -.143E+03 0.958E+02   -.661E+00 -.309E+01 0.438E+01   -.570E-03 0.196E-02 -.353E-02
   -.192E+03 0.378E+02 -.763E+02   0.194E+03 -.411E+02 0.751E+02   -.127E+01 0.101E+01 -.954E+00   -.151E-02 -.377E-02 0.246E-02
   -.493E+02 0.162E+03 0.221E+03   0.501E+02 -.162E+03 -.220E+03   -.265E+00 -.758E+00 -.135E+01   -.599E-03 0.153E-02 -.149E-03
   -.122E+02 -.219E+03 -.167E+03   0.153E+02 0.217E+03 0.165E+03   -.503E+00 0.412E+01 0.194E+01   -.292E-02 -.280E-03 0.126E-02
   -.233E+03 -.186E+03 0.373E+03   0.230E+03 0.185E+03 -.369E+03   0.282E+01 0.398E+01 -.509E+01   -.535E-02 -.299E-02 0.124E-02
   0.204E+03 -.749E+02 0.337E+02   -.202E+03 0.779E+02 -.308E+02   -.210E+01 -.450E+01 -.963E+00   0.690E-03 0.850E-03 0.785E-03
   0.718E+02 0.254E+02 -.135E+03   -.768E+02 -.278E+02 0.136E+03   0.256E+01 0.212E+01 -.575E+00   -.113E-03 0.133E-03 0.457E-03
   0.154E+02 -.916E+02 -.162E+03   -.182E+02 0.898E+02 0.165E+03   0.163E+01 0.264E+01 -.781E+00   -.527E-02 0.188E-02 0.903E-02
   -.168E+03 0.207E+03 -.127E+03   0.171E+03 -.208E+03 0.123E+03   -.716E+00 0.437E+00 0.441E+01   -.395E-03 -.169E-02 0.325E-02
   0.339E+02 0.916E+02 0.814E+02   -.352E+02 -.942E+02 -.875E+02   -.263E+01 -.335E+01 0.709E+01   0.156E-02 0.465E-03 -.104E-02
   0.547E+02 -.414E+02 0.285E+02   -.492E+02 0.479E+02 -.322E+02   -.415E+01 -.442E+01 0.325E+01   0.644E-03 0.632E-03 -.653E-03
   0.368E+01 -.586E+02 -.461E+01   -.803E+01 0.605E+02 0.231E-01   0.767E+01 -.465E+01 0.251E+01   -.970E-03 -.691E-03 0.324E-03
   -.526E+02 0.467E+02 0.500E+02   0.465E+02 -.416E+02 -.514E+02   0.357E+01 -.921E+01 -.185E+01   0.161E-02 -.193E-02 -.860E-03
   0.287E+02 -.302E+02 0.544E+02   -.284E+02 0.296E+02 -.608E+02   0.501E+01 -.171E+01 0.861E+01   -.525E-02 0.278E-02 -.898E-03
   -.249E+01 -.115E+02 -.386E+02   -.131E+01 0.952E+01 0.363E+02   0.237E+01 0.107E+01 0.387E+01   0.154E-02 0.300E-03 0.176E-03
   0.970E+02 -.205E+02 -.828E+02   -.932E+02 0.924E+01 0.858E+02   -.727E+01 0.652E+01 -.454E+01   0.815E-03 0.632E-03 0.141E-02
   -.112E+02 0.336E+02 -.177E+02   0.390E+01 -.268E+02 0.232E+02   0.987E+01 -.824E+01 -.122E+02   0.700E-03 -.251E-02 0.200E-03
   -.156E+02 -.386E+01 0.249E+01   0.160E+02 -.204E+01 0.836E+01   -.784E+00 0.248E+01 -.150E+02   0.109E-02 -.106E-03 0.114E-02
   -.520E+02 0.160E+01 -.838E+02   0.545E+02 0.695E+01 0.774E+02   -.344E+01 -.103E+02 0.969E+01   0.591E-03 0.189E-03 -.123E-02
   -.511E+02 0.771E+01 0.816E+01   0.468E+02 -.153E+02 -.117E+02   0.285E+01 0.829E+01 0.956E+01   0.405E-03 0.278E-03 -.220E-03
   -.105E+03 -.189E+02 0.211E+02   0.943E+02 0.218E+02 -.244E+02   0.101E+02 -.371E+01 0.190E+01   -.781E-03 0.133E-03 -.990E-03
   -.380E+02 -.236E+02 0.102E+03   0.301E+02 0.251E+02 -.884E+02   0.708E+01 -.355E+01 -.187E+02   -.164E-02 0.266E-04 0.669E-03
   -.370E+01 0.445E+02 -.423E+01   0.648E+01 -.465E+02 0.140E+02   0.296E+01 -.560E+00 -.517E+01   0.116E-02 0.546E-03 0.948E-03
   -.268E+01 0.252E+02 -.347E+02   -.106E+01 -.244E+02 0.262E+02   0.659E+01 0.208E+00 0.439E+01   -.170E-02 0.109E-02 -.636E-03
   0.207E+02 -.483E+02 -.204E+02   -.154E+02 0.457E+02 0.169E+02   -.639E+01 0.312E+01 0.107E+02   0.253E-02 0.118E-02 0.650E-03
   0.348E+02 -.510E+02 0.462E+02   -.315E+02 0.472E+02 -.296E+02   -.468E+01 0.693E+01 -.149E+02   0.193E-02 -.685E-03 -.924E-03
   0.631E+02 0.476E+02 -.354E+02   -.582E+02 -.454E+02 0.401E+02   -.520E+01 0.230E+01 -.231E+01   -.111E-02 0.233E-03 0.173E-02
   0.906E+01 0.225E+02 -.357E+02   -.521E+01 -.117E+02 0.297E+02   -.871E+01 -.133E+02 0.627E+01   0.507E-03 0.909E-03 -.580E-03
   -.754E+02 0.249E+02 -.483E+02   0.675E+02 -.223E+02 0.613E+02   0.607E+01 -.394E+01 -.100E+02   -.658E-03 -.894E-03 0.141E-03
   0.452E+01 -.106E+03 -.147E+03   -.238E+01 0.111E+03 0.150E+03   -.630E+00 -.439E+01 -.504E+01   -.199E-02 -.936E-03 -.128E-02
   0.414E+01 0.796E+02 0.414E+02   -.919E+01 -.863E+02 -.294E+02   0.998E+01 0.101E+02 -.109E+02   0.198E-02 0.564E-03 0.906E-03
   -.146E+02 -.461E+02 -.209E+02   0.142E+02 0.431E+02 0.217E+02   0.124E+01 0.376E+01 0.121E+01   -.764E-03 0.968E-03 0.924E-03
   0.422E+02 -.377E+02 -.580E+01   -.391E+02 0.376E+02 0.618E+01   -.382E+01 0.620E+01 -.109E+02   0.722E-03 -.348E-03 0.138E-02
   -.732E+02 0.596E+02 0.316E+02   0.760E+02 -.531E+02 -.286E+02   -.799E+01 -.417E+01 -.685E+01   0.159E-03 0.142E-02 -.209E-02
   0.396E+02 0.702E+02 -.724E+02   -.293E+02 -.700E+02 0.715E+02   -.726E+01 0.135E+01 0.322E+00   -.482E-03 -.981E-03 -.426E-03
   -.690E+00 0.463E+01 0.213E+02   0.129E+02 -.111E+02 -.292E+02   -.210E+02 -.143E+01 0.833E+01   -.120E-02 0.891E-04 -.694E-03
   0.137E+03 0.799E+02 0.236E+02   -.140E+03 -.833E+02 -.305E+02   0.245E+01 0.398E+01 0.886E+01   0.344E-02 -.160E-03 0.124E-02
   0.656E+02 -.188E+03 0.752E+02   -.531E+02 0.218E+03 -.918E+02   -.128E+02 -.271E+02 0.143E+02   -.290E-02 0.483E-02 -.385E-02
   0.968E+02 0.421E+02 -.432E+02   -.127E+03 -.411E+02 0.337E+02   0.282E+02 -.213E+01 0.109E+02   -.487E-03 0.498E-02 0.860E-03
   -.568E+02 -.179E+02 -.210E+02   0.660E+02 0.111E+02 0.119E+02   -.124E+02 0.581E+01 0.120E+02   -.199E-02 -.765E-03 0.410E-03
   0.107E+03 -.324E+02 -.151E+03   -.129E+03 0.313E+02 0.187E+03   0.221E+02 -.212E+01 -.305E+02   0.853E-03 -.553E-03 0.148E-02
   -.721E+02 -.143E+03 -.589E+02   0.768E+02 0.146E+03 0.632E+02   -.243E+01 -.396E+01 -.330E+01   0.102E-02 0.825E-03 -.226E-02
[...]
   0.822E+02 0.496E+02 -.988E+02   -.797E+02 -.499E+02 0.120E+03   -.198E+01 0.240E+01 -.216E+02   0.151E-02 0.631E-03 0.123E-02
   0.256E+02 -.783E+01 -.634E+02   -.315E+02 -.122E+02 0.632E+02   0.710E+01 0.228E+02 0.127E+00   -.125E-02 -.285E-03 0.109E-02
   0.123E+02 -.107E+03 -.114E+03   -.316E+02 0.134E+03 0.125E+03   0.204E+02 -.257E+02 -.121E+02   -.105E-02 -.956E-03 -.486E-04
   -.410E+02 0.123E+03 -.690E+02   0.397E+02 -.122E+03 0.811E+02   0.307E+01 -.471E+01 -.135E+02   0.586E-03 0.471E-03 -.973E-03
   0.707E+02 0.931E+02 0.241E+03   -.847E+02 -.119E+03 -.247E+03   0.100E+02 0.233E+02 0.424E+01   -.852E-02 -.213E-02 -.208E-02
   -.172E+03 0.470E+02 -.736E+02   0.177E+03 -.668E+02 0.104E+03   -.414E+01 0.192E+02 -.303E+02   -.564E-03 -.131E-02 0.241E-03
   -.196E+02 0.148E+03 0.116E+03   0.330E+02 -.142E+03 -.133E+03   -.178E+02 -.851E+01 0.169E+02   0.314E-03 0.981E-03 0.674E-03
   -.173E+02 -.153E+03 0.105E+03   0.337E+02 0.161E+03 -.907E+02   -.186E+02 -.826E+01 -.180E+02   -.864E-03 0.673E-03 0.126E-03
   0.610E+02 0.504E+02 -.723E+02   -.513E+02 -.594E+02 0.787E+02   -.118E+02 0.111E+02 -.590E+01   0.291E-02 -.164E-02 0.251E-03
   -.258E+03 -.226E+02 -.105E+03   0.273E+03 0.325E+02 0.146E+03   -.988E+01 -.113E+02 -.316E+02   -.718E-03 0.188E-02 -.262E-02
   0.126E+03 -.746E+02 -.964E+02   -.152E+03 0.792E+02 0.897E+02   0.280E+02 -.437E+01 0.945E+01   0.107E-01 -.393E-02 0.455E-02
   0.156E+02 -.488E+02 0.558E+02   -.150E+02 0.573E+02 -.775E+02   0.596E+00 -.108E+02 0.227E+02   0.256E-02 -.134E-02 0.226E-02
   -.907E+02 0.161E+03 -.535E+02   0.971E+02 -.175E+03 0.640E+02   -.590E+01 0.148E+02 -.128E+02   0.148E-02 0.376E-03 0.126E-02
   -.146E+03 -.850E+02 0.760E+02   0.174E+03 0.967E+02 -.638E+02   -.269E+02 -.118E+02 -.111E+02   0.669E-03 -.178E-02 0.113E-02
   0.338E+02 -.200E+02 0.490E+02   0.796E-12 -.682E-12 0.831E-12   -.338E+02 0.200E+02 -.490E+02   0.682E-02 -.370E-02 -.422E-02

 POSITION                                       TOTAL-FORCE (eV/Angst)
     12.03924      5.66434      2.34825        -1.018731      1.014270      2.321977
     10.05499      1.09077      1.51199        -0.461108      1.017417     -0.326524
      5.29428      1.77690     11.96713         0.332046      2.624031     -1.202017
      8.69246      8.95668     12.16409         0.401441      0.899816     -0.878563
     12.25209     12.46910      4.01628        -2.131117      1.301308      0.937169
      6.69755     12.81531      5.27519         1.130233      1.881695      0.004379
      1.52038     10.42832      7.60023        -1.797999      0.858117      0.689931
      0.62805      7.31420      5.66118        -4.015182      3.099282     -1.002748
      1.01768      0.53235     11.35296         0.362083     -0.224077      0.280624
      5.86078      7.58267      4.46594        -1.183183     -1.188713      0.283332
      0.72285      4.59006      7.54956        -2.319727     -1.703667     -0.128877
      0.45999      2.84237      3.08780         2.290656      0.154959     -2.736931
      3.28450      3.97845      5.30482        -0.643987      2.411786      2.602178
      9.14164      3.81058      6.84659         2.392708     -1.803238     -1.432742
      3.51067      6.00623     10.56535         0.647473      0.444760     -0.356032
      8.56459      9.62095      4.39798        -1.969440     -0.207856      0.142710
      8.73693      3.69078      0.27188        -1.316597      2.395654      1.079071
     11.51144      2.23163     11.57386        -0.017259      0.532068      0.470829
      4.57747      4.81429      2.10040        -1.034866      1.379380      0.199493
      6.09460     10.96469     10.57320         0.537946     -2.269957     -2.163140
      2.10370     10.72064      2.57157         0.599626     -0.619201     -0.405962
      5.92809      1.06079      8.12609         2.570428      2.968909     -0.449250
      4.05252      0.77117      3.62473         0.139457      2.899904     -1.235319
     11.71043      5.72040     11.62356        -0.008340     -1.441759      1.902097
      2.87148      9.27354     11.30801        -2.483537     -0.226632      0.527889
      6.80630      5.88678      8.14343        -1.138417      0.804348      2.169699
      4.50114      8.96170      8.14207         2.024606     -0.299475      1.146846
     11.54546     10.02553      4.05226        -3.947542     -5.931467      1.013290
      1.41297      6.02648      0.44091         1.350498      2.026879     -0.453294
      3.25352     12.27587      9.62748         3.309461     -2.736131     -2.070096
     12.90395     12.73982      1.33765        -2.566020     -4.066954     -3.246454
      8.02919      2.32265      3.63791         5.282625     -2.304157      2.242905
     10.65150     10.64513      6.40394        -1.425167     -0.869394      1.538523
     11.51620      7.63774      8.54832        -3.497603     -4.750397     -1.520216
      0.92306      1.31465      5.37911         2.528145     -1.379189     -6.773985
     10.54627     11.49702      9.37820        -0.380664     -3.414552     -4.100259
      4.97380      8.22428      0.87982        -0.917781     -1.764480      3.322530
      2.43213      3.64985     12.07405        -1.531941      0.714049      5.986516
      8.72214      6.67725      5.18119        -0.128333     -0.893930     -1.461918
      6.30049      3.98510      5.59917        -0.806288     -2.112466     -5.148093
      1.60921      7.59578      8.25805         5.737062     -2.542757      4.593879
      2.97671     11.50187      5.39716         2.844185      1.088078     -4.101432
     10.91390      4.08191      4.58365        -1.012247      0.520455      7.155405
     12.42728      1.26218      8.05541        -1.379425      3.141666      1.704527
      8.58095      8.95248      8.38582        -0.270809      4.466107      2.389140
      1.74708      7.37772      2.93642        -4.853021     -2.562074      0.322268
      4.09481     12.49158     12.77778        -1.828618     -1.337429      2.996294
      3.34313      1.24470      7.10072         1.502708      0.895505     -2.264908
     12.03729     10.50265     11.73063         4.936784      3.430938      1.165848
      8.36754      3.39086      9.97657         0.856433      0.728964      2.023400
      9.28829      0.26495      7.90118        -0.702397      6.047937    -10.528817
      6.00121      5.24260     12.61155        -5.176430      2.309447     -3.817281
      7.80663      0.15813     12.59317         3.020776      1.470889     -0.509578
      5.05213     10.19084      5.58272        -8.797080     -7.901126      0.446459
     11.43702      6.71470      6.56370        -0.982833      0.607927      1.925956
      8.48149      3.50293      2.79083        -0.372467      2.207828     -2.334344
      1.46011     11.61092      5.00543        -1.691619     -1.104007      1.452832
      4.90257     12.38934      8.72353        -3.202354     -0.958069      2.880723
      9.25690     12.53891      9.23434         0.206441     -3.200539      5.278632
     10.67970      3.27790      0.24498         2.353757     -0.639421      1.036596
[...]
      3.88969     11.07239      6.75566        -0.290765     -0.041665     -1.948160
      2.16926      7.81485      9.79184         0.507397      2.095299     -0.091723
      2.86293     10.61192      9.37252         1.187687      2.767649     -0.124924
      3.42976      0.96210      0.12457         1.123507      1.525775     -1.010708
      2.71214      4.34213      0.92058         1.714762     -2.728742     -1.449443
      7.16118      1.07135      3.52978        -3.974616     -2.789092     -2.021542
      4.19737     11.67815      1.16530         0.511885     -0.570089      0.079663
      2.64810      8.60632      7.26090        -4.381810     -2.444742      0.190510
      9.60312      3.86090     11.09630        -2.245873     -0.943836     -3.875705
      9.72319      1.21565      3.71145        -2.116544      2.157311      0.524334
      6.32736      5.38081      1.06984         4.819533     -1.421814      9.182160
     12.49196      1.55536      4.40072         2.281497      0.174763      2.730192
     10.00647     12.28329      6.68832         1.280133     -2.321001      1.068982
      1.85692      5.91097      8.57488         0.496722      0.541674     -2.199998
      1.24797      0.30491      2.12961         0.458113     -0.099137      1.101329
    total drift:                                0.015598     -0.020189     -0.025489

  FREE ENERGIE OF THE ION-ELECTRON SYSTEM (eV)
  free  energy   TOTEN  =      -872.88809373 eV

  energy  without entropy=     -872.84703872  energy(sigma->0) =     -872.86756622