 vasp.5.4.4.18Apr17-6-g9f103f2a35 (build Oct 31 2019 15:01:46) complex

 executed on             LinuxIFC date 2024.04.29  00:12:58

 INCAR:
 POTCAR:    PAW_PBE Ca_sv 06Sep2000
 POTCAR:    PAW_PBE Si 05Jan2001
 POTCAR:    PAW_PBE O 08Apr2002
 POTCAR:    PAW_PBE Ca_sv 06Sep2000
   VRHFIN =Ca: 3s3p4s

   TITEL  = PAW_PBE Ca_sv 06Sep2000
   POMASS =   40.078; ZVAL   =   10.000    mass and valenz
   ENMAX  =  266.622; ENMIN  =  199.967 eV

   TITEL  = PAW_PBE Si 05Jan2001
   POMASS =   28.085; ZVAL   =    4.000    mass and valenz
   ENMAX  =  245.345; ENMIN  =  184.009 eV

   TITEL  = PAW_PBE O 08Apr2002
   POMASS =   16.000; ZVAL   =    6.000    mass and valenz
   ENMAX  =  400.000; ENMIN  =  300.000 eV

 Optimization of the real space projectors (new method)

 maximal supplied QI-value         = 16.25
 optimisation between [QCUT,QGAM] = [ 12.51, 25.03] = [ 43.85,175.40] Ry
 Optimized for a Real-space Cutoff    1.47 Angstroem

   l    n(q)    QCUT    max X(q) W(low)/X(q) W(high)/X(q)  e(spline)
   0     11    12.514    11.817    0.25E-04    0.32E-05    0.87E-07
   0     11    12.514     8.461    0.39E-04    0.59E-05    0.18E-06
   1     11    12.514     3.957    0.97E-05    0.57E-05    0.28E-07
   1     11    12.514     4.314    0.42E-04    0.14E-04    0.23E-06
   2     10    12.514    14.565    0.79E-04    0.50E-03    0.16E-05
   2     10    12.514    14.552    0.75E-04    0.48E-03    0.15E-05
 Optimization of the real space projectors (new method)

[...]

   l    n(q)    QCUT    max X(q) W(low)/X(q) W(high)/X(q)  e(spline)
   0      9    12.501   159.560    0.10E-03    0.83E-04    0.71E-07
   0      9    12.501   115.863    0.99E-04    0.81E-04    0.70E-07
   1      8    12.501    88.339    0.20E-03    0.25E-03    0.76E-07
   1      8    12.501    48.592    0.20E-03    0.24E-03    0.75E-07
 Optimization of the real space projectors (new method)

 maximal supplied QI-value         = 24.76
 optimisation between [QCUT,QGAM] = [ 12.38, 25.00] = [ 42.90,175.06] Ry
 Optimized for a Real-space Cutoff    1.16 Angstroem

   l    n(q)    QCUT    max X(q) W(low)/X(q) W(high)/X(q)  e(spline)
   0      9    12.378    20.381    0.16E-03    0.67E-05    0.31E-06
   0      9    12.378    15.268    0.17E-03    0.81E-05    0.33E-06
   1      8    12.378     5.964    0.20E-03    0.16E-03    0.30E-06
   1      8    12.378     5.382    0.18E-03    0.14E-03    0.26E-06
  PAW_PBE Ca_sv 06Sep2000               :
  PAW_PBE Si 05Jan2001                  :
  PAW_PBE O 08Apr2002                   :

 POSCAR: Ca Si  O
  positions in direct lattice
 exchange correlation table for  LEXCH =        8
   RHO(1)=    0.500       N(1)  =     2000
   RHO(2)=  100.500       N(2)  =     4000

 ion  position               nearest neighbor table
   1  0.306  0.190  0.200- 125 2.40
   2  0.870  0.456  0.758- 133 1.96  72 2.28 120 2.46
   3  0.083  0.250  0.293- 126 2.12 103 2.27  82 2.33
   4  0.364  0.219  0.889- 125 2.25  75 2.32 124 2.50  46 2.53  45 2.74
   5  0.092  0.303  0.004-  80 2.12
   6  0.936  0.028  0.509-  74 2.15 114 2.30  50 2.75
   7  0.710  0.005  0.830-
   8  0.922  0.609  0.218- 117 1.98  64 2.38 111 2.56  35 2.99
   9  0.061  0.425  0.486-  83 1.93  35 2.64
  10  0.853  0.826  0.074- 128 2.18 105 2.22  37 3.06  32 3.09
  11  0.094  0.967  0.188- 110 2.22 100 2.41 102 2.47  98 2.53  38 2.85  41 3.14
  12  0.658  0.230  0.692-  63 2.07  57 2.43
  13  0.727  0.605  0.973-  92 2.23 111 2.26  93 2.27  77 2.29
  14  0.721  0.511  0.468-  64 2.34  61 2.39  59 2.48  35 2.85
  15  0.534  0.923  0.069- 118 2.01  90 2.28  70 2.29  37 3.13
  16  0.549  0.851  0.593- 135 2.15 116 2.21 112 2.21  86 2.54  53 3.03
  17  0.239  0.886  0.908-  58 2.03  95 2.06 132 2.48  88 2.54  49 2.92  33 3.07
  18  0.221  0.988  0.433-  81 2.19  98 2.44 114 2.49  51 3.08
  19  0.635  0.035  0.301-  68 2.09  36 3.12
  20  0.854  0.170  0.054-  73 2.22
  21  0.093  0.831  0.570-  74 2.33  56 2.37
  22  0.805  0.825  0.523-  99 2.12  74 2.14  86 2.38  53 2.46
  23  0.499  0.597  0.784- 104 2.02  93 2.33 123 2.49  96 2.56  52 2.94  42 3.04
  24  0.264  0.460  0.211- 126 2.02 108 2.47
  25  0.566  0.497  0.188-  87 2.31  29 2.78
  26  0.250  0.667  0.837- 109 2.06 106 2.26  96 2.42  40 3.07
  27  0.228  0.581  0.490- 121 2.17  62 2.27  55 2.38
  28  0.375  0.345  0.414-  94 1.48  85 1.58 113 1.64
  29  0.489  0.626  0.058-  87 1.55  77 1.69  70 2.20  96 2.51  25 2.78
  30  0.669  0.037  0.545- 122 1.57 135 1.58 130 1.58
  31  0.474  0.062  0.749-  79 1.61 112 1.65  57 1.86 131 1.94  49 2.86  47 3.14
  32  0.006  0.946  0.969- 100 1.64  88 1.76 105 1.85 101 2.00  95 2.11  43 2.55  10 3.09
  33  0.155  0.768  0.073- 106 1.69 119 1.80  88 1.86  84 1.88  17 3.07
  34  0.028  0.623  0.637-  72 1.45 121 1.61  56 1.62
  35  0.910  0.490  0.395-  64 1.54  61 1.72  83 1.87  65 1.91   9 2.64  14 2.85   8 2.99
  36  0.629  0.211  0.165-  73 1.66 134 1.71  68 1.86  89 2.27  19 3.12
  37  0.661  0.760  0.154-  91 1.60 128 1.64  92 1.67  70 1.75  10 3.06  48 3.08  15 3.13
  38  0.026  0.801  0.283- 117 1.52 102 1.77 110 1.86 119 1.89  11 2.85
  39  0.929  0.475  0.025- 120 1.58 111 1.71 129 1.76  69 1.92
  40  0.183  0.485  0.736-  62 1.55 107 1.70 109 1.74  26 3.07  54 3.13
  41  0.311  0.931  0.230-  67 1.63  90 1.65  98 1.71  84 2.04  51 3.03  11 3.14
  42  0.644  0.440  0.822- 123 1.53 133 1.56  93 1.60  23 3.04
  43  0.073  0.088  0.878-  80 1.60  95 1.67 101 1.77  97 2.26  32 2.55
  44  0.870  0.336  0.220-  65 1.55  89 1.67  69 1.76  82 1.77
  45  0.439  0.307  0.047- 125 1.61 108 1.63 124 1.87 134 2.00   4 2.74  46 3.11
  46  0.395  0.392  0.847-  75 1.55 104 1.62 124 1.80  71 2.06 123 2.11   4 2.53  45 3.11
  47  0.408  0.241  0.630-  71 1.74  63 1.79 131 1.81  85 1.82  31 3.14
  48  0.607  0.728  0.364-  91 1.67  86 1.68 115 1.71 127 1.94  37 3.08
  49  0.382  0.880  0.757- 132 1.60  58 1.77  60 1.89  79 2.25 112 2.28  52 2.63  31 2.86  17 2.92

  50  0.076  0.161  0.540-  78 1.62 114 1.74  76 1.75 103 1.97  54 2.72   6 2.75
  51  0.353  0.814  0.407-  67 1.60  55 1.74  81 1.85 127 2.04  41 3.03  18 3.08
  52  0.466  0.776  0.889-  96 1.55 118 1.63  58 1.66  60 1.69  49 2.63  23 2.94
  53  0.710  0.708  0.613-  59 1.62 116 1.64  99 1.69  86 2.45  22 2.46  16 3.03
  54  0.109  0.279  0.691-  66 1.62  78 1.74  97 1.76 107 1.87  50 2.72  40 3.13
  55  0.265  0.744  0.461-  51 1.74  27 2.38
  56  0.048  0.723  0.693-  34 1.62  21 2.37
  57  0.574  0.129  0.805-  31 1.86  12 2.43
  58  0.377  0.854  0.881-  52 1.66  49 1.77  17 2.03
  59  0.652  0.609  0.597-  53 1.62  14 2.48
  60  0.472  0.780  0.768-  52 1.69  49 1.89
  61  0.877  0.459  0.510-  35 1.72  14 2.39
  62  0.221  0.533  0.644-  40 1.55  27 2.27
  63  0.532  0.215  0.615-  47 1.79  12 2.07
  64  0.836  0.562  0.357-  35 1.54  14 2.34   8 2.38
  65  0.888  0.379  0.321-  44 1.55  35 1.91
  66  0.033  0.357  0.655-  54 1.62
  67  0.331  0.839  0.299-  51 1.60  41 1.63
  68  0.549  0.144  0.246-  36 1.86  19 2.09
  69  0.855  0.415  0.124-  44 1.76  39 1.92
  70  0.545  0.764  0.106-  37 1.75  29 2.20  15 2.29
  71  0.427  0.324  0.721-  47 1.74  46 2.06
  72  0.980  0.564  0.707-  34 1.45   2 2.28
  73  0.705  0.145  0.103-  36 1.66  20 2.22
  74  0.948  0.875  0.501-  22 2.14   6 2.15  21 2.33
  75  0.298  0.371  0.897-  46 1.55   4 2.32
  76  0.977  0.235  0.521-  50 1.75
  77  0.577  0.556  0.014-  29 1.69  13 2.29
  78  0.159  0.194  0.614-  50 1.62  54 1.74
  79  0.428  0.009  0.840-  31 1.61  49 2.25
  80  0.113  0.161  0.956-  43 1.60   5 2.12
  81  0.317  0.891  0.509-  51 1.85  18 2.19
  82  0.961  0.258  0.181-  44 1.77   3 2.33
  83  0.041  0.494  0.370-  35 1.87   9 1.93
  84  0.234  0.860  0.130-  33 1.88  41 2.04
  85  0.381  0.296  0.515-  28 1.58  47 1.82
  86  0.653  0.778  0.463-  48 1.68  22 2.38  53 2.45  16 2.54
  87  0.433  0.585  0.144-  29 1.55  25 2.31
  88  0.086  0.854  0.999-  32 1.76  33 1.86  17 2.54
  89  0.759  0.305  0.189-  44 1.67  36 2.27
  90  0.414  0.950  0.175-  41 1.65  15 2.28
  91  0.641  0.784  0.264-  37 1.60  48 1.67
  92  0.721  0.662  0.122-  37 1.67  13 2.23
  93  0.649  0.553  0.842-  42 1.60  13 2.27  23 2.33
  94  0.295  0.413  0.419-  28 1.48
  95  0.132  0.986  0.896-  43 1.67  17 2.06  32 2.11
  96  0.404  0.687  0.912-  52 1.55  26 2.42  29 2.51  23 2.56
  97  0.073  0.231  0.802-  54 1.76  43 2.26
  98  0.246  0.028  0.266-  41 1.71  18 2.44  11 2.53
  99  0.829  0.694  0.595-  53 1.69  22 2.12
 100  0.981  0.007  0.065-  32 1.64  11 2.41
 101  0.969  0.021  0.853-  43 1.77  32 2.00
 102  0.946  0.884  0.233-  38 1.77  11 2.47
 103  0.130  0.150  0.411-  50 1.97   3 2.27
 104  0.398  0.507  0.835-  46 1.62  23 2.02
 105  0.881  0.913  0.945-  32 1.85  10 2.22
 106  0.215  0.702  0.991-  33 1.69  26 2.26
 107  0.200  0.364  0.737-  40 1.70  54 1.87
 108  0.379  0.395  0.093-  45 1.63  24 2.47
 109  0.144  0.567  0.820-  40 1.74  26 2.06
[...]
 121  0.085  0.616  0.538-  34 1.61  27 2.17
 122  0.719  0.117  0.484-  30 1.57
 123  0.537  0.425  0.809-  42 1.53  46 2.11  23 2.49
 124  0.484  0.346  0.927-  46 1.80  45 1.87   4 2.50
 125  0.384  0.206  0.048-  45 1.61   4 2.25   1 2.40
 126  0.182  0.342  0.224-  24 2.02   3 2.12
 127  0.485  0.754  0.424-  48 1.94  51 2.04
 128  0.726  0.857  0.156-  37 1.64  10 2.18
 129  0.046  0.474  0.069-  39 1.76
 130  0.753  0.985  0.599-  30 1.58
 131  0.369  0.139  0.699-  47 1.81  31 1.94
 132  0.271  0.863  0.736-  49 1.60  17 2.48
 133  0.737  0.413  0.767-  42 1.56   2 1.96
 134  0.560  0.303  0.123-  36 1.71  45 2.00
 135  0.580  0.977  0.510-  30 1.58  16 2.15

IMPORTANT INFORMATION: All symmetrisations will be switched off!
NOSYMM: (Re-)initialisation of all symmetry stuff for point group C_1.

Automatic generation of k-mesh.
 generate k-points for:    2    2    2
Space group operators:
 irot       det(A)        alpha          n_x          n_y          n_z        tau_x        tau_y        tau_z
    1     1.000000     0.000000     1.000000     0.000000     0.000000     0.000000     0.000000     0.000000

 Subroutine IBZKPT returns following result:

 Found      8 irreducible k-points:

 Following reciprocal coordinates:
            Coordinates               Weight
  0.000000  0.000000  0.000000      1.000000
  0.500000  0.000000  0.000000      1.000000
  0.000000  0.500000  0.000000      1.000000
  0.500000  0.500000  0.000000      1.000000
  0.000000  0.000000  0.500000      1.000000
  0.500000  0.000000  0.500000      1.000000
  0.000000  0.500000  0.500000      1.000000
  0.500000  0.500000  0.500000      1.000000

 Following cartesian coordinates:
            Coordinates               Weight
  0.000000  0.000000  0.000000      1.000000
  0.035682  0.000000  0.000000      1.000000
  0.000000  0.035682  0.000000      1.000000
  0.035682  0.035682  0.000000      1.000000
  0.000000  0.000000  0.035682      1.000000
  0.035682  0.000000  0.035682      1.000000
  0.000000  0.035682  0.035682      1.000000
  0.035682  0.035682  0.035682      1.000000

 SYSTEM =  unknown system
 POSCAR =  Ca Si  O

 Startparameter for this run:
   NWRITE =      2    write-flag & timer
   PREC   = a         normal or accurate (medium, high low for compatibility)
[...]
     0.000000000  0.000000000 14.012776000     0.000000000  0.000000000  0.071363447

  length of vectors
    14.012776000 14.012776000 14.012776000     0.071363447  0.071363447  0.071363447

 FORCES acting on ions
    electron-ion (+dipol)            ewald-force                    non-local-force                 convergence-correction
   -.606E+02 0.670E+02 -.957E+02   0.629E+02 -.642E+02 0.951E+02   -.123E+01 -.188E+01 0.860E+00   0.169E-02 -.123E-03 -.182E-03
   0.185E+02 0.108E+03 0.269E+02   -.119E+02 -.106E+03 -.255E+02   -.964E+00 -.785E+00 -.149E+01   -.259E-02 -.196E-02 -.211E-02
   0.100E+03 0.105E+03 -.526E+02   -.986E+02 -.103E+03 0.522E+02   -.249E+01 -.156E+01 0.104E+01   0.196E-03 -.171E-02 0.172E-02
   0.729E+02 0.268E+03 0.385E+02   -.737E+02 -.266E+03 -.370E+02   -.102E+00 -.392E+01 -.265E+01   0.244E-02 -.976E-03 -.147E-02
   0.429E+02 -.582E+02 0.296E+01   -.434E+02 0.593E+02 -.462E+01   0.496E+00 0.120E+01 0.154E+01   0.133E-02 -.702E-02 -.362E-02
   0.220E+03 -.207E+03 0.881E+00   -.216E+03 0.201E+03 0.367E+00   -.446E+01 0.573E+01 -.128E+01   -.279E-02 0.648E-03 0.254E-02
   -.217E+03 -.566E+02 -.571E+02   0.215E+03 0.569E+02 0.552E+02   0.137E+01 -.106E+01 0.124E+01   0.117E-02 0.665E-02 -.798E-03
   0.791E+01 0.691E+02 0.999E+02   -.725E+01 -.680E+02 -.987E+02   -.124E+01 -.268E+01 -.320E+01   -.303E-02 0.331E-02 0.318E-02
   -.761E+02 0.192E+03 -.701E+02   0.720E+02 -.191E+03 0.739E+02   0.459E+01 -.290E+01 0.132E+01   -.615E-03 -.147E-02 0.217E-02
   0.172E+02 0.335E+01 0.137E+03   -.177E+02 0.314E+01 -.136E+03   0.188E+01 -.590E+01 -.516E+00   -.156E-02 0.284E-02 -.195E-02
   0.114E+03 -.312E+03 -.160E+02   -.116E+03 0.305E+03 0.168E+02   0.121E+01 0.627E+01 -.127E+01   -.110E-02 0.928E-03 -.136E-02
   -.361E+03 -.809E+02 0.828E+02   0.351E+03 0.791E+02 -.839E+02   0.876E+01 0.210E+01 0.975E+00   0.234E-02 -.485E-02 0.296E-02
   -.187E+03 -.568E+02 0.203E+03   0.186E+03 0.543E+02 -.198E+03   0.969E+00 0.233E+01 -.474E+01   -.232E-02 0.881E-03 -.180E-02
   0.298E+03 0.291E+03 -.361E+02   -.293E+03 -.284E+03 0.375E+02   -.473E+01 -.460E+01 -.816E+00   -.781E-03 -.103E-02 0.124E-02
   -.124E+03 -.362E+03 -.606E+02   0.119E+03 0.355E+03 0.616E+02   0.395E+01 0.743E+01 0.636E+00   0.209E-02 0.116E-02 -.271E-02
   0.142E+03 0.652E+02 0.816E+02   -.138E+03 -.625E+02 -.832E+02   -.419E+01 -.378E+01 0.372E+00   0.367E-02 0.267E-02 0.287E-02
   0.105E+03 -.124E+03 -.312E+01   -.107E+03 0.126E+03 0.336E+01   0.478E-01 -.172E+01 0.108E+01   0.727E-03 0.124E-02 -.975E-03
   -.950E+02 -.152E+03 -.107E+03   0.935E+02 0.153E+03 0.108E+03   0.563E-01 0.517E+00 -.737E+00   -.291E-02 0.477E-02 -.834E-03
   -.127E+03 -.448E+02 -.876E+02   0.122E+03 0.500E+02 0.878E+02   0.410E+01 -.544E+01 0.809E+00   0.733E-03 0.908E-03 0.484E-03
   0.632E+02 0.322E+02 0.172E+03   -.648E+02 -.328E+02 -.165E+03   0.213E+01 0.523E+00 -.567E+01   -.338E-02 -.341E-02 -.514E-02
   -.240E+02 -.834E+02 -.108E+03   0.176E+02 0.800E+02 0.110E+03   0.556E+01 0.255E+01 -.142E+01   -.433E-02 0.135E-02 0.272E-02
   -.665E+02 -.126E+03 0.674E+02   0.734E+02 0.126E+03 -.674E+02   -.500E+01 0.206E+01 -.134E+01   -.999E-03 0.208E-02 0.187E-02
   -.103E+03 -.573E+02 0.370E+03   0.102E+03 0.516E+02 -.365E+03   0.166E+01 0.540E+01 -.480E+01   0.117E-02 -.695E-03 0.160E-03
   -.168E+02 -.279E+03 -.515E+02   0.166E+02 0.270E+03 0.492E+02   0.119E+01 0.893E+01 0.158E+01   0.349E-02 -.174E-02 0.117E-02
   -.998E+02 0.210E+03 -.283E+03   0.966E+02 -.207E+03 0.281E+03   0.310E+01 -.344E+01 0.180E+01   0.330E-04 -.974E-03 0.153E-03
   0.120E+03 0.159E+02 0.118E+03   -.124E+03 -.213E+02 -.113E+03   0.414E+01 0.509E+01 -.444E+01   0.130E-02 0.807E-03 -.832E-03
   -.306E+03 0.221E+02 0.171E+03   0.304E+03 -.169E+02 -.166E+03   0.284E+01 -.398E+01 -.468E+01   -.420E-03 -.552E-02 0.260E-02
   -.163E+03 0.274E+02 -.214E+02   0.151E+03 -.213E+02 0.168E+02   0.141E+02 -.895E+01 0.141E+01   0.713E-03 -.323E-03 0.683E-03
   0.649E+02 -.637E+02 0.146E+02   -.624E+02 0.507E+02 -.323E+01   -.717E-01 0.144E+02 -.129E+02   0.412E-03 0.173E-03 -.552E-03
   0.138E+02 -.128E+03 -.104E+02   -.669E+01 0.125E+03 0.179E+01   -.654E+01 0.308E+01 0.697E+01   0.445E-03 0.591E-03 0.183E-02
   -.225E+02 -.942E+02 0.752E+02   0.217E+02 0.836E+02 -.653E+02   0.149E+01 0.127E+02 -.903E+01   0.191E-02 0.376E-03 0.301E-03
   0.521E+02 0.126E+02 0.105E+03   -.594E+02 -.936E+01 -.952E+02   0.464E+01 -.394E+01 -.112E+02   -.102E-02 0.771E-03 -.746E-03
   0.382E+01 0.121E+03 -.193E+02   -.286E+01 -.122E+03 0.186E+02   -.200E+01 0.347E+01 0.254E+01   0.704E-04 0.106E-02 -.634E-03
   0.605E+02 -.351E+02 0.257E+02   -.603E+02 0.355E+02 -.141E+02   0.354E+01 0.578E+01 -.139E+02   -.708E-03 -.112E-03 0.369E-03
   0.246E+01 0.470E+02 -.156E+02   -.108E+02 -.413E+02 0.178E+02   0.110E+02 -.970E+01 -.130E+01   -.105E-02 0.122E-03 0.109E-02
   -.267E+02 -.370E+01 -.680E+02   0.254E+02 0.232E+00 0.636E+02   0.614E+00 0.427E+01 0.515E+01   0.847E-07 -.382E-03 -.554E-03
   -.334E+01 0.179E+01 0.131E+02   0.763E+01 -.129E+00 -.989E+01   -.457E+01 -.273E+01 -.382E+01   -.127E-03 0.522E-03 -.380E-03
   0.327E+01 -.410E+02 -.119E+03   -.942E+01 0.349E+02 0.115E+03   0.882E+01 0.108E+02 -.123E+00   -.949E-03 0.455E-03 0.926E-04
   0.541E+00 0.213E+02 0.321E+02   0.413E+01 -.188E+02 -.368E+02   -.302E+01 -.917E+00 0.883E+01   -.399E-02 -.120E-04 -.197E-02
   0.281E+02 0.391E+02 -.474E+02   -.246E+02 -.336E+02 0.412E+02   -.506E+01 -.643E+01 0.924E+01   0.328E-03 -.466E-03 -.372E-03
   -.547E+02 -.427E+02 0.780E+01   0.628E+02 0.442E+02 -.858E+01   -.821E+01 -.277E+01 -.326E+01   0.304E-03 0.870E-03 -.100E-02
   -.108E+03 0.139E+03 -.188E+02   0.101E+03 -.130E+03 0.107E+02   0.621E+01 -.559E+01 0.748E+01   -.962E-04 -.104E-02 -.554E-03
   0.625E+02 -.604E+02 0.139E+03   -.606E+02 0.569E+02 -.130E+03   -.276E+01 0.382E+01 -.106E+02   -.859E-03 -.224E-03 -.302E-03
   0.438E+02 0.816E+02 -.418E+02   -.455E+02 -.783E+02 0.411E+02   0.142E+01 -.363E+01 -.536E+01   -.133E-02 -.156E-02 0.102E-02
   -.106E+03 0.317E+02 -.487E+02   0.942E+02 -.281E+02 0.508E+02   0.140E+02 0.733E+00 -.121E+01   0.727E-03 -.528E-03 -.484E-03
   -.498E+01 0.237E+02 0.820E+02   -.669E+01 -.154E+02 -.723E+02   0.156E+02 -.485E+01 -.114E+02   0.813E-03 -.448E-03 -.547E-03
   0.408E+02 0.735E+01 0.134E+03   -.305E+02 -.628E+01 -.126E+03   -.571E+01 -.119E+00 -.676E+01   0.106E-02 -.126E-03 0.353E-03
   0.146E+02 0.282E+02 -.658E+01   -.156E+02 -.314E+02 0.615E+01   -.316E+01 0.184E+01 0.150E+01   0.693E-03 0.100E-03 0.162E-03
   -.131E+02 -.754E+02 0.160E+03   -.550E+00 0.700E+02 -.154E+03   0.159E+02 0.574E+01 -.218E+01   0.111E-02 0.791E-03 0.929E-03
   0.627E+02 -.755E+01 -.179E+02   -.622E+02 0.808E+01 0.171E+02   0.350E+00 -.105E+01 -.464E+01   -.587E-03 -.222E-04 0.640E-03
   -.107E+03 0.381E+02 -.158E+02   0.989E+02 -.395E+02 0.180E+02   0.839E+01 -.182E+01 0.406E+01   0.257E-02 0.493E-03 -.165E-02
   -.131E+03 0.148E+02 -.257E+02   0.124E+03 -.110E+02 0.278E+02   0.738E+01 0.167E+01 -.193E+01   0.527E-03 0.794E-03 -.147E-03
   -.125E+02 0.492E+02 -.559E+02   0.132E+02 -.539E+02 0.596E+02   -.326E+00 0.128E+01 -.217E+01   -.862E-05 0.315E-03 0.354E-03
   0.125E+02 0.754E+02 -.116E+02   -.221E+02 -.690E+02 0.123E+02   0.947E+01 -.475E+01 0.294E+01   -.313E-03 -.346E-03 0.603E-04
   -.225E+02 0.103E+03 -.685E+01   0.700E+01 -.109E+03 0.168E+02   0.168E+02 0.412E+01 -.117E+02   -.101E-02 -.236E-02 -.114E-03
   0.803E+02 -.157E+03 -.170E+03   -.792E+02 0.177E+03 0.192E+03   -.162E+00 -.188E+02 -.237E+02   -.106E-02 0.540E-03 0.625E-03
   -.156E+03 -.562E+02 -.116E+03   0.162E+03 0.669E+02 0.129E+03   -.651E+01 -.125E+02 -.145E+02   0.473E-02 -.119E-02 -.954E-03
   -.570E+01 -.103E+03 -.885E+02   -.477E+01 0.114E+03 0.105E+03   0.107E+02 -.112E+02 -.166E+02   0.128E-02 0.877E-03 -.360E-03
   0.121E+03 0.182E+03 -.546E+01   -.137E+03 -.205E+03 0.411E+01   0.169E+02 0.228E+02 0.120E+01   0.156E-03 -.435E-03 0.479E-03
   -.105E+03 0.548E+02 0.194E+03   0.118E+03 -.628E+02 -.215E+03   -.124E+02 0.806E+01 0.194E+02   0.112E-02 0.131E-02 0.751E-03
[...]
   -.673E+02 -.230E+03 0.110E+03   0.840E+02 0.256E+03 -.127E+03   -.171E+02 -.247E+02 0.158E+02   -.586E-03 -.591E-05 0.261E-02
   -.111E+03 0.107E+03 0.154E+03   0.803E+02 -.112E+03 -.158E+03   0.305E+02 0.301E+01 0.121E+01   0.783E-03 -.137E-02 -.567E-03
   -.211E+03 0.882E+02 -.798E+02   0.236E+03 -.837E+02 0.751E+02   -.285E+02 -.783E+01 0.796E+01   0.124E-02 -.109E-02 -.111E-02
   -.185E+02 0.185E+03 -.658E+02   0.700E+01 -.211E+03 0.675E+02   0.114E+02 0.252E+02 -.157E+01   0.124E-02 -.390E-03 -.898E-03
   0.133E+02 -.243E-01 0.239E+02   -.167E+02 0.203E+01 -.247E+02   0.403E+01 -.429E+01 0.167E+00   0.169E-02 -.172E-02 0.130E-02
   0.892E+02 0.844E+02 -.194E+01   -.891E+02 -.925E+02 0.130E+02   -.244E+01 0.103E+02 -.122E+02   0.323E-02 -.355E-03 0.373E-04
   -.457E+02 -.241E+03 -.398E+02   0.582E+02 0.263E+03 0.491E+02   -.129E+02 -.207E+02 -.125E+02   -.415E-03 0.101E-02 -.995E-03
   -.131E+03 -.645E+02 -.387E+01   0.153E+03 0.684E+02 0.118E+02   -.241E+02 -.485E+01 -.854E+01   0.130E-02 -.194E-03 -.374E-04
   -.140E+03 -.103E+03 -.134E+03   0.163E+03 0.894E+02 0.148E+03   -.221E+02 0.124E+02 -.127E+02   -.119E-02 0.230E-02 0.305E-02
   0.121E+03 0.571E+02 0.112E+03   -.143E+03 -.670E+02 -.106E+03   0.242E+02 0.101E+02 -.704E+01   0.199E-02 0.394E-03 0.679E-03
   0.172E+03 -.448E+02 0.202E+03   -.203E+03 0.415E+02 -.213E+03   0.324E+02 0.333E+01 0.102E+02   0.759E-03 0.864E-03 0.184E-02
   -.204E+02 0.178E+03 0.921E+02   0.398E+02 -.185E+03 -.107E+03   -.215E+02 0.295E+01 0.149E+02   -.104E-02 -.236E-02 -.402E-03
   -.980E+02 0.129E+02 -.509E+02   0.952E+02 0.671E+01 0.503E+02   0.246E+01 -.207E+02 -.328E+00   0.287E-03 -.804E-03 -.642E-03
   0.925E+02 -.160E+03 0.167E+03   -.118E+03 0.147E+03 -.179E+03   0.260E+02 0.136E+02 0.115E+02   0.214E-02 0.159E-02 0.198E-02
   -.201E+03 0.108E+02 0.202E+03   -.132E-11 0.398E-12 0.426E-12   0.201E+03 -.108E+02 -.202E+03   0.358E-03 0.552E-02 -.152E-02

 POSITION                                       TOTAL-FORCE (eV/Angst)
      4.29405      2.65780      2.79634         0.979604      0.865464      0.298217
     12.18719      6.38317     10.61999         5.634640      1.180820     -0.149643
      1.16727      3.50696      4.10018        -1.046744      0.346262      0.654676
      5.10460      3.07451     12.45366        -0.921157     -2.182175     -1.097087
      1.29079      4.24197      0.05287        -0.056622      2.342932     -0.123769
     13.11556      0.38679      7.13333        -0.566837     -0.648535     -0.027401
      9.95404      0.07281     11.62697        -0.214866     -0.744935     -0.602959
     12.91481      8.53139      3.05952        -0.581747     -1.570866     -1.961641
      0.85946      5.95265      6.81621         0.425661     -2.541334      5.114578
     11.95738     11.56937      1.03269         1.373533      0.589610      0.917294
      1.32175     13.55332      2.63519        -0.653899     -0.831506     -0.443245
      9.21912      3.21749      9.69499        -1.471372      0.240632     -0.037256
     10.18755      8.48149     13.64030         0.581593     -0.171586      0.711386
     10.10441      7.16581      6.55203         0.254901      1.565379      0.563667
      7.47662     12.93131      0.96038        -0.910345      0.346275      1.630027
      7.69589     11.93107      8.30412        -0.813803     -1.058792     -1.246726
      3.34829     12.41884     12.73006        -1.858923     -0.130925      1.311412
      3.09642     13.85062      6.07394        -1.480322      1.334702     -0.213756
      8.89730      0.49065      4.21314        -0.063474     -0.248578      1.064384
     11.96346      2.37887      0.75488         0.514391     -0.065334      1.760455
      1.30077     11.65021      7.99351        -0.777905     -0.778223      0.416168
     11.28063     11.56216      7.32800         1.845573      2.254423     -1.329036
      6.99232      8.36812     10.98955         1.192701     -0.374337     -0.537329
      3.70312      6.44519      2.95286         0.997097     -0.369336     -0.730417
      7.92614      6.96789      2.63025        -0.140827     -0.121835      0.368361
      3.49672      9.34738     11.73398        -0.071585     -0.291146      0.630869
      3.20166      8.14424      6.86092         0.639476      1.196321      0.206930
      5.25581      4.83468      5.80795         2.157252     -2.793819     -3.153268
      6.84665      8.77528      0.80869         2.374293      1.372595     -1.517814
      9.37502      0.52405      7.63159         0.537806     -0.559918     -1.595836
      6.63847      0.86834     10.49127         0.776528      2.025354      0.877481
      0.08497     13.25446     13.57728        -2.626889     -0.696765     -1.440124
      2.17683     10.76200      1.01596        -1.050668      2.435060      1.851717
      0.38921      8.73445      8.92879         3.706454      6.185174     -2.218329
     12.75565      6.87188      5.54154         2.643797     -3.909681      0.974327
      8.81660      2.96231      2.31201        -0.648507      0.801921      0.759382
      9.25952     10.64710      2.15225        -0.275511     -1.068723     -0.597355
      0.37095     11.22624      3.97229         2.681362      4.742665     -4.534984
     13.01888      6.65676      0.35691         1.648853      1.570846      4.120315
      2.55986      6.79088     10.31173        -1.592701     -0.882685      3.011977
      4.36150     13.05144      3.22777        -0.174497     -1.364464     -4.037273
      9.02540      6.17175     11.51611        -0.570527      3.051961     -0.569958
      1.01954      1.23913     12.29906        -0.844986      0.360948     -1.845108
     12.19253      4.70337      3.08829        -0.325324     -0.381704     -6.052764
      6.15514      4.30179      0.65306         1.650509      4.338911      0.928016
      5.52977      5.49856     11.86640         3.925759      3.490087     -1.694216
      5.71724      3.37400      8.83052         4.632748      0.945469      2.019522
      8.50606     10.20687      5.10512        -4.186297     -1.284217      1.078861
      5.35257     12.32762     10.61179         2.289615      0.301933      3.543984
      1.06542      2.25788      7.56078         0.797584     -0.515296     -5.452464
      4.94548     11.41115      5.71014        -0.149294     -3.177152      6.244516
      6.52836     10.87174     12.45630         0.245629      5.390505      0.143266
      9.95174      9.92113      8.58594         0.356058     -3.440903      1.499674
      1.52927      3.90495      9.67906        -0.138069      1.671859      3.656342
      3.71752     10.42937      6.45341         1.298345     -1.634981     -1.802686
      0.67819     10.12496      9.70387         0.941100      1.682729     -1.932063
      8.03993      1.81013     11.28242        -0.107436     -1.805633     -1.947175
      5.28407     11.96165     12.34263         0.190654      0.313596     -0.442873
      9.13300      8.53948      8.36913         0.148364      0.037850     -0.146188
      6.60955     10.92768     10.76728        -0.126620      0.097391     -2.018044
[...]
      1.19595      8.62715      7.53871        -1.123966     -0.848292     -0.317688
     10.06909      1.64495      6.78160        -0.414975      1.308598     -1.240964
      7.52424      5.95893     11.33802         0.019547     -1.288292     -2.315367
      6.77801      4.84987     12.98694        -2.729254     -3.232257      3.283815
      5.37944      2.89286      0.67004        -0.057471     -0.781425      0.128454
      2.54886      4.79884      3.14309         0.628975     -2.287160     -0.628214
      6.79172     10.56999      5.93718        -2.346681      2.110957     -1.160885
     10.16688     12.01595      2.18961        -0.326768      1.284605     -3.296863
      0.65041      6.64813      0.97213        -2.459111     -0.889600     -0.645917
     10.55184     13.80505      8.40057         0.727872     -0.864291      2.108112
      5.17575      1.94444      9.79821         2.409280      0.160233     -0.709471
      3.80139     12.09427     10.31313         0.663957      0.069847     -0.653658
     10.33004      5.78296     10.75103        -2.122460     -3.656284     -0.488832
      7.84867      4.24095      1.72404        -0.414289     -1.107367     -0.911634
      8.13369     13.68574      7.13962         0.074023      0.972995     -0.833534
    total drift:                               -0.005754     -0.000739     -0.008756

  FREE ENERGIE OF THE ION-ELECTRON SYSTEM (eV)
  free  energy   TOTEN  =      -889.32816519 eV

  energy  without entropy=     -889.29976951  energy(sigma->0) =     -889.31396735