 vasp.5.4.4.18Apr17-6-g9f103f2a35 (build Oct 31 2019 15:01:46) complex

 executed on             LinuxIFC date 2024.04.28  19:54:10

 INCAR:
 POTCAR:    PAW_PBE Ca_sv 06Sep2000
 POTCAR:    PAW_PBE Si 05Jan2001
 POTCAR:    PAW_PBE O 08Apr2002
 POTCAR:    PAW_PBE Ca_sv 06Sep2000
   VRHFIN =Ca: 3s3p4s

   TITEL  = PAW_PBE Ca_sv 06Sep2000
   POMASS =   40.078; ZVAL   =   10.000    mass and valenz
   ENMAX  =  266.622; ENMIN  =  199.967 eV

   TITEL  = PAW_PBE Si 05Jan2001
   POMASS =   28.085; ZVAL   =    4.000    mass and valenz
   ENMAX  =  245.345; ENMIN  =  184.009 eV

   TITEL  = PAW_PBE O 08Apr2002
   POMASS =   16.000; ZVAL   =    6.000    mass and valenz
   ENMAX  =  400.000; ENMIN  =  300.000 eV

 Optimization of the real space projectors (new method)

 maximal supplied QI-value         = 16.25
 optimisation between [QCUT,QGAM] = [ 12.51, 25.03] = [ 43.85,175.40] Ry
 Optimized for a Real-space Cutoff    1.47 Angstroem

   l    n(q)    QCUT    max X(q) W(low)/X(q) W(high)/X(q)  e(spline)
   0     11    12.514    11.817    0.25E-04    0.32E-05    0.87E-07
   0     11    12.514     8.461    0.39E-04    0.59E-05    0.18E-06
   1     11    12.514     3.957    0.97E-05    0.57E-05    0.28E-07
   1     11    12.514     4.314    0.42E-04    0.14E-04    0.23E-06
   2     10    12.514    14.565    0.79E-04    0.50E-03    0.16E-05
   2     10    12.514    14.552    0.75E-04    0.48E-03    0.15E-05
 Optimization of the real space projectors (new method)

[...]

   l    n(q)    QCUT    max X(q) W(low)/X(q) W(high)/X(q)  e(spline)
   0      9    12.501   159.560    0.10E-03    0.83E-04    0.71E-07
   0      9    12.501   115.863    0.99E-04    0.81E-04    0.70E-07
   1      8    12.501    88.339    0.20E-03    0.25E-03    0.76E-07
   1      8    12.501    48.592    0.20E-03    0.24E-03    0.75E-07
 Optimization of the real space projectors (new method)

 maximal supplied QI-value         = 24.76
 optimisation between [QCUT,QGAM] = [ 12.38, 25.00] = [ 42.90,175.06] Ry
 Optimized for a Real-space Cutoff    1.16 Angstroem

   l    n(q)    QCUT    max X(q) W(low)/X(q) W(high)/X(q)  e(spline)
   0      9    12.378    20.381    0.16E-03    0.67E-05    0.31E-06
   0      9    12.378    15.268    0.17E-03    0.81E-05    0.33E-06
   1      8    12.378     5.964    0.20E-03    0.16E-03    0.30E-06
   1      8    12.378     5.382    0.18E-03    0.14E-03    0.26E-06
  PAW_PBE Ca_sv 06Sep2000               :
  PAW_PBE Si 05Jan2001                  :
  PAW_PBE O 08Apr2002                   :

 POSCAR: Ca Si  O
  positions in direct lattice
 exchange correlation table for  LEXCH =        8
   RHO(1)=    0.500       N(1)  =     2000
   RHO(2)=  100.500       N(2)  =     4000

 ion  position               nearest neighbor table
   1  0.338  0.591  0.869-  71 2.05 135 2.07 134 2.22  29 3.04
   2  0.127  0.309  0.341-  60 2.06  95 2.18  17 2.74
   3  0.921  0.694  0.857- 104 2.15 111 2.23  56 2.43 131 2.47  48 2.59  41 2.86
   4  0.058  0.468  0.164-  95 2.15  68 2.43
   5  0.254  0.408  0.609- 100 2.06 124 2.40 127 2.53
   6  0.671  0.176  0.537-  93 2.06 117 2.37  51 2.89
   7  0.804  0.938  0.476-  69 2.27  84 2.35 117 2.40  92 2.43
   8  0.997  0.376  0.802-  81 2.09 108 2.55  41 2.83
   9  0.561  0.665  0.326-  62 1.99
  10  0.197  0.771  0.881- 134 1.97 131 2.25  50 3.10
  11  0.150  0.946  0.289- 110 2.11  91 2.24
  12  0.640  0.566  0.104-  62 2.31 116 2.54 123 2.57
  13  0.095  0.045  0.081-  82 2.29  70 2.33 114 2.35 105 2.39  80 2.45  32 3.16
  14  0.253  0.156  0.825- 121 2.02 124 2.51
  15  0.342  0.145  0.553-  73 2.40  86 2.42  61 2.47  47 3.11
  16  0.654  0.724  0.662- 133 2.30  98 2.45 122 2.50  48 2.76
  17  0.307  0.385  0.335-  60 1.97 112 2.36  95 2.54   2 2.74
  18  0.775  0.212  0.846- 109 2.12 125 2.18
  19  0.332  0.833  0.513- 115 2.50 128 2.56  31 2.91
  20  0.013  0.737  0.577- 113 1.99  77 2.25
  21  0.138  0.636  0.350- 126 1.92
  22  0.652  0.425  0.776-  78 2.16 109 2.33 107 2.40  33 2.54  40 2.87
  23  0.905  0.934  0.981- 114 2.01 111 2.31  80 2.44
  24  0.705  0.819  0.113-  72 2.07  62 2.45
  25  0.406  0.905  0.243-  74 2.04  94 2.28  28 3.07
  26  0.797  0.435  0.468-  79 2.32  88 2.36  54 3.13
  27  0.652  0.071  0.303- 101 2.07  66 2.10  84 2.41  53 2.87
  28  0.543  0.905  0.414-  94 1.51 128 1.55  84 1.65  25 3.07
  29  0.383  0.681  0.061- 135 1.64  59 1.91 123 2.42   1 3.04
  30  0.559  0.395  0.328- 112 1.67  88 1.72 116 1.75
  31  0.268  0.645  0.571- 115 1.70  99 1.81 126 1.92 100 2.06  19 2.91  50 2.97  37 3.11
  32  0.033  0.124  0.879- 121 1.70 125 1.71 114 1.87  82 1.98  34 2.91  13 3.16
  33  0.545  0.384  0.635-  57 1.66  78 1.69 107 1.69  22 2.54  37 2.61  40 3.03
  34  0.007  0.266  0.028-  68 1.53 105 1.78  82 2.18  32 2.91
  35  0.850  0.692  0.410-  69 1.51  79 1.67 113 1.76 103 1.76  52 2.91
  36  0.540  0.732  0.881-  71 1.53  98 1.71 123 1.79  65 1.79
  37  0.466  0.548  0.594- 133 1.58  57 1.65 127 1.82 115 2.12  33 2.61  31 3.11
  38  0.451  0.162  0.159-  66 1.61  87 1.63 130 1.88
  39  0.761  0.288  0.132- 129 1.57 102 1.60  64 1.66  96 1.88  43 2.23
  40  0.535  0.261  0.813- 107 1.59 109 1.74  55 1.79  97 2.01  22 2.87  33 3.03
  41  0.875  0.500  0.904- 120 1.68  56 1.73  89 1.75  81 1.79   8 2.83   3 2.86
  42  0.143  0.017  0.531-  61 1.48  63 1.62 110 1.67  86 2.12
  43  0.824  0.433  0.142-  83 1.52  64 1.59  89 1.79 129 1.87  39 2.23
  44  0.076  0.730  0.086- 119 1.76  67 1.79 131 1.91  52 3.10
  45  0.309  0.958  0.030- 118 1.71  85 1.72  70 1.78 130 2.17
  46  0.097  0.222  0.666-  58 1.63  86 1.78 124 1.80 121 2.17  54 3.14
  47  0.513  0.065  0.669- 132 1.59  90 1.66  97 1.70  73 2.10  15 3.11  49 3.11
  48  0.765  0.782  0.814- 104 1.54 122 1.59 111 1.62  98 2.16   3 2.59  16 2.76  49 2.92
  49  0.641  0.950  0.810-  90 1.48  75 1.64 122 1.83  65 1.84  48 2.92  47 3.11
  50  0.147  0.607  0.741- 134 1.55 108 1.64  77 1.73  99 2.05  31 2.97  10 3.10
  51  0.867  0.158  0.474- 117 1.57  92 1.76  76 1.81  93 2.46  54 2.47   6 2.89
  52  0.917  0.778  0.233- 103 1.59  72 1.69  91 1.87  67 1.92  35 2.91  44 3.10
  53  0.814  0.060  0.179- 101 1.45  96 1.67  80 1.83  27 2.87
  54  0.892  0.281  0.598- 106 1.52  93 1.64  76 1.70  58 1.95  51 2.47  26 3.13  46 3.14
  55  0.429  0.203  0.853-  40 1.79
  56  0.983  0.552  0.935-  41 1.73   3 2.43
  57  0.518  0.455  0.545-  37 1.65  33 1.66
  58  0.982  0.210  0.677-  46 1.63  54 1.95
  59  0.432  0.674  0.188-  29 1.91
  60  0.248  0.293  0.423-  17 1.97   2 2.06
[...]
 121  0.116  0.130  0.790-  32 1.70  14 2.02  46 2.17
 122  0.720  0.865  0.750-  48 1.59  49 1.83  16 2.50
 123  0.544  0.680  0.998-  36 1.79  29 2.42  12 2.57
 124  0.196  0.287  0.716-  46 1.80   5 2.40  14 2.51
 125  0.925  0.180  0.872-  32 1.71  18 2.18
 126  0.165  0.659  0.482-  21 1.92  31 1.92
 127  0.371  0.526  0.680-  37 1.82   5 2.53
 128  0.506  0.812  0.462-  28 1.55  19 2.56
 129  0.703  0.380  0.158-  39 1.57  43 1.87
 130  0.375  0.055  0.131-  38 1.88  45 2.17
 131  0.055  0.756  0.954-  44 1.91  10 2.25   3 2.47
 132  0.511  0.043  0.558-  47 1.59
 133  0.548  0.599  0.652-  37 1.58  16 2.30
 134  0.189  0.638  0.838-  50 1.55  10 1.97   1 2.22
 135  0.291  0.659  0.992-  29 1.64   1 2.07

IMPORTANT INFORMATION: All symmetrisations will be switched off!
NOSYMM: (Re-)initialisation of all symmetry stuff for point group C_1.

Automatic generation of k-mesh.
 generate k-points for:    2    2    2
Space group operators:
 irot       det(A)        alpha          n_x          n_y          n_z        tau_x        tau_y        tau_z
    1     1.000000     0.000000     1.000000     0.000000     0.000000     0.000000     0.000000     0.000000

 Subroutine IBZKPT returns following result:

 Found      8 irreducible k-points:

 Following reciprocal coordinates:
            Coordinates               Weight
  0.000000  0.000000  0.000000      1.000000
  0.500000  0.000000  0.000000      1.000000
  0.000000  0.500000  0.000000      1.000000
  0.500000  0.500000  0.000000      1.000000
  0.000000  0.000000  0.500000      1.000000
  0.500000  0.000000  0.500000      1.000000
  0.000000  0.500000  0.500000      1.000000
  0.500000  0.500000  0.500000      1.000000

 Following cartesian coordinates:
            Coordinates               Weight
  0.000000  0.000000  0.000000      1.000000
  0.035682  0.000000  0.000000      1.000000
  0.000000  0.035682  0.000000      1.000000
  0.035682  0.035682  0.000000      1.000000
  0.000000  0.000000  0.035682      1.000000
  0.035682  0.000000  0.035682      1.000000
  0.000000  0.035682  0.035682      1.000000
  0.035682  0.035682  0.035682      1.000000

 SYSTEM =  unknown system
 POSCAR =  Ca Si  O

 Startparameter for this run:
   NWRITE =      2    write-flag & timer
   PREC   = a         normal or accurate (medium, high low for compatibility)
   ISTART =      0    job   : 0-new  1-cont  2-samecut
   ICHARG =      2    charge: 1-file 2-atom 10-const
   ISPIN  =      1    spin polarized calculation?
   LNONCOLLINEAR =      F non collinear calculations
   LSORBIT =      F    spin-orbit coupling
   INIWAV =      1    electr: 0-lowe 1-rand  2-diag
   LASPH  =      F    aspherical Exc in radial PAW
   METAGGA=      F    non-selfconsistent MetaGGA calc.

 Electronic Relaxation 1
   ENCUT  =  600.0 eV  44.10 Ry    6.64 a.u.  27.99 27.99 27.99*2*pi/ulx,y,z
   ENINI  =  600.0     initial cutoff
   ENAUG  =  605.4 eV  augmentation charge cutoff
   NELM   =     60;   NELMIN=  2; NELMDL= -5     # of ELM steps
   EDIFF  = 0.1E-05   stopping-criterion for ELM
   LREAL  =      T    real-space projection
   NLSPLINE    = F    spline interpolate recip. space projectors
   LCOMPAT=      F    compatible to vasp.4.4
   GGA_COMPAT  = T    GGA compatible to vasp.4.4-vasp.4.6
   LMAXPAW     = -100 max onsite density
   LMAXMIX     =    2 max onsite mixed and CHGCAR
   VOSKOWN=      0    Vosko Wilk Nusair interpolation
   ROPT   =   -0.00025  -0.00025  -0.00025
 Ionic relaxation
   EDIFFG = -.1E-01   stopping-criterion for IOM
   NSW    =      1    number of steps for IOM
   NBLOCK =      1;   KBLOCK =      1    inner block; outer block
   IBRION =     -1    ionic relax: 0-MD 1-quasi-New 2-CG
   NFREE  =      0    steps in history (QN), initial steepest desc. (CG)
   ISIF   =      2    stress and relaxation
   IWAVPR =     10    prediction:  0-non 1-charg 2-wave 3-comb
   ISYM   =      0    0-nonsym 1-usesym 2-fastsym
   LCORR  =      T    Harris-Foulkes like correction to forces

   POTIM  = 1.0000    time-step for ionic-motion
   TEIN   =    0.0    initial temperature
   TEBEG  =    0.0;   TEEND  =   0.0 temperature during run
   SMASS  =  -3.00    Nose mass-parameter (am)
   estimated Nose-frequenzy (Omega)   =  0.10E-29 period in steps =****** mass=  -0.449E-26a.u.
   SCALEE = 1.0000    scale energy and forces
   NPACO  =    256;   APACO  = 16.0  distance and # of slots for P.C.
   PSTRESS=    0.0 pullay stress

  Mass of Ions in am
   POMASS =  40.08 28.09 16.00
  Ionic Valenz
   ZVAL   =  10.00  4.00  6.00
  Atomic Wigner-Seitz radii
  virtual crystal weights
   VCA    =   1.00  1.00  1.00
   NELECT =     864.0000    total number of electrons
   NUPDOWN=      -1.0000    fix difference up-down

[...]
     0.000000000  0.000000000 14.012776000     0.000000000  0.000000000  0.071363447

  length of vectors
    14.012776000 14.012776000 14.012776000     0.071363447  0.071363447  0.071363447

 FORCES acting on ions
    electron-ion (+dipol)            ewald-force                    non-local-force                 convergence-correction
   -.124E+03 0.407E+03 -.126E+03   0.123E+03 -.401E+03 0.124E+03   0.903E+00 -.813E+01 -.845E-01   -.145E-02 -.141E-02 0.231E-03
   0.159E+03 0.207E+03 0.120E+03   -.155E+03 -.203E+03 -.117E+03   -.600E+01 -.490E+01 -.302E+01   -.225E-03 -.283E-02 0.461E-03
   -.828E+02 -.246E+02 0.974E+01   0.873E+02 0.217E+02 -.103E+02   -.487E+00 0.980E+00 0.863E+00   0.229E-02 0.266E-02 -.706E-03
   -.215E+03 0.321E+02 0.908E+01   0.215E+03 -.315E+02 -.810E+01   -.521E+00 0.471E+00 -.227E+01   0.124E-02 -.111E-02 -.800E-03
   0.380E+02 0.150E+03 -.942E+01   -.373E+02 -.144E+03 0.968E+01   -.814E+00 -.551E+01 0.825E+00   -.234E-03 -.215E-02 0.951E-03
   0.228E+03 0.978E+01 0.943E+02   -.226E+03 -.933E+01 -.910E+02   -.407E+01 -.754E+00 -.282E+01   0.169E-02 -.512E-03 0.123E-03
   -.135E+03 0.740E+02 -.139E+03   0.134E+03 -.760E+02 0.136E+03   0.159E+01 0.119E+01 0.269E+01   0.423E-02 0.309E-02 0.105E-02
   -.257E+03 -.138E+02 0.182E+02   0.253E+03 0.172E+02 -.185E+02   0.508E+01 -.262E+01 -.608E+00   0.364E-02 -.212E-02 -.137E-02
   0.139E+03 0.794E+02 -.165E+03   -.136E+03 -.796E+02 0.157E+03   -.344E+01 -.432E+00 0.804E+01   0.410E-02 -.267E-02 0.958E-03
   -.140E+03 -.365E+03 0.280E+02   0.136E+03 0.361E+03 -.258E+02   0.422E+01 0.672E+01 -.122E+01   -.806E-03 0.109E-02 -.166E-02
   -.107E+03 -.119E+03 0.102E+02   0.103E+03 0.115E+03 -.629E+01   0.355E+01 0.274E+01 -.387E+01   -.900E-02 0.821E-02 0.597E-02
   0.129E+03 0.157E+03 0.146E+03   -.133E+03 -.152E+03 -.139E+03   0.273E+01 -.417E+01 -.546E+01   0.115E-04 -.199E-02 0.119E-04
   -.225E+03 -.626E+02 -.190E+03   0.223E+03 0.651E+02 0.184E+03   0.152E+01 -.188E+01 0.465E+01   0.129E-03 0.969E-03 -.256E-04
   -.274E+03 -.520E+02 -.194E+03   0.275E+03 0.492E+02 0.195E+03   0.250E+01 0.219E+01 0.853E+00   0.113E-02 -.128E-02 -.164E-02
   -.959E+02 -.139E+03 0.175E+03   0.912E+02 0.130E+03 -.172E+03   0.364E+01 0.663E+01 -.318E+01   -.314E-02 -.425E-02 0.311E-02
   0.491E+02 -.533E+02 0.270E+03   -.499E+02 0.486E+02 -.264E+03   0.547E+00 0.343E+01 -.513E+01   0.844E-03 0.144E-02 0.863E-04
   -.167E+03 -.383E+02 0.370E+03   0.170E+03 0.386E+02 -.363E+03   0.371E+00 0.241E+01 -.732E+01   -.265E-03 -.273E-02 -.154E-02
   0.124E+03 0.239E+03 0.115E+01   -.122E+03 -.236E+03 0.616E+01   -.657E+00 -.302E+01 -.543E+01   -.819E-03 -.238E-02 -.124E-02
   0.372E+02 -.769E+02 -.115E+03   -.348E+02 0.774E+02 0.108E+03   -.180E+01 0.400E+00 0.492E+01   -.451E-02 0.570E-02 0.142E-01
   0.704E+02 -.128E+03 -.583E+02   -.667E+02 0.126E+03 0.573E+02   -.174E+01 0.361E+01 0.272E+01   0.802E-03 0.579E-02 0.207E-03
   -.644E+02 0.612E+02 0.198E+03   0.648E+02 -.612E+02 -.195E+03   -.114E+01 -.216E+00 -.599E+01   -.512E-02 -.214E-02 0.101E-02
   0.821E+02 -.180E+03 -.217E+03   -.752E+02 0.180E+03 0.217E+03   -.327E+01 0.274E+01 0.229E+01   -.255E-02 -.262E-02 -.161E-02
   0.101E+03 -.216E+02 0.489E+02   -.990E+02 0.228E+02 -.496E+02   -.325E+01 -.196E+01 0.133E+01   0.102E-02 0.693E-03 -.757E-03
   0.257E+03 -.718E+02 0.116E+03   -.253E+03 0.679E+02 -.109E+03   -.494E+01 0.298E+01 -.624E+01   0.225E-02 0.137E-02 -.580E-03
   -.386E+02 -.630E+02 0.197E+03   0.339E+02 0.619E+02 -.194E+03   0.420E+01 0.128E+01 -.494E+01   0.795E-02 0.127E-01 -.114E-01
   -.117E+03 -.416E+02 0.665E+02   0.112E+03 0.482E+02 -.696E+02   0.397E+01 -.469E+01 0.239E+01   0.124E-03 -.263E-02 0.313E-03
   0.158E+03 -.179E+03 -.477E+01   -.159E+03 0.176E+03 0.190E+00   0.480E+00 0.321E+01 0.555E+01   0.220E-02 0.209E-02 0.132E-02
   -.274E+02 0.147E+02 -.322E+02   0.212E+02 -.150E+02 0.298E+02   0.101E+02 0.258E+00 0.392E+01   0.243E-02 0.164E-02 0.166E-02
   -.336E+02 0.445E+02 -.730E+02   0.295E+02 -.467E+02 0.741E+02   0.695E+01 0.434E+01 0.306E+01   -.585E-03 -.101E-02 -.200E-02
   0.564E+02 0.685E+02 0.754E+02   -.567E+02 -.628E+02 -.719E+02   0.197E+01 -.231E+01 -.350E+01   -.305E-04 -.947E-03 -.223E-03
   0.256E+02 -.281E+01 0.918E+01   -.225E+02 0.433E+01 -.118E+02   -.428E+01 -.485E+01 0.296E+00   -.972E-03 -.782E-04 0.135E-02
   -.389E+01 0.392E+02 0.253E+02   0.432E+01 -.391E+02 -.256E+02   0.866E+00 -.225E+01 0.286E+01   0.610E-03 -.325E-03 -.798E-03
   0.947E+02 0.650E+02 0.416E+02   -.874E+02 -.642E+02 -.467E+02   -.573E+01 -.199E+01 0.175E+01   -.181E-03 -.109E-02 0.921E-05
   -.193E+02 0.372E+02 -.584E+01   0.297E+02 -.288E+02 0.149E+02   -.837E+01 -.144E+02 -.492E+01   0.942E-03 -.384E-03 0.194E-03
   -.176E+02 0.684E+02 -.462E+02   0.122E+02 -.624E+02 0.478E+02   0.881E+01 -.106E+02 -.356E+01   0.750E-03 0.835E-03 0.353E-03
   0.318E+02 -.573E+02 -.356E+02   -.360E+02 0.488E+02 0.327E+02   0.874E+01 0.103E+02 0.535E+01   -.256E-03 0.480E-03 -.498E-03
   0.319E+02 -.312E+02 0.860E+02   -.249E+02 0.315E+02 -.726E+02   -.127E+02 0.250E+01 -.996E+01   0.694E-04 -.903E-03 0.538E-03
   0.854E+02 -.660E+02 0.159E+02   -.793E+02 0.710E+02 -.206E+02   -.705E+01 -.674E+01 0.109E+01   -.425E-03 0.122E-02 -.706E-03
   0.833E+02 0.953E+02 -.759E+02   -.858E+02 -.901E+02 0.593E+02   0.256E+01 -.127E+02 0.126E+02   -.336E-03 -.609E-03 0.145E-03
   0.648E+02 0.593E+02 -.158E+03   -.702E+02 -.597E+02 0.161E+03   0.235E+01 -.637E+01 0.638E+00   -.809E-03 -.672E-03 -.161E-03
   0.439E+02 -.493E+02 -.351E+02   -.403E+02 0.485E+02 0.311E+02   -.290E+01 -.218E+01 0.551E+01   0.111E-02 0.354E-03 0.102E-02
   0.886E+02 -.631E+02 -.644E+02   -.815E+02 0.475E+02 0.559E+02   -.132E+02 0.149E+02 0.810E+01   -.162E-02 -.180E-02 -.366E-03
   0.808E+02 -.518E+02 -.368E+02   -.672E+02 0.538E+02 0.441E+02   -.134E+02 0.110E+01 -.110E+02   0.100E-03 -.466E-03 0.416E-03
   -.705E+02 -.364E+02 -.208E+02   0.698E+02 0.281E+02 0.232E+02   -.656E+00 0.464E+01 -.288E+01   -.445E-03 0.788E-04 -.526E-03
   -.629E+02 -.698E+02 0.605E+01   0.614E+02 0.639E+02 -.131E+02   0.179E+01 0.532E+01 0.660E+01   -.326E-03 0.141E-02 -.146E-02
   -.103E+02 -.198E+02 0.699E+02   0.130E+02 0.178E+02 -.693E+02   0.338E+01 -.167E+01 0.141E+01   0.222E-03 -.168E-02 -.699E-03
   0.336E+02 0.400E+02 -.610E+02   -.356E+02 -.386E+02 0.526E+02   -.332E+01 -.110E+01 0.103E+02   -.163E-02 0.297E-03 0.317E-03
   0.409E+02 -.320E+02 -.307E+02   -.318E+02 0.317E+02 0.240E+02   -.119E+02 0.778E+00 0.907E+01   0.341E-03 0.908E-03 -.532E-03
   0.563E+02 -.716E+02 -.616E+02   -.505E+02 0.740E+02 0.620E+02   -.122E-01 -.915E+01 0.562E+01   -.155E-03 0.649E-03 -.432E-03
   -.151E+02 0.494E+02 0.893E+02   0.839E+01 -.510E+02 -.777E+02   0.184E+01 0.303E+01 -.132E+02   0.183E-05 0.373E-03 0.106E-03
   -.132E+03 -.397E+02 0.117E+03   0.127E+03 0.267E+02 -.112E+03   0.785E+01 0.942E+01 -.847E+00   0.118E-02 -.972E-03 -.634E-04
   -.514E+02 -.436E+02 -.482E+02   0.460E+02 0.403E+02 0.457E+02   0.806E+01 0.508E+01 -.202E+01   0.336E-03 0.683E-03 0.546E-03
   -.827E+02 -.548E+02 0.339E+02   0.734E+02 0.483E+02 -.316E+02   0.192E+02 0.111E+02 -.684E+01   0.545E-03 0.221E-03 0.693E-03
   -.388E+02 0.256E+02 0.362E+02   0.374E+02 -.115E+02 -.320E+02   0.281E+01 -.160E+02 -.131E+01   0.280E-03 -.171E-02 -.997E-03
   0.544E+02 -.365E+01 -.216E+03   -.708E+02 -.823E+01 0.225E+03   0.204E+02 0.145E+02 -.998E+01   -.872E-03 -.652E-03 0.846E-04
   -.170E+03 0.682E+01 -.889E+02   0.194E+03 0.606E+00 0.995E+02   -.270E+02 -.821E+01 -.132E+02   0.204E-02 0.433E-03 0.582E-03
   0.111E+02 0.208E+02 0.179E+03   -.239E+01 -.281E+02 -.211E+03   -.105E+02 0.724E+01 0.326E+02   0.168E-03 -.211E-02 0.779E-03
   0.733E+01 0.119E+03 0.332E+02   -.278E+02 -.135E+03 -.200E+02   0.201E+02 0.174E+02 -.152E+02   0.625E-03 -.218E-02 -.180E-02
   0.104E+03 0.939E+02 -.663E+01   -.990E+02 -.948E+02 0.222E+02   -.717E+01 0.970E+00 -.206E+02   0.180E-02 -.358E-02 -.280E-02
   -.422E+02 0.158E+03 -.211E+02   0.444E+02 -.164E+03 0.300E+02   -.287E+01 0.559E+01 -.779E+01   -.679E-03 -.195E-02 0.579E-03
[...]
   -.312E+02 -.140E+03 0.180E+03   0.346E+02 0.154E+03 -.201E+03   -.605E+01 -.142E+02 0.190E+02   0.422E-03 0.127E-02 -.719E-03
   0.412E+02 0.622E+02 -.909E+02   -.371E+02 -.685E+02 0.106E+03   -.474E+01 0.696E+01 -.152E+02   -.596E-04 -.686E-04 -.126E-02
   -.107E+03 -.876E+02 -.824E+02   0.123E+03 0.974E+02 0.922E+02   -.188E+02 -.104E+02 -.112E+02   0.224E-03 -.175E-02 0.117E-03
   0.183E+02 0.832E+02 -.123E+02   -.366E+02 -.743E+02 0.111E+02   0.220E+02 -.973E+01 0.199E+01   0.736E-03 -.147E-02 -.982E-03
   0.270E+01 -.428E+01 -.174E+02   -.129E+02 0.483E+01 0.158E+02   0.135E+02 0.804E+00 0.679E+01   -.259E-02 0.363E-03 0.243E-02
   -.892E+00 0.547E+02 -.145E+03   -.107E+02 -.550E+02 0.158E+03   0.136E+02 -.427E+00 -.149E+02   -.336E-03 -.910E-03 0.619E-03
   -.298E+02 0.106E+03 -.852E+02   0.186E+02 -.136E+03 0.100E+03   0.111E+02 0.283E+02 -.139E+02   0.367E-02 0.789E-03 0.387E-02
   0.248E+03 -.764E+01 -.460E+02   -.282E+03 0.252E+02 0.543E+02   0.351E+02 -.138E+02 -.701E+01   -.801E-03 -.102E-02 0.401E-03
   0.472E+01 -.148E+03 0.377E+02   -.110E+02 0.139E+03 -.360E+02   0.722E+01 0.106E+02 -.141E+01   -.373E-03 0.328E-02 -.188E-02
   -.242E+02 -.696E+02 -.384E+02   0.183E+02 0.703E+02 0.249E+02   0.692E+01 -.385E+00 0.180E+02   0.146E-03 0.549E-03 -.615E-03
   0.288E+01 0.415E+02 0.910E+02   -.742E+01 -.506E+02 -.121E+03   0.645E+01 0.976E+01 0.297E+02   -.115E-02 0.107E-02 0.191E-02
   -.387E+02 -.522E+02 -.181E+02   0.561E+02 0.633E+02 0.361E+02   -.159E+02 -.103E+02 -.184E+02   0.378E-04 -.495E-03 0.381E-03
   -.145E+02 0.125E+03 -.857E+02   0.183E+02 -.124E+03 0.112E+03   -.161E+01 -.237E+01 -.250E+02   -.167E-03 -.362E-04 0.124E-03
   -.257E+01 0.974E+02 -.189E+03   -.242E+02 -.101E+03 0.182E+03   0.291E+02 0.459E+01 0.956E+01   -.130E-02 -.138E-02 -.139E-02
   0.327E+02 -.826E+02 0.183E+02   0.341E-12 0.327E-12 -.171E-12   -.327E+02 0.826E+02 -.183E+02   0.122E-01 0.106E-01 0.320E-02

 POSITION                                       TOTAL-FORCE (eV/Angst)
      4.73404      8.27562     12.17759         0.104842     -2.203230     -2.478539
      1.78356      4.33224      4.77291        -1.939583     -0.814654      0.508287
     12.90735      9.71964     12.01065         3.998429     -1.893417      0.308685
      0.81441      6.55937      2.29381        -1.229225      1.162545     -1.297419
      3.55521      5.71316      8.53531        -0.086972      0.405260      1.095345
      9.40565      2.46198      7.52992        -2.144905     -0.311986      0.512396
     11.25966     13.14843      6.67139         0.096289     -0.850376     -0.519280
     13.96475      5.27241     11.23312         1.047992      0.829253     -0.876299
      7.86077      9.31794      4.56142        -0.513400     -0.614620     -0.321316
      2.76525     10.80725     12.33854        -0.153162      2.826739      0.885436
      2.10853     13.25509      4.04450         0.115724     -1.817422      0.085252
      8.97089      7.93140      1.45345        -1.216535      0.811389      1.763823
      1.32422      0.63384      1.12969        -0.711559      0.605751     -0.857617
      3.54260      2.19207     11.55928         3.594685     -0.633670      1.144310
      4.78819      2.03722      7.74812        -1.012058     -2.032325      0.237488
      9.15860     10.14689      9.27895        -0.245718     -1.263848      0.275864
      4.30714      5.39673      4.68824         2.652467      2.666603     -0.195140
     10.85548      2.97659     11.85767         0.865231     -0.118496      1.878493
      4.65708     11.67335      7.18956         0.569179      0.894474     -1.953428
      0.17659     10.32225      8.08108         1.966380      1.145733      1.696854
      1.94075      8.91553      4.89847        -0.750767     -0.275231     -2.621285
      9.13669      5.95553     10.87057         3.687442      2.381159      2.629529
     12.67643     13.08173     13.74498        -1.659092     -0.810891      0.697928
      9.88221     11.48205      1.58762        -0.584459     -0.854205      1.046721
      5.68919     12.68189      3.40587        -0.512293      0.184239     -1.512172
     11.16619      6.09671      6.55331        -1.247182      1.897797     -0.685536
      9.13809      0.99573      4.25120        -1.056058      0.380275      0.969794
      7.60530     12.68507      5.80713         3.908310     -0.043361      1.504010
      5.36641      9.53575      0.85602         2.755750      2.160660      4.185416
      7.83418      5.53302      4.59207         1.582549      3.389112      0.022786
      3.75260      9.03567      8.00646        -1.198083     -3.328895     -2.361321
      0.46271      1.73644     12.31256         1.298320     -2.219551      2.488113
      7.64241      5.38035      8.90229         1.566376     -1.142713     -3.359279
      0.10509      3.73313      0.38674         2.002724     -6.022095      4.126695
     11.90414      9.69671      5.73824         3.330062     -4.699463     -1.946421
      7.56563     10.26310     12.35101         4.542485      1.766226      2.506362
      6.52822      7.67465      8.32719        -5.725494      2.803531      3.397329
      6.31443      2.27115      2.22488        -0.942809     -1.765095     -3.611858
     10.66240      4.03057      1.85240         0.043857     -7.471019     -3.964336
      7.50317      3.65223     11.38821        -3.060238     -6.793345      2.955547
     12.25621      7.00956     12.67328         0.636038     -2.978850      1.534622
      2.01041      0.23915      7.44129        -6.084624     -0.723498     -0.382489
     11.54756      6.07207      1.99565         0.197121      3.073864     -3.703772
      1.06606     10.23463      1.20764        -1.350579     -3.631046     -0.446062
      4.33568     13.42478      0.42673         0.266892     -0.587737     -0.493083
      1.36201      3.10671      9.33522         6.087187     -3.677432      2.014519
      7.18604      0.90837      9.37314        -5.359048      0.269256      1.938454
     10.72013     10.96198     11.40739        -2.811184      0.503877      2.373013
      8.97834     13.30741     11.34389         5.752905     -6.746911      5.957544
      2.05303      8.50118     10.38673        -4.916081      1.506146     -1.627249
     12.15010      2.22097      6.64691         2.680207     -3.613152      3.837733
     12.85366     10.89621      3.26686         2.636254      1.778784     -4.584319
     11.40772      0.84003      2.50706         9.851389      4.678714     -4.488434
     12.50125      3.94214      8.38624         1.476508     -1.959300      2.838153
      6.00449      2.84810     11.95230         3.910383      2.612778     -1.105288
     13.76975      7.73015     13.10331        -3.208081     -0.784107     -2.559631
      7.25840      6.37025      7.63226        -1.732652     -0.006140     -0.025437
     13.76386      2.94886      9.48958        -0.444984      1.763818     -1.907282
      6.05460      9.44439      2.63215        -2.413072      0.121850     -5.060466
      3.47248      4.10762      5.92418        -0.608364     -1.074817      1.109108
[...]
      1.62072      1.81911     11.06556        -4.545761      0.362979     -0.639036
     10.08404     12.11509     10.50886        -2.634696      0.408478     -2.546378
      7.61800      9.53108     13.97942        -0.718539      0.605572     -0.000704
      2.74901      4.01505     10.02902        -3.396607     -0.607693     -1.437433
     12.95558      2.52364     12.21798         3.773346     -0.822276      0.748020
      2.31690      9.23747      6.74889         3.322366      1.354584      5.263953
      5.19587      7.37080      9.52301         1.962915     -0.775233     -1.435998
      7.09075     11.38158      6.46757        -0.005087     -1.611170      0.904183
      9.84489      5.32535      2.20830         1.086940      3.769169      1.269130
      5.25625      0.77148      1.84048         0.897530      1.473762      0.337131
      0.77008     10.59537     13.36451         1.053900      0.272845      4.461664
      7.16218      0.60631      7.81255         1.909669      0.687706     -0.791446
      7.67883      8.39458      9.14328         1.451532      0.846067     -0.322384
      2.65422      8.93318     11.74541         2.199671     -1.457943      1.707394
      4.08054      9.23163     13.89838         2.277410      0.827666      2.438739
    total drift:                                0.014493      0.006522     -0.023067

  FREE ENERGIE OF THE ION-ELECTRON SYSTEM (eV)
  free  energy   TOTEN  =      -878.87184503 eV

  energy  without entropy=     -878.81712543  energy(sigma->0) =     -878.84448523