 vasp.5.4.4.18Apr17-6-g9f103f2a35 (build Oct 31 2019 15:01:46) complex

 executed on             LinuxIFC date 2024.04.30  00:32:46

 INCAR:
 POTCAR:    PAW_PBE Ca_sv 06Sep2000
 POTCAR:    PAW_PBE Si 05Jan2001
 POTCAR:    PAW_PBE O 08Apr2002
 POTCAR:    PAW_PBE Ca_sv 06Sep2000
   VRHFIN =Ca: 3s3p4s

   TITEL  = PAW_PBE Ca_sv 06Sep2000
   POMASS =   40.078; ZVAL   =   10.000    mass and valenz
   ENMAX  =  266.622; ENMIN  =  199.967 eV

   TITEL  = PAW_PBE Si 05Jan2001
   POMASS =   28.085; ZVAL   =    4.000    mass and valenz
   ENMAX  =  245.345; ENMIN  =  184.009 eV

   TITEL  = PAW_PBE O 08Apr2002
   POMASS =   16.000; ZVAL   =    6.000    mass and valenz
   ENMAX  =  400.000; ENMIN  =  300.000 eV

 Optimization of the real space projectors (new method)

 maximal supplied QI-value         = 16.25
 optimisation between [QCUT,QGAM] = [ 12.51, 25.03] = [ 43.85,175.40] Ry
 Optimized for a Real-space Cutoff    1.47 Angstroem

   l    n(q)    QCUT    max X(q) W(low)/X(q) W(high)/X(q)  e(spline)
   0     11    12.514    11.817    0.25E-04    0.32E-05    0.87E-07
   0     11    12.514     8.461    0.39E-04    0.59E-05    0.18E-06
   1     11    12.514     3.957    0.97E-05    0.57E-05    0.28E-07
   1     11    12.514     4.314    0.42E-04    0.14E-04    0.23E-06
   2     10    12.514    14.565    0.79E-04    0.50E-03    0.16E-05
   2     10    12.514    14.552    0.75E-04    0.48E-03    0.15E-05
 Optimization of the real space projectors (new method)

[...]

   l    n(q)    QCUT    max X(q) W(low)/X(q) W(high)/X(q)  e(spline)
   0      9    12.501   159.560    0.10E-03    0.83E-04    0.71E-07
   0      9    12.501   115.863    0.99E-04    0.81E-04    0.70E-07
   1      8    12.501    88.339    0.20E-03    0.25E-03    0.76E-07
   1      8    12.501    48.592    0.20E-03    0.24E-03    0.75E-07
 Optimization of the real space projectors (new method)

 maximal supplied QI-value         = 24.76
 optimisation between [QCUT,QGAM] = [ 12.38, 25.00] = [ 42.90,175.06] Ry
 Optimized for a Real-space Cutoff    1.16 Angstroem

   l    n(q)    QCUT    max X(q) W(low)/X(q) W(high)/X(q)  e(spline)
   0      9    12.378    20.381    0.16E-03    0.67E-05    0.31E-06
   0      9    12.378    15.268    0.17E-03    0.81E-05    0.33E-06
   1      8    12.378     5.964    0.20E-03    0.16E-03    0.30E-06
   1      8    12.378     5.382    0.18E-03    0.14E-03    0.26E-06
  PAW_PBE Ca_sv 06Sep2000               :
  PAW_PBE Si 05Jan2001                  :
  PAW_PBE O 08Apr2002                   :

 POSCAR: Ca Si  O
  positions in direct lattice
 exchange correlation table for  LEXCH =        8
   RHO(1)=    0.500       N(1)  =     2000
   RHO(2)=  100.500       N(2)  =     4000

 ion  position               nearest neighbor table
   1  0.264  0.186  0.062- 114 1.91  61 1.91   2 2.85  25 2.93
   2  0.362  0.338  0.189-  76 2.02 107 2.13  60 2.50  65 2.51  28 2.80   1 2.85
   3  0.743  0.354  0.704- 134 1.87  91 2.50   9 2.94  17 3.16
   4  0.535  0.645  0.602- 119 2.07 109 2.21  69 2.49
   5  0.745  0.793  0.582-  77 2.13 119 2.35 128 2.44  94 2.53  43 3.13
   6  0.614  0.600  0.856-  90 1.94  82 2.15 134 2.37  48 2.71  37 3.01
   7  0.383  0.488  0.411-  99 2.08 109 2.10  60 2.42  32 3.05
   8  0.046  0.360  0.160-  87 2.05 114 2.09 135 2.29  32 3.12
   9  0.533  0.367  0.618- 125 2.15  10 2.46 134 2.55   3 2.94
  10  0.368  0.301  0.685- 125 1.96 131 2.03  95 2.26 108 2.28   9 2.46  53 2.99
  11  0.604  0.957  0.384-  58 2.09 105 2.12  45 3.11
  12  0.075  0.341  0.642- 122 2.37  79 2.39  54 2.55
  13  0.662  0.316  0.123-  93 2.04  89 2.29 104 2.44  31 3.08
  14  0.086  0.680  0.321- 118 2.25  74 2.31 132 2.44  43 2.99  41 3.03  40 3.04
  15  0.760  0.721  0.233-  59 2.03  83 2.14  64 2.21  58 2.53  77 2.57  31 2.92  43 3.05  40 3.13
                            37 3.15
  16  0.883  0.650  0.787- 100 2.05  86 2.13 128 2.57
  17  0.767  0.251  0.484-  66 1.93  91 2.24  85 2.40  36 3.14   3 3.16
  18  0.088  0.618  0.009- 102 2.01 100 2.37  52 2.71  49 3.02  51 3.12
  19  0.103  0.980  0.487-  92 2.15 133 2.31  34 3.10  23 3.17
  20  0.739  0.904  0.934-  57 2.22 101 2.35
  21  0.569  0.084  0.758- 108 2.19  53 3.06  44 3.06
  22  0.305  0.165  0.446-  60 2.40  98 2.41
  23  0.058  0.763  0.592- 132 2.10  74 2.18  29 3.02  19 3.17
  24  0.929  0.246  0.946-  68 1.99  49 2.77
  25  0.246  0.369  0.930-  95 1.90 114 2.35   1 2.93  53 3.13
  26  0.308  0.751  0.881-  72 2.17 103 2.23  52 3.14
  27  0.636  0.488  0.404- 109 1.78  96 2.47  91 2.57  85 2.57  31 2.77  36 3.15
  28  0.518  0.268  0.322-  60 1.70  85 1.77  76 1.79  56 2.20  35 2.64   2 2.80
  29  0.256  0.643  0.568-  69 1.52  88 1.72  74 1.86  55 1.86  99 2.56  23 3.02
  30  0.575  0.073  0.030- 101 1.53  89 1.66 113 2.25  80 2.30  35 2.75
  31  0.769  0.496  0.236-  93 1.57  83 1.63  64 1.77 110 2.49  27 2.77  15 2.92  13 3.08
  32  0.163  0.418  0.362- 107 1.49  99 1.65 135 1.71  98 2.30  54 2.95   7 3.05   8 3.12
  33  0.919  0.171  0.258-  81 1.53 126 1.59 120 1.74  78 1.86  50 2.68  34 3.07
  34  0.880  0.982  0.397- 133 1.60 120 1.64 130 1.66  58 2.30  33 3.07  19 3.10
  35  0.465  0.106  0.209-  56 1.58  76 1.70  61 1.70 113 1.86  28 2.64  30 2.75  38 2.79
  36  0.873  0.468  0.458- 110 1.63 122 1.63  91 1.63  73 1.83  64 2.44  43 2.59  17 3.14  27 3.15

  37  0.594  0.618  0.088-  97 1.42  90 1.60  83 1.97 104 2.15  71 2.30   6 3.01  48 3.02  15 3.15

  38  0.359  0.922  0.170- 115 1.42 124 1.52 123 1.68  39 2.49  35 2.79  45 3.08
  39  0.191  0.929  0.261- 118 1.68 112 1.73 123 1.77 111 2.04  38 2.49
  40  0.970  0.834  0.187-  59 1.68 116 1.79 111 1.84  62 2.02 118 2.54  51 2.96  50 3.03  14 3.04
                            15 3.13
  41  0.291  0.631  0.217-  65 1.45 106 1.51  84 1.60  14 3.03
  42  0.260  0.915  0.678-  63 1.53  92 1.66  55 2.02  47 2.61
  43  0.882  0.665  0.428-  77 1.66 132 1.68  73 1.82  64 1.91  36 2.59  14 2.99  15 3.05   5 3.13

[...]

  54  0.033  0.263  0.467-  78 1.48  98 1.51 122 2.04  12 2.55  32 2.95
  55  0.286  0.766  0.636-  29 1.86  42 2.02
  56  0.479  0.103  0.330-  35 1.58  28 2.20
  57  0.903  0.917  0.883-  46 1.79  51 2.07  20 2.22
  58  0.742  0.885  0.341-  11 2.09  34 2.30  15 2.53
  59  0.915  0.719  0.212-  40 1.68  15 2.03
  60  0.404  0.306  0.375-  28 1.70  22 2.40   7 2.42   2 2.50
  61  0.340  0.139  0.179-  35 1.70   1 1.91
  62  0.920  0.789  0.046-  51 1.82  40 2.02
  63  0.329  0.919  0.774-  42 1.53
  64  0.801  0.588  0.332-  31 1.77  43 1.91  15 2.21  36 2.44
  65  0.300  0.519  0.220-  41 1.45   2 2.51
  66  0.804  0.151  0.589-  44 1.69  17 1.93
  67  0.459  0.327  0.999-  48 1.79  53 1.86
  68  0.891  0.376  0.873-  49 1.63  24 1.99
  69  0.361  0.667  0.520-  29 1.52   4 2.49
  70  0.758  0.158  0.770-  44 1.66
  71  0.442  0.541  0.035-  48 1.80  37 2.30
  72  0.162  0.822  0.923-  51 1.93  26 2.17
  73  0.922  0.579  0.532-  43 1.82  36 1.83
  74  0.169  0.712  0.476-  29 1.86  23 2.18  14 2.31
  75  0.911  0.050  0.727-  44 1.60  46 1.73
  76  0.481  0.236  0.193-  35 1.70  28 1.79   2 2.02
  77  0.772  0.732  0.431-  43 1.66   5 2.13  15 2.57
  78  0.000  0.215  0.368-  54 1.48  33 1.86
  79  0.125  0.446  0.786-  52 1.77  12 2.39
  80  0.429  0.133  0.949-  53 1.46  30 2.30
  81  0.825  0.175  0.187-  33 1.53
  82  0.476  0.507  0.851-  48 1.58   6 2.15
  83  0.726  0.581  0.153-  31 1.63  37 1.97  15 2.14
  84  0.236  0.714  0.142-  41 1.60
  85  0.595  0.296  0.432-  28 1.77  17 2.40  27 2.57
  86  0.834  0.546  0.904-  49 1.78  16 2.13
  87  0.910  0.422  0.105-  49 1.91   8 2.05
  88  0.204  0.604  0.684-  29 1.72  52 1.84
  89  0.646  0.179  0.012-  30 1.66  13 2.29
  90  0.625  0.678  0.984-  37 1.60   6 1.94
  91  0.778  0.419  0.525-  36 1.63  17 2.24   3 2.50  27 2.57
  92  0.193  0.009  0.623-  42 1.66  47 1.97  19 2.15
  93  0.727  0.383  0.250-  31 1.57  13 2.04
  94  0.718  0.975  0.647-  44 1.62   5 2.53
  95  0.341  0.284  0.857-  53 1.54  25 1.90  10 2.26
  96  0.530  0.623  0.320-  97 1.96  45 2.03  27 2.47
  97  0.542  0.662  0.174-  37 1.42  45 1.84  96 1.96
  98  0.148  0.265  0.451-  54 1.51  32 2.30  22 2.41
  99  0.226  0.491  0.445-  32 1.65   7 2.08  29 2.56
 100  0.031  0.623  0.835-  52 1.68  16 2.05  18 2.37
 101  0.577  0.983  0.954-  30 1.53  20 2.35
 102  0.034  0.474  0.986-  49 1.47  18 2.01
 103  0.256  0.588  0.902-  52 1.77  26 2.23
 104  0.602  0.465  0.024-  48 1.53  37 2.15  13 2.44
 105  0.599  0.797  0.351-  45 1.61  11 2.12
 106  0.328  0.709  0.296-  41 1.51
 107  0.233  0.362  0.288-  32 1.49   2 2.13
 108  0.500  0.237  0.783-  53 1.62  21 2.19  10 2.28
 109  0.526  0.539  0.468-  27 1.78   7 2.10   4 2.21
 110  0.903  0.415  0.348-  36 1.63  31 2.49
 111  0.087  0.902  0.145-  40 1.84  39 2.04
 112  0.161  0.053  0.302-  39 1.73
 113  0.562  0.003  0.189-  35 1.86  30 2.25
[...]
 121  0.005  0.039  0.995-  50 1.43  51 2.55
 122  0.948  0.386  0.518-  36 1.63  54 2.04  12 2.37
 123  0.322  0.904  0.293-  38 1.68  39 1.77
 124  0.334  0.920  0.055-  38 1.52
 125  0.382  0.435  0.618-  10 1.96   9 2.15
 126  0.002  0.157  0.168-  33 1.59  50 1.76
 127  0.195  0.028  0.864-  47 1.64
 128  0.884  0.831  0.704-  46 1.58   5 2.44  16 2.57
 129  0.066  0.157  0.727-  47 1.68
 130  0.859  0.953  0.521-  34 1.66
 131  0.439  0.175  0.623-  10 2.03
 132  0.974  0.754  0.453-  43 1.68  23 2.10  14 2.44
 133  0.992  0.970  0.347-  34 1.60  19 2.31
 134  0.651  0.456  0.749-   3 1.87   6 2.37   9 2.55
 135  0.071  0.478  0.289-  32 1.71   8 2.29

IMPORTANT INFORMATION: All symmetrisations will be switched off!
NOSYMM: (Re-)initialisation of all symmetry stuff for point group C_1.

Automatic generation of k-mesh.
 generate k-points for:    2    2    2
Space group operators:
 irot       det(A)        alpha          n_x          n_y          n_z        tau_x        tau_y        tau_z
    1     1.000000     0.000000     1.000000     0.000000     0.000000     0.000000     0.000000     0.000000

 Subroutine IBZKPT returns following result:

 Found      8 irreducible k-points:

 Following reciprocal coordinates:
            Coordinates               Weight
  0.000000  0.000000  0.000000      1.000000
  0.500000  0.000000  0.000000      1.000000
  0.000000  0.500000  0.000000      1.000000
  0.500000  0.500000  0.000000      1.000000
  0.000000  0.000000  0.500000      1.000000
  0.500000  0.000000  0.500000      1.000000
  0.000000  0.500000  0.500000      1.000000
  0.500000  0.500000  0.500000      1.000000

 Following cartesian coordinates:
            Coordinates               Weight
  0.000000  0.000000  0.000000      1.000000
  0.038669  0.000000  0.000000      1.000000
  0.000000  0.038669  0.000000      1.000000
  0.038669  0.038669  0.000000      1.000000
  0.000000  0.000000  0.038669      1.000000
  0.038669  0.000000  0.038669      1.000000
  0.000000  0.038669  0.038669      1.000000
  0.038669  0.038669  0.038669      1.000000

 SYSTEM =  unknown system
 POSCAR =  Ca Si  O

 Startparameter for this run:
   NWRITE =      2    write-flag & timer
   PREC   = a         normal or accurate (medium, high low for compatibility)
   ISTART =      0    job   : 0-new  1-cont  2-samecut
   ICHARG =      2    charge: 1-file 2-atom 10-const
[...]
     0.000000000  0.000000000 12.930412990     0.000000000  0.000000000  0.077337050

  length of vectors
    12.930412990 12.930412990 12.930412990     0.077337050  0.077337050  0.077337050

 FORCES acting on ions
    electron-ion (+dipol)            ewald-force                    non-local-force                 convergence-correction
   0.150E+03 0.329E+03 0.252E+03   -.152E+03 -.333E+03 -.252E+03   0.117E+01 -.660E+00 -.513E+01   0.149E-03 0.478E-02 -.368E-02
   -.442E+02 -.129E+03 0.116E+03   0.383E+02 0.132E+03 -.111E+03   0.251E+01 0.646E-01 -.441E+01   0.117E-02 0.119E-01 -.102E-01
   -.176E+03 0.107E+03 -.139E+03   0.177E+03 -.105E+03 0.143E+03   0.272E+01 -.467E+01 -.360E+01   -.653E-02 0.798E-02 0.645E-02
   0.391E+02 -.239E+03 -.205E+03   -.423E+02 0.240E+03 0.204E+03   0.612E+00 -.190E+01 0.390E+00   0.191E-02 0.287E-02 0.663E-02
   0.212E+03 -.295E+02 -.205E+03   -.212E+03 0.349E+02 0.206E+03   0.238E+00 -.248E+01 0.322E+00   -.375E-02 -.839E-03 -.426E-02
   -.534E+02 -.266E+03 0.167E+03   0.525E+02 0.263E+03 -.170E+03   0.212E+01 0.224E+01 -.185E+01   -.131E-01 -.910E-02 0.485E-02
   0.112E+02 -.397E+02 -.373E+02   -.127E+02 0.419E+02 0.409E+02   0.130E+01 -.145E+01 -.380E+01   -.176E-03 0.489E-02 -.373E-02
   0.440E+02 0.695E+02 0.325E+02   -.413E+02 -.654E+02 -.321E+02   -.150E+01 -.374E+01 0.154E+01   0.372E-03 0.346E-02 -.383E-02
   -.136E+03 0.704E+02 -.390E+02   0.132E+03 -.660E+02 0.383E+02   0.403E+01 -.362E+01 0.535E-01   0.375E-02 0.577E-02 0.100E-01
   0.318E+03 0.141E+03 0.346E+00   -.318E+03 -.144E+03 0.214E+01   -.310E+01 0.752E+00 0.113E+00   0.317E-02 0.469E-02 0.803E-02
   0.188E+03 -.210E+03 -.275E+03   -.182E+03 0.206E+03 0.269E+03   -.473E+01 0.536E+01 0.558E+01   0.996E-02 -.109E-01 0.465E-03
   -.398E+02 0.507E+02 -.147E+03   0.384E+02 -.492E+02 0.152E+03   0.167E+01 -.521E+00 -.134E+01   0.182E-02 0.656E-02 0.814E-02
   -.945E+02 0.142E+03 0.138E+03   0.950E+02 -.143E+03 -.140E+03   -.105E+01 -.253E+00 -.493E+00   -.171E-02 0.926E-02 -.768E-02
   -.546E+02 0.109E+03 0.111E+03   0.578E+02 -.105E+03 -.105E+03   -.176E+01 -.398E+01 -.470E+01   -.730E-03 -.124E-02 -.132E-02
   0.135E+03 -.258E+03 0.258E+03   -.133E+03 0.259E+03 -.252E+03   -.433E+01 0.213E+01 -.382E+01   -.429E-02 0.472E-02 0.386E-02
   0.177E+03 -.616E+02 0.102E+03   -.174E+03 0.579E+02 -.960E+02   -.381E+01 0.340E+01 -.639E+01   -.469E-02 -.177E-02 0.106E-02
   0.746E+02 0.191E+03 0.484E+02   -.740E+02 -.193E+03 -.474E+02   -.449E+00 0.173E+01 -.420E+01   -.275E-02 -.475E-03 0.123E-02
   -.367E+02 -.171E+03 -.107E+03   0.388E+02 0.170E+03 0.106E+03   -.582E+00 0.367E+01 0.336E+01   0.365E-02 -.231E-02 -.573E-03
   -.147E+03 -.100E+03 -.170E+03   0.143E+03 0.101E+03 0.162E+03   0.137E+01 -.865E+00 0.417E+01   0.100E-02 -.498E-02 0.139E-02
   0.187E+03 0.364E+02 -.486E+01   -.186E+03 -.346E+02 0.343E+01   -.773E+00 -.204E+01 0.134E+01   -.312E-02 -.464E-02 -.262E-03
   0.522E+02 0.350E+03 0.726E+02   -.517E+02 -.345E+03 -.742E+02   -.407E+00 -.526E+01 0.880E+00   0.490E-03 -.255E-02 -.132E-03
   -.412E+02 0.284E+03 -.224E+03   0.441E+02 -.280E+03 0.221E+03   -.178E+01 -.395E+01 0.153E+01   0.307E-02 -.335E-02 0.408E-03
   -.410E+02 -.336E+02 -.287E+03   0.430E+02 0.288E+02 0.280E+03   -.137E+01 0.341E+01 0.753E+01   -.770E-03 -.146E-02 0.461E-03
   0.405E+02 0.236E+03 0.916E+02   -.428E+02 -.233E+03 -.958E+02   0.229E+01 -.482E+01 0.396E+01   -.146E-02 0.324E-02 0.349E-03
   0.150E+03 -.881E+02 0.116E+03   -.152E+03 0.901E+02 -.117E+03   -.134E+01 0.251E+01 0.227E+01   0.841E-02 0.836E-02 0.233E-02
   -.334E+03 -.120E+03 0.490E+02   0.328E+03 0.121E+03 -.480E+02   0.562E+01 0.168E+00 -.746E+00   0.773E-02 -.891E-02 0.213E-02
   -.985E+02 0.401E+02 -.200E+01   0.982E+02 -.408E+02 0.288E+01   0.492E+01 -.132E+01 -.359E+01   0.272E-02 0.616E-02 -.177E-02
   -.122E+03 0.653E+02 -.149E+02   0.118E+03 -.593E+02 0.218E+02   0.317E+01 -.686E+01 -.113E+01   -.166E-03 0.421E-03 -.313E-03
   0.244E+02 0.481E+02 -.602E+02   -.134E+02 -.366E+02 0.548E+02   -.152E+02 -.798E+01 0.535E+01   0.949E-03 0.768E-03 0.112E-02
   -.199E+02 0.628E+02 -.396E+02   0.268E+02 -.639E+02 0.283E+02   -.747E+01 0.475E+01 0.124E+02   0.103E-02 -.662E-03 -.181E-02
   -.636E+02 0.260E+02 0.693E+02   0.565E+02 -.310E+02 -.700E+02   0.120E+02 0.498E+01 0.587E+00   -.114E-02 0.228E-02 -.176E-02
   0.945E+02 0.136E+02 -.114E+03   -.833E+02 -.902E+01 0.102E+03   -.131E+02 0.240E+00 0.130E+02   0.590E-03 0.237E-02 -.162E-02
   0.780E+01 -.292E+02 -.329E+02   -.195E+02 0.246E+02 0.219E+02   0.111E+02 0.266E+01 0.179E+02   -.116E-02 -.616E-03 -.115E-02
   0.969E+02 0.793E+01 -.238E+02   -.879E+02 -.572E+01 0.270E+02   -.114E+02 -.426E+01 -.217E+01   -.524E-02 -.364E-02 -.115E-02
   -.632E+02 0.130E+03 0.645E+02   0.597E+02 -.128E+03 -.551E+02   0.281E+01 -.370E+01 -.108E+02   -.102E-03 -.947E-03 0.818E-03
   -.713E+01 -.835E+02 -.393E+02   0.101E+02 0.686E+02 0.390E+02   -.125E+01 0.129E+02 0.155E+01   -.162E-02 0.291E-02 -.413E-03
   -.592E+01 -.120E+02 0.873E+02   0.205E+00 0.257E+02 -.879E+02   0.931E+01 -.217E+02 -.101E+02   -.599E-02 -.381E-02 -.387E-02
   0.433E+02 -.812E+02 0.478E+02   -.385E+02 0.693E+02 -.575E+02   -.111E+02 0.155E+02 0.880E+01   0.602E-03 -.275E-02 -.359E-03
   -.865E+02 -.190E+02 0.701E+02   0.805E+02 0.224E+02 -.581E+02   0.192E+01 -.214E+01 -.918E+01   0.820E-03 -.120E-02 -.520E-03
   -.117E+02 -.946E+01 0.327E+02   0.854E+01 0.909E+01 -.363E+02   0.351E+01 0.362E+01 0.163E+01   -.202E-02 -.102E-02 0.401E-03
   -.708E+01 -.257E+02 0.881E+02   0.918E+01 0.271E+02 -.838E+02   -.237E+01 0.420E+01 -.748E+01   0.286E-02 -.169E-02 -.359E-02
   -.103E+03 0.886E+01 0.759E+02   0.112E+03 -.964E+01 -.633E+02   -.732E+01 -.451E+01 -.133E+02   0.167E-02 -.142E-02 0.304E-03
   -.290E+02 0.439E+02 -.256E+02   0.254E+02 -.313E+02 0.349E+02   0.230E+01 -.929E+01 -.640E+01   -.251E-02 0.180E-02 -.460E-03
   0.537E+02 0.301E+02 -.469E+02   -.558E+02 -.256E+02 0.446E+02   0.488E+00 -.949E+00 -.817E+00   -.155E-02 -.119E-02 0.247E-03
   0.626E+02 -.689E+02 0.262E+02   -.555E+02 0.715E+02 -.163E+02   -.101E+02 -.654E+01 -.939E+01   0.185E-02 -.106E-02 -.424E-03
   -.200E+02 -.108E+02 -.391E+01   0.137E+02 0.905E+01 0.329E+01   0.553E+01 0.510E+01 0.349E+01   -.778E-03 -.109E-02 -.186E-03
   -.543E+02 -.913E+02 0.307E+02   0.550E+02 0.947E+02 -.166E+02   0.109E+00 0.116E+01 -.111E+02   0.914E-03 -.119E-02 0.118E-02
   0.196E+01 0.458E+02 0.712E+02   -.249E+01 -.344E+02 -.679E+02   -.670E+01 -.109E+02 -.106E+01   -.433E-02 0.101E-01 0.105E-02
   0.108E+03 -.122E+02 0.152E+02   -.101E+03 0.115E+02 -.187E+02   -.169E+02 0.209E+01 0.283E+01   -.115E-02 0.875E-03 -.767E-04
   0.854E+02 -.534E+01 0.151E+02   -.773E+02 0.363E+01 -.300E+02   -.111E+02 0.757E+00 0.261E+02   -.811E-03 -.427E-03 0.409E-05
   -.211E+02 -.135E+02 0.321E+02   0.214E+02 0.817E+01 -.312E+02   0.741E+00 0.673E+01 -.106E+01   -.195E-03 -.101E-02 0.164E-03
   -.392E+02 -.323E+02 0.545E+02   0.376E+02 0.258E+02 -.530E+02   0.339E+01 0.183E+01 -.548E+01   0.213E-02 -.786E-05 0.149E-02
   -.831E+02 0.544E+02 0.184E+02   0.755E+02 -.606E+02 -.213E+02   0.104E+02 0.127E+02 0.152E+01   0.660E-03 0.417E-02 0.288E-03
   0.476E+02 0.317E+02 -.159E+03   -.410E+02 -.395E+02 0.154E+03   -.113E+02 0.969E+01 0.938E+01   -.440E-03 0.818E-03 -.195E-02
   -.159E+03 -.158E+03 -.792E+02   0.170E+03 0.157E+03 0.811E+02   -.134E+02 0.574E+01 -.171E+00   0.295E-02 -.402E-03 0.117E-02
   -.484E+02 0.138E+03 -.227E+03   0.499E+02 -.145E+03 0.256E+03   -.825E+00 0.869E+01 -.261E+02   0.867E-03 -.376E-02 0.287E-02
   0.751E+02 -.244E+02 -.477E+02   -.828E+02 0.315E+02 0.594E+02   0.100E+02 -.909E+01 -.122E+02   -.169E-02 -.122E-02 -.291E-03
   -.552E+01 -.137E+03 0.607E+02   0.531E+01 0.130E+03 -.629E+02   0.380E+01 0.104E+02 0.170E+01   -.180E-02 -.404E-02 0.224E-02
   -.703E+02 0.537E+02 0.110E+03   0.643E+02 -.778E+02 -.111E+03   0.101E+02 0.258E+02 0.312E+01   -.330E-02 0.210E-03 0.853E-03
   -.268E+01 0.817E+02 -.133E+03   -.160E+02 -.750E+02 0.144E+03   0.204E+02 -.724E+01 -.133E+02   -.983E-03 0.165E-02 -.478E-03
[...]
   -.921E+02 0.351E+02 -.169E+03   0.964E+02 -.420E+02 0.182E+03   0.111E+01 0.289E+01 -.111E+02   -.334E-02 0.618E-02 0.990E-03
   -.661E+02 -.389E+02 -.201E+03   0.796E+02 0.275E+02 0.229E+03   -.177E+02 0.138E+02 -.284E+02   0.216E-02 -.278E-02 0.125E-02
   -.237E+02 0.136E+02 0.216E+03   0.155E+02 -.138E+02 -.254E+03   0.662E+01 0.134E+01 0.374E+02   0.985E-03 -.399E-02 -.165E-02
   0.134E+03 -.151E+03 -.575E+02   -.141E+03 0.162E+03 0.566E+02   0.852E+01 -.987E+01 -.840E+00   0.224E-02 0.329E-02 0.528E-02
   -.823E+02 0.206E+02 0.107E+03   0.110E+03 -.906E+01 -.117E+03   -.252E+02 -.137E+02 0.801E+01   -.876E-03 0.226E-03 -.164E-02
   -.122E+03 -.706E+02 -.895E+02   0.138E+03 0.621E+02 0.116E+03   -.160E+02 0.115E+02 -.276E+02   0.826E-03 -.924E-03 -.471E-03
   0.742E+02 0.576E+02 -.524E+02   -.925E+02 -.743E+02 0.417E+02   0.192E+02 0.142E+02 0.981E+01   -.238E-02 -.162E-02 -.633E-03
   -.156E+02 -.984E+02 -.224E+02   -.751E+00 0.117E+03 0.179E+02   0.186E+02 -.195E+02 0.434E+01   0.504E-03 -.103E-02 0.369E-02
   0.303E+02 -.482E+02 -.801E+02   -.371E+02 0.437E+02 0.106E+03   0.846E+01 0.463E+01 -.286E+02   -.457E-02 -.404E-02 -.242E-02
   -.954E+01 0.321E+03 0.100E+03   0.127E+02 -.327E+03 -.100E+03   -.312E+01 0.500E+01 -.319E+01   0.193E-02 -.195E-02 0.130E-02
   0.271E+02 -.628E+02 -.420E+02   -.153E+02 0.833E+02 0.427E+02   -.138E+02 -.225E+02 -.274E+01   -.361E-02 -.480E-03 -.408E-03
   0.808E+01 -.441E+02 0.121E+02   0.184E+02 0.423E+02 -.298E+02   -.277E+02 0.207E+01 0.191E+02   -.390E-02 -.209E-02 -.839E-03
   -.851E+01 -.977E+02 -.584E+02   0.383E+01 0.103E+03 0.642E+02   0.271E+01 -.369E+01 -.644E+01   -.478E-02 0.332E-02 0.543E-02
   0.468E+02 -.950E+02 0.111E+02   -.651E+02 0.106E+03 -.221E+02   0.201E+02 -.107E+02 0.128E+02   0.222E-03 0.230E-02 -.238E-02
   0.464E+02 0.628E+02 0.139E+02   -.441E-12 -.568E-12 0.391E-12   -.464E+02 -.628E+02 -.139E+02   -.295E-01 0.590E-01 -.140E-01

 POSITION                                       TOTAL-FORCE (eV/Angst)
      3.41664      2.40877      0.80656        -0.777302     -4.859216     -4.848270
      4.67989      4.36628      2.44536        -3.388956      3.586835     -0.280407
      9.61017      4.58218      9.10740         3.623630     -2.351520      0.778242
      6.91169      8.33420      7.78764        -2.536408     -0.447996     -0.405470
      9.63566     10.24841      7.52673         0.093990      2.950487      1.255634
      7.94025      7.76096     11.07252         1.188795     -1.336182     -4.500388
      4.95539      6.31194      5.30869        -0.249979      0.792102     -0.135473
      0.58877      4.65639      2.06296         1.208940      0.396195      1.954422
      6.89802      4.74059      7.98692         0.579797      0.793861     -0.592264
      4.75761      3.88563      8.86057        -3.523274     -2.145834      2.611503
      7.81030     12.37544      4.95975         0.571726      1.328713     -0.243011
      0.96889      4.41384      8.30766         0.236063      0.963719      2.807910
      8.56158      4.08223      1.58920        -0.499166     -1.455216     -2.566862
      1.11801      8.78795      4.14910         1.474401     -0.101709      1.326616
      9.82495      9.32766      3.01633        -2.224279      3.415665      2.097312
     11.41445      8.41059     10.17000        -1.055402     -0.326278      0.129977
      9.92105      3.24203      6.26090         0.192020      0.155855     -3.246194
      1.13906      7.98634      0.12127         1.517435      2.407037      1.658660
      1.32630     12.67049      6.29781        -2.004142     -0.112023     -3.931155
      9.55629     11.68324     12.07077        -0.512518     -0.260981     -0.080438
      7.35988      1.08906      9.80299         0.021315     -0.041829     -0.778251
      3.94911      2.13126      5.76568         1.130436      0.809883     -0.977252
      0.74640      9.86882      7.65961         0.634717     -1.395938      0.048236
     12.01355      3.17526     12.23570        -0.095138     -2.419044     -0.237529
      3.18639      4.77684     12.02661        -3.172068      4.470251      0.896645
      3.98532      9.70936     11.39447         0.447083      1.304754      0.258349
      8.22854      6.30684      5.22094         4.695080     -1.991819     -2.716679
      6.70402      3.46525      4.16375        -1.271707     -0.847610      5.699825
      3.31339      8.31737      7.33956        -4.212483      3.537831     -0.024252
      7.43967      0.95019      0.39373        -0.555665      3.608411      1.112218
      9.94609      6.40990      3.04765         4.879661     -0.062348     -0.098203
      2.11399      5.40108      4.67754        -1.913747      4.784993      0.819065
     11.88777      2.20538      3.33916        -0.641777     -1.874464      6.931217
     11.37638     12.69789      5.13981        -2.395762     -2.060660      1.020276
      6.01028      1.37624      2.69878        -0.684997     -1.325803     -1.327539
     11.28880      6.05030      5.92615         1.764779     -2.062652      1.161344
      7.67815      7.99212      1.13676         3.594801     -7.923082    -10.604405
      4.64776     11.92586      2.19412        -6.331880      3.541502     -0.892700
      2.46579     12.00795      3.38126        -4.097689      1.248255      2.778696
     12.53871     10.77877      2.41912         0.360669      3.242903     -1.936579
      3.75834      8.15989      2.80335        -0.265134      5.546120     -3.143268
      3.36468     11.82890      8.77225         1.586186     -5.293996     -0.661174
     11.40338      8.60518      5.53007        -1.343180      3.278462      2.841634
     10.27742      0.85058      8.89502        -1.646142      3.558989     -3.128213
      6.65518      9.93895      3.41301        -2.910888     -3.931439      0.583804
     12.25900     11.94559      9.72323        -0.781619      3.342804      2.873563
      1.67147      0.61369      9.78087         0.795278      4.536734      2.902521
      6.56538      5.79058     12.33326        -7.232136      0.514097      2.310989
     11.93921      5.93496     12.44107        -9.893853      1.413002     -0.657120
     12.42131      0.63483      1.23954        -2.937651     -0.958346     11.192954
      0.25622     10.91881     12.46640         1.108290      1.438786     -0.096401
      1.95879      7.47267     10.51849         1.776662     -4.672079     -4.017516
      5.71179      2.98424     11.54729         2.846107      6.446890     -1.463101
      0.42072      3.39884      6.03477        -4.732410      1.887312      3.985628
      3.70342      9.90821      8.22959        -1.874683      5.234466      1.708149
      6.19056      1.33083      4.26398         0.678557      1.397487      3.619880
     11.67292     11.85162     11.41359         2.319764     -1.964448     -0.510275
      9.59799     11.43729      4.40292         3.584987      3.119013     -0.505641
     11.83557      9.29190      2.73841         4.077919      1.720383      1.835178
      5.22093      3.95358      4.84798         1.706858     -0.536963     -1.701444
[...]
      0.06128      0.50305     12.85984         2.489169     -0.054560     -7.056689
     12.26041      4.99246      6.70301         5.464776     -4.000507      2.467572
      4.15721     11.69300      3.78696        -4.237699      2.407658     -1.111999
      4.32407     11.89587      0.70638        -1.563750      1.177049     -1.409129
      4.94483      5.62780      7.99147         1.454267      1.569031     -1.719328
      0.02450      2.03377      2.16658         2.954713     -2.163985     -2.342542
      2.51590      0.35768     11.16799         0.001185      2.986291     -1.345891
     11.42775     10.75123      9.10843         0.930441     -2.524344     -0.855745
      0.85744      2.03119      9.39969         2.302666     -0.800292     -0.099232
     11.10605     12.32218      6.73645         1.695400      0.117814     -2.245076
      5.67641      2.26495      8.05254         0.028712     -1.264109     -2.673869
     12.59681      9.74583      5.85763        -1.905421     -1.996379     -2.051912
     12.82515     12.53697      4.48461        -1.259277      0.248310      1.376298
      8.41162      5.89796      9.68724        -1.974198      1.920730     -0.606082
      0.91943      6.17815      3.73860         1.844817      0.070345      1.809888
    total drift:                               -0.011525     -0.010714      0.005360

  FREE ENERGIE OF THE ION-ELECTRON SYSTEM (eV)
  free  energy   TOTEN  =      -853.85389455 eV

  energy  without entropy=     -853.79057102  energy(sigma->0) =     -853.82223279