 vasp.5.4.4.18Apr17-6-g9f103f2a35 (build Mar 16 2023 09:39:13) complex

 executed on             LinuxIFC date 2024.04.29  17:45:58

 INCAR:
 POTCAR:    PAW_PBE Ca_sv 06Sep2000
 POTCAR:    PAW_PBE Si 05Jan2001
 POTCAR:    PAW_PBE O 08Apr2002
 POTCAR:    PAW_PBE Ca_sv 06Sep2000
   VRHFIN =Ca: 3s3p4s

   TITEL  = PAW_PBE Ca_sv 06Sep2000
   POMASS =   40.078; ZVAL   =   10.000    mass and valenz
   ENMAX  =  266.622; ENMIN  =  199.967 eV

   TITEL  = PAW_PBE Si 05Jan2001
   POMASS =   28.085; ZVAL   =    4.000    mass and valenz
   ENMAX  =  245.345; ENMIN  =  184.009 eV

   TITEL  = PAW_PBE O 08Apr2002
   POMASS =   16.000; ZVAL   =    6.000    mass and valenz
   ENMAX  =  400.000; ENMIN  =  300.000 eV

 Optimization of the real space projectors (new method)

 maximal supplied QI-value         = 16.25
 optimisation between [QCUT,QGAM] = [ 12.51, 25.03] = [ 43.85,175.40] Ry
 Optimized for a Real-space Cutoff    1.47 Angstroem

   l    n(q)    QCUT    max X(q) W(low)/X(q) W(high)/X(q)  e(spline)
   0     11    12.514    11.817    0.25E-04    0.32E-05    0.87E-07
   0     11    12.514     8.461    0.39E-04    0.59E-05    0.18E-06
   1     11    12.514     3.957    0.97E-05    0.57E-05    0.28E-07
   1     11    12.514     4.314    0.42E-04    0.14E-04    0.23E-06
   2     10    12.514    14.565    0.79E-04    0.50E-03    0.16E-05
   2     10    12.514    14.552    0.75E-04    0.48E-03    0.15E-05
 Optimization of the real space projectors (new method)

[...]

   l    n(q)    QCUT    max X(q) W(low)/X(q) W(high)/X(q)  e(spline)
   0      9    12.501   159.560    0.10E-03    0.83E-04    0.71E-07
   0      9    12.501   115.863    0.99E-04    0.81E-04    0.70E-07
   1      8    12.501    88.339    0.20E-03    0.25E-03    0.76E-07
   1      8    12.501    48.592    0.20E-03    0.24E-03    0.75E-07
 Optimization of the real space projectors (new method)

 maximal supplied QI-value         = 24.76
 optimisation between [QCUT,QGAM] = [ 12.38, 25.00] = [ 42.90,175.06] Ry
 Optimized for a Real-space Cutoff    1.16 Angstroem

   l    n(q)    QCUT    max X(q) W(low)/X(q) W(high)/X(q)  e(spline)
   0      9    12.378    20.381    0.16E-03    0.67E-05    0.31E-06
   0      9    12.378    15.268    0.17E-03    0.81E-05    0.33E-06
   1      8    12.378     5.964    0.20E-03    0.16E-03    0.30E-06
   1      8    12.378     5.382    0.18E-03    0.14E-03    0.26E-06
  PAW_PBE Ca_sv 06Sep2000               :
  PAW_PBE Si 05Jan2001                  :
  PAW_PBE O 08Apr2002                   :

 POSCAR: Ca Si  O
  positions in direct lattice
 exchange correlation table for  LEXCH =        8
   RHO(1)=    0.500       N(1)  =     2000
   RHO(2)=  100.500       N(2)  =     4000

 ion  position               nearest neighbor table
   1  0.460  0.369  0.096- 104 2.30  82 2.38 130 2.46 118 2.48 112 2.57
   2  0.009  0.617  0.557-  94 2.02  55 2.02 125 2.11  70 2.18  73 2.19  37 2.82  32 2.83  26 2.93
                            34 3.01  36 3.07
   3  0.803  0.925  0.077-  60 1.92  87 2.26 108 2.26  98 2.27  45 2.71  52 2.82  33 2.94  16 3.02

   4  0.543  0.338  0.569- 129 2.18  88 2.22  85 2.34  57 2.40  69 2.45  65 2.50  35 2.99
   5  0.550  0.097  0.113-  60 2.02  82 2.17 120 2.34  62 2.52  33 3.02  35 3.14
   6  0.057  0.353  0.770-  78 2.07 133 2.16  55 2.31  68 2.37  64 2.46  90 2.50  32 2.71
   7  0.811  0.514  0.727- 131 2.01  55 2.11 105 2.55  30 2.97  36 3.16
   8  0.537  0.776  0.952- 121 2.05 100 2.16 122 2.49 115 2.56 123 2.57   9 2.91  54 3.11  51 3.13

[...]

  20  0.613  0.785  0.666-  81 2.27  71 2.31 105 2.41 101 2.54  37 2.95
  21  0.264  0.310  0.577-  57 2.13  65 2.18 134 2.29 135 2.33  90 2.49  31 2.70  41 2.91
  22  0.092  0.892  0.426- 106 2.01 107 2.08 111 2.24 109 2.54 124 2.57  47 2.86  11 3.00
  23  0.743  0.458  0.253-  89 1.92  96 2.22 104 2.50  93 2.56  46 2.61
  24  0.744  0.969  0.394-  97 2.33 111 2.42  87 2.44  67 2.52  91 2.56
  25  0.470  0.887  0.383-  58 2.24  71 2.27  77 2.54
  26  0.005  0.435  0.383- 119 2.13  94 2.17 134 2.32  89 2.36  30 2.53 125 2.56   2 2.93
  27  0.253  0.196  0.190-  74 2.06 116 2.15  82 2.36  39 2.88  47 3.11  28 3.14
  28  0.243  0.926  0.202- 113 1.59  66 1.69 109 1.74 116 1.81  79 1.99  45 2.79  27 3.14
  29  0.966  0.125  0.339-  67 1.54 107 1.67  63 1.71 128 2.02 119 2.43  19 2.87
  30  0.867  0.359  0.532- 119 1.58  94 1.60  69 1.62  78 1.80  26 2.53   7 2.97  43 3.03
  31  0.357  0.391  0.774- 112 1.48  65 1.71 110 1.80  64 1.86  90 2.29  44 2.57  21 2.70  17 2.77
                            54 3.02  39 3.06
  32  0.121  0.577  0.770-  90 1.75 103 1.76  55 1.78  73 1.85  76 1.89 133 2.50  34 2.60   6 2.71
                             2 2.83
  33  0.656  0.016  0.891- 120 1.60  61 1.69  83 1.75 121 1.78  98 2.43  60 2.53  53 2.75   3 2.94
                            17 2.98   5 3.02
  34  0.110  0.794  0.718-  70 1.70  73 1.71  76 1.75 114 1.84 106 1.90  84 2.28  32 2.60  11 2.88
                             2 3.01
  35  0.495  0.204  0.356-  88 1.49  82 1.61 132 1.67  97 1.80  85 2.16  46 2.75  41 2.91   4 2.99
                             5 3.14
  36  0.757  0.610  0.479- 101 1.81 102 1.82 131 1.85  89 1.93  94 2.14  50 2.77  37 2.82   2 3.07
                             7 3.16
  37  0.855  0.801  0.591-  81 1.54 111 1.67  70 1.68 131 1.94 101 2.53   2 2.82  36 2.82  20 2.95
                            11 3.16
  38  0.093  0.061  0.860-  68 1.56 126 1.75 114 1.77 117 1.80  11 2.73  39 2.88  53 2.97  45 3.02

[...]

  40  0.165  0.651  0.313- 124 1.56 127 1.69  79 1.99 125 2.02  18 3.07
  41  0.348  0.406  0.362- 130 1.60  88 1.68  86 1.84 134 1.86  57 1.86  35 2.91  21 2.91
  42  0.306  0.973  0.617-  58 1.59  80 1.62  84 1.72 135 1.94 106 2.09  47 2.58  49 2.95
  43  0.752  0.144  0.623-  91 1.54  95 1.57 129 1.78  69 1.87  61 2.42  49 2.63  53 2.95  30 3.03

  44  0.540  0.513  0.797-  99 1.56 105 1.60 100 1.65 110 1.72 112 2.11 122 2.35  31 2.57  54 2.97
                            51 3.01
  45  0.032  0.966  0.094- 128 1.57 117 1.61 108 1.75 109 1.93  66 2.04   3 2.71  28 2.79  15 2.87
                            38 3.02  19 3.06
  46  0.723  0.240  0.304-  96 1.57  85 1.67  67 1.72  97 2.11 119 2.32  23 2.61  35 2.75
  47  0.253  0.078  0.430- 116 1.69 132 1.73 135 1.75  58 1.79 107 2.16  42 2.58  22 2.86  27 3.11

  48  0.929  0.499  0.018-  92 1.58  72 1.64 133 1.64  93 1.76  10 2.86  51 2.89  18 3.01
  49  0.547  0.049  0.637-  80 1.48 129 1.52  71 1.61  61 1.69  43 2.63  17 2.95  42 2.95
  50  0.528  0.617  0.415-  77 1.64  56 1.67  86 1.74 102 1.77 101 2.47  36 2.77  13 3.00
  51  0.689  0.560  0.003- 104 1.52 122 1.58  59 1.80  72 1.82  48 2.89  44 3.01  14 3.13   8 3.13
                            52 3.14
  52  0.677  0.752  0.192-  59 1.61 123 1.65  87 1.73  56 1.87   3 2.82  18 3.05  51 3.14
  53  0.852  0.144  0.856-  95 1.50  98 1.51  75 1.60  83 1.82  68 2.40  33 2.75  14 2.83  43 2.95
                            38 2.97  19 3.15
  54  0.344  0.591  0.940- 118 1.43 103 1.63 115 1.65 100 1.80 112 2.30  12 2.93  44 2.97  31 3.02
                             8 3.11
  55  0.990  0.529  0.706-  32 1.78   2 2.02   7 2.11   6 2.31
  56  0.577  0.695  0.305-  50 1.67  52 1.87
  57  0.374  0.443  0.515-  41 1.86  13 2.12  21 2.13   4 2.40
  58  0.317  0.949  0.483-  42 1.59  47 1.79  25 2.24
  59  0.729  0.641  0.128-  52 1.61  51 1.80  18 2.53
  60  0.720  0.067  0.093-   3 1.92   5 2.02  33 2.53
  61  0.638  0.022  0.747-  33 1.69  49 1.69  43 2.42
  62  0.410  0.176  0.967-  39 1.64  17 2.15   5 2.52
  63  0.041  0.227  0.263-  29 1.71  19 2.27
  64  0.245  0.314  0.859-  39 1.62  31 1.86   6 2.46
  65  0.393  0.266  0.706-  31 1.71  17 2.05  21 2.18   4 2.50
  66  0.201  0.934  0.062-  28 1.69  45 2.04   9 2.42  15 2.52
  67  0.838  0.147  0.314-  29 1.54  46 1.72  24 2.52
  68  0.041  0.150  0.774-  38 1.56  11 2.23   6 2.37  53 2.40
  69  0.749  0.296  0.571-  30 1.62  43 1.87   4 2.45
  70  0.977  0.770  0.662-  37 1.68  34 1.70   2 2.18
  71  0.547  0.937  0.556-  49 1.61  25 2.27  20 2.31
  72  0.805  0.461  0.965-  48 1.64  51 1.82  14 2.22
  73  0.163  0.674  0.651-  34 1.71  32 1.85  13 2.18   2 2.19
  74  0.206  0.279  0.040-  39 1.62  27 2.06  10 2.16
  75  0.896  0.247  0.936-  53 1.60  19 2.10  14 2.22
  76  0.062  0.714  0.836-  34 1.75  32 1.89  15 2.29  16 2.40
  77  0.449  0.701  0.495-  50 1.64  13 2.05  25 2.54
  78  0.001  0.329  0.602-  30 1.80   6 2.07
  79  0.261  0.794  0.309-  28 1.99  40 1.99
  80  0.428  0.017  0.668-  49 1.48  42 1.62
  81  0.786  0.874  0.679-  37 1.54  20 2.27
  82  0.452  0.211  0.225-  35 1.61   5 2.17  27 2.36   1 2.38
  83  0.698  0.160  0.881-  33 1.75  53 1.82  14 2.07  17 2.32
  84  0.283  0.883  0.732-  42 1.72  34 2.28   9 2.30
  85  0.639  0.315  0.394-  46 1.67  35 2.16   4 2.34
  86  0.441  0.529  0.330-  50 1.74  41 1.84  12 2.57
  87  0.792  0.830  0.246-  52 1.73   3 2.26  18 2.39  24 2.44
  88  0.451  0.314  0.404-  35 1.49  41 1.68   4 2.22
  89  0.841  0.549  0.349-  23 1.92  36 1.93  26 2.36
  90  0.207  0.484  0.688-  32 1.75  31 2.29  13 2.47  21 2.49   6 2.50
  91  0.844  0.072  0.561-  43 1.54  11 2.35  24 2.56
  92  0.931  0.633  0.999-  48 1.58  18 2.39  16 2.40  15 2.45
  93  0.944  0.461  0.164-  48 1.76  23 2.56
  94  0.893  0.494  0.520-  30 1.60   2 2.02  36 2.14  26 2.17
  95  0.811  0.179  0.739-  53 1.50  43 1.57
  96  0.688  0.289  0.183-  46 1.57  14 2.20  23 2.22
  97  0.608  0.101  0.328-  35 1.80  46 2.11  24 2.33
  98  0.861  0.035  0.927-  53 1.51   3 2.27  33 2.43
  99  0.631  0.422  0.837-  44 1.56
 100  0.482  0.616  0.875-  44 1.65  54 1.80   8 2.16
 101  0.687  0.748  0.464-  36 1.81  50 2.47  37 2.53  20 2.54
 102  0.628  0.522  0.480-  50 1.77  36 1.82
 103  0.229  0.549  0.871-  54 1.63  32 1.76
 104  0.612  0.495  0.086-  51 1.52   1 2.30  23 2.50
 105  0.605  0.581  0.695-  44 1.60  20 2.41   7 2.55
 106  0.153  0.883  0.588-  34 1.90  22 2.01  42 2.09  11 2.25
 107  0.067  0.070  0.424-  29 1.67  22 2.08  47 2.16
 108  0.971  0.864  0.001-  45 1.75  16 2.14  15 2.17   3 2.26
 109  0.104  0.871  0.209-  28 1.74  45 1.93  22 2.54
 110  0.438  0.493  0.692-  44 1.72  31 1.80
 111  0.907  0.870  0.476-  37 1.67  22 2.24  24 2.42
 112  0.415  0.415  0.885-  31 1.48  44 2.11  54 2.30   1 2.57
 113  0.369  0.975  0.186-  28 1.59
 114  0.071  0.920  0.805-  38 1.77  34 1.84  11 2.25
[...]
 121  0.677  0.864  0.890-  33 1.78   8 2.05  16 2.45
 122  0.679  0.629  0.887-  51 1.58  44 2.35   8 2.49
 123  0.585  0.853  0.153-  52 1.65   8 2.57
 124  0.041  0.696  0.338-  40 1.56  18 2.08  22 2.57
 125  0.159  0.570  0.466-  40 2.02  13 2.05   2 2.11  26 2.56
 126  0.240  0.090  0.844-  38 1.75  39 1.83   9 2.35
 127  0.171  0.600  0.177-  40 1.69  10 1.99  15 2.52
 128  0.969  0.022  0.199-  45 1.57  29 2.02  19 2.42
 129  0.602  0.162  0.600-  49 1.52  43 1.78   4 2.18
 130  0.303  0.409  0.232-  41 1.60  10 2.36   1 2.46
 131  0.787  0.654  0.629-  36 1.85  37 1.94   7 2.01
 132  0.393  0.128  0.422-  35 1.67  47 1.73
 133  0.020  0.458  0.918-  48 1.64   6 2.16  32 2.50
 134  0.197  0.385  0.408-  41 1.86  21 2.29  26 2.32
 135  0.226  0.113  0.574-  47 1.75  42 1.94  21 2.33

IMPORTANT INFORMATION: All symmetrisations will be switched off!
[...]
     0.000000000  0.000000000 11.628173330     0.000000000  0.000000000  0.085998030

  length of vectors
    11.628173330 11.628173330 11.628173330     0.085998030  0.085998030  0.085998030

 FORCES acting on ions
    electron-ion (+dipol)            ewald-force                    non-local-force                 convergence-correction
   -.558E+02 -.260E+02 -.334E+02   0.508E+02 0.303E+02 0.356E+02   0.310E+01 -.303E+01 -.183E+01   0.291E-03 -.197E-02 -.149E-02
   0.174E+02 -.113E+03 0.177E+03   -.123E+02 0.112E+03 -.175E+03   -.338E+01 0.337E+01 -.399E+01   0.313E-03 0.827E-03 0.231E-02
   0.710E+02 0.136E+03 -.100E+03   -.727E+02 -.131E+03 0.102E+03   0.124E+01 -.591E+01 -.143E+01   -.174E-02 0.254E-02 -.273E-02
   -.987E+02 -.332E+02 -.780E+02   0.963E+02 0.391E+02 0.740E+02   0.189E+01 -.189E+01 0.379E+01   0.144E-03 -.660E-03 0.213E-02
   0.101E+03 0.104E+03 -.569E+02   -.102E+03 -.109E+03 0.592E+02   -.150E+01 0.207E+01 -.146E+01   0.262E-02 -.191E-02 -.268E-02
   0.268E+02 0.186E+03 -.525E+02   -.268E+02 -.186E+03 0.512E+02   0.728E+00 -.190E+01 0.209E+01   -.230E-03 -.150E-03 -.135E-02
   0.985E+02 0.170E+03 -.125E+03   -.999E+02 -.167E+03 0.126E+03   -.713E+00 -.508E+01 0.198E+01   -.850E-03 0.816E-03 -.869E-03
   0.119E+03 -.340E+02 -.366E+02   -.114E+03 0.335E+02 0.355E+02   -.508E+01 0.757E+00 0.186E+01   0.119E-02 0.358E-02 -.443E-02
   -.288E+02 0.982E+02 0.524E+01   0.245E+02 -.946E+02 -.665E+01   0.297E+01 -.282E+01 0.160E+01   0.326E-02 -.156E-03 -.334E-02
   0.135E+03 0.901E+02 -.352E+02   -.130E+03 -.907E+02 0.350E+02   -.550E+01 -.167E+01 -.920E+00   0.717E-03 -.448E-03 -.134E-02
   0.662E+02 -.157E+03 0.435E+02   -.658E+02 0.159E+03 -.455E+02   -.159E+01 -.105E+00 -.300E+00   -.116E-02 -.131E-02 0.140E-02
   -.807E+02 -.851E+02 -.858E+02   0.768E+02 0.824E+02 0.872E+02   0.307E+01 0.171E+01 0.286E+00   0.101E-02 0.174E-02 -.925E-03
   -.141E+03 -.253E+03 -.174E+02   0.140E+03 0.247E+03 0.185E+02   0.918E+00 0.472E+01 0.129E+01   0.296E-03 0.188E-02 0.280E-02
   0.761E+02 -.795E+02 -.327E+02   -.733E+02 0.809E+02 0.294E+02   -.339E+01 0.316E+00 0.292E+01   0.294E-04 -.393E-02 -.263E-02
   -.170E+03 0.386E+02 -.143E+02   0.171E+03 -.373E+02 0.113E+02   0.169E+01 -.197E+01 0.245E+01   -.984E-03 0.237E-02 -.228E-02
   0.141E+03 0.253E+02 0.535E+02   -.139E+03 -.247E+02 -.537E+02   -.215E+01 -.982E+00 -.152E+01   -.173E-02 0.342E-02 -.166E-02
   -.462E+02 0.434E+02 0.686E+01   0.433E+02 -.422E+02 -.509E+01   0.410E+01 -.123E+01 -.905E+00   0.149E-02 -.242E-02 -.614E-03
   0.443E+02 -.495E+02 -.320E+02   -.456E+02 0.488E+02 0.372E+02   0.267E+00 0.674E+00 -.441E+01   -.938E-03 0.214E-02 -.139E-04
   -.721E+02 -.117E+03 -.595E+02   0.775E+02 0.114E+03 0.598E+02   -.404E+01 0.224E+01 0.100E+01   -.210E-02 -.314E-02 -.233E-02
   0.226E+03 -.133E+02 -.435E+02   -.222E+03 0.109E+02 0.388E+02   -.396E+01 0.101E+01 0.397E+01   -.174E-02 0.237E-02 0.231E-02
   0.184E+03 0.189E+03 0.224E+02   -.185E+03 -.184E+03 -.265E+02   -.206E+01 -.401E+01 0.268E+01   0.542E-03 0.322E-03 0.163E-02
   0.112E+02 0.749E+02 0.104E+03   -.137E+02 -.779E+02 -.105E+03   0.199E+01 -.438E+00 -.284E+01   -.650E-03 0.725E-04 0.274E-02
   0.113E+03 -.236E+02 0.224E+02   -.113E+03 0.265E+02 -.223E+02   -.225E+01 -.217E+01 -.173E+01   -.416E-03 -.644E-03 0.770E-03
   0.629E+02 0.411E+02 0.806E+00   -.602E+02 -.434E+02 0.855E-01   -.199E+01 0.898E+00 -.363E+00   -.687E-03 -.630E-03 0.157E-02
   -.625E+02 0.391E+02 0.108E+03   0.590E+02 -.400E+02 -.103E+03   0.301E+01 0.260E+00 -.455E+01   0.134E-02 0.543E-03 0.298E-02
   -.158E+03 0.930E+02 0.172E+03   0.163E+03 -.961E+02 -.174E+03   -.116E+00 0.271E+01 -.135E+01   0.164E-03 0.546E-04 0.317E-02
   0.499E+02 0.304E+02 -.285E+02   -.505E+02 -.275E+02 0.310E+02   0.872E+00 -.213E+01 -.149E+00   0.103E-02 -.805E-03 -.161E-03
   -.571E+02 0.447E+02 -.117E+02   0.615E+02 -.410E+02 0.491E+01   -.610E+01 -.517E+01 0.771E+01   0.141E-04 0.264E-03 -.271E-03
   -.138E+02 0.274E+02 -.766E+02   0.205E+02 -.189E+02 0.710E+02   0.179E+01 -.613E+01 0.353E+01   -.552E-03 -.449E-03 0.167E-04
   0.257E+02 0.634E+02 -.699E+02   -.217E+02 -.664E+02 0.649E+02   -.231E+00 -.567E+00 0.804E+01   0.598E-04 -.689E-04 0.673E-03
   0.715E+02 -.148E+02 0.475E+02   -.616E+02 0.142E+02 -.399E+02   -.161E+02 0.531E+00 -.137E+02   0.653E-03 -.317E-04 -.267E-03
   -.194E+02 -.239E+02 -.872E+02   0.226E+02 0.213E+02 0.796E+02   -.205E+01 0.265E+01 0.622E+01   0.219E-03 0.448E-03 -.107E-02
   -.304E+02 0.371E+02 -.160E+02   0.185E+02 -.403E+02 0.140E+02   0.129E+02 0.114E+01 0.168E+01   -.311E-03 -.421E-03 -.583E-03
   -.121E+03 -.565E+02 -.474E+02   0.118E+03 0.498E+02 0.427E+02   0.541E+01 0.881E+01 0.304E+01   -.142E-03 0.268E-03 -.322E-03
   -.654E+02 0.849E+02 -.157E+02   0.528E+02 -.779E+02 0.898E+01   0.146E+02 -.128E+02 0.311E+01   0.120E-03 -.397E-03 0.309E-03
   0.130E+02 -.233E+02 0.524E+02   -.190E+02 0.275E+02 -.534E+02   0.444E+01 -.407E+01 0.530E+00   -.376E-03 0.865E-03 0.121E-02
   0.525E+02 0.261E+01 0.811E+02   -.520E+02 0.993E+01 -.743E+02   0.505E+00 -.127E+02 -.820E+01   -.431E-03 0.774E-03 0.113E-02
   -.312E+02 0.101E+02 -.413E+02   0.313E+02 -.370E+01 0.328E+02   0.227E+01 -.951E+01 0.111E+02   -.630E-03 -.461E-03 -.709E-03
   0.309E+02 0.960E+02 -.184E+02   -.291E+02 -.843E+02 0.170E+02   -.207E+01 -.103E+02 -.180E+01   0.748E-03 -.407E-03 -.994E-03
   -.122E+03 0.192E+02 -.158E+02   0.108E+03 -.166E+02 0.141E+02   0.154E+02 -.220E+01 0.306E+01   -.344E-03 0.505E-03 0.105E-02
   0.267E+02 -.174E+02 0.325E+02   -.309E+02 0.178E+02 -.341E+02   0.200E+01 0.269E+01 0.610E+01   0.130E-03 -.353E-03 0.823E-03
   -.495E+01 0.165E+02 -.535E+02   0.792E+01 -.206E+02 0.523E+02   -.736E+01 0.278E+01 0.448E+01   0.924E-03 -.847E-03 0.818E-03
   0.300E+02 0.234E+02 0.430E+02   -.134E+02 -.248E+02 -.442E+02   -.168E+02 0.566E+01 0.402E+00   -.185E-03 -.859E-03 0.118E-02
   0.129E+02 -.134E+02 -.183E+02   -.612E+01 0.162E+02 0.814E+01   -.809E+01 -.720E+00 0.693E+01   -.348E-04 0.361E-03 -.570E-03
   -.334E+02 0.172E+02 -.139E+02   0.314E+02 -.137E+02 0.157E+02   0.681E+01 -.835E+01 -.182E+01   -.840E-03 0.217E-03 -.757E-03
   -.343E+02 0.514E+02 -.348E+02   0.255E+02 -.439E+02 0.332E+02   0.749E+01 -.109E+02 0.654E+01   -.267E-03 -.855E-03 -.213E-03
   0.346E+02 -.666E+02 0.137E+02   -.279E+02 0.642E+02 -.124E+02   -.474E+01 0.246E+01 -.700E+00   0.412E-03 -.646E-03 0.825E-03
   -.160E+02 0.577E+02 -.463E+02   0.177E+02 -.515E+02 0.388E+02   -.131E+00 -.734E+01 0.667E+01   -.331E-03 0.136E-03 -.103E-02
   -.460E+01 0.909E+01 0.227E+02   0.472E+00 -.171E+02 -.258E+02   0.727E+01 0.127E+01 0.288E+01   0.323E-03 -.114E-02 0.115E-02
   -.147E+02 -.680E+01 0.351E+01   0.866E+01 0.922E+01 -.320E+01   0.523E+01 -.412E+01 0.479E-01   0.233E-04 0.863E-03 0.128E-02
   -.122E+01 -.387E+02 -.625E+01   -.568E+01 0.381E+02 0.385E+01   0.109E+02 0.842E+00 0.281E+00   -.193E-03 0.435E-03 -.126E-02
   0.421E+02 0.569E+01 -.285E+02   -.414E+02 0.115E+01 0.269E+02   -.204E+01 -.447E+01 0.701E+01   0.864E-04 0.131E-02 -.253E-03
   -.767E+02 0.534E+01 0.667E+02   0.733E+02 -.577E+01 -.598E+02   0.415E+01 0.287E+01 -.348E+01   -.104E-02 -.849E-03 0.921E-05
   -.524E+02 -.889E+02 0.940E+02   0.436E+02 0.843E+02 -.794E+02   0.102E+02 0.842E+01 -.221E+02   0.418E-03 0.608E-03 -.135E-02
   0.310E+02 0.553E+02 -.102E+03   -.426E+02 -.630E+02 0.958E+02   0.140E+02 0.836E+01 0.103E+02   0.292E-03 0.530E-03 -.168E-02
   0.311E+01 -.289E+02 0.450E+02   -.346E+01 0.379E+02 -.497E+02   0.102E+01 -.857E+01 0.154E+01   -.428E-03 0.143E-02 0.167E-02
   -.382E+02 -.594E+02 0.333E+02   0.434E+02 0.645E+02 -.218E+02   -.525E+01 -.526E+01 -.137E+02   -.912E-03 -.130E-03 0.112E-02
   -.577E+02 0.111E+03 0.234E+02   0.653E+02 -.131E+03 -.433E+02   -.794E+01 0.195E+02 0.171E+02   0.105E-02 -.433E-03 0.181E-02
   0.318E+02 -.395E+02 -.128E+02   -.184E+02 0.254E+02 0.136E+02   -.123E+02 0.152E+02 -.189E+01   0.120E-03 0.120E-02 -.178E-03
   0.128E+02 -.275E+02 -.942E+02   -.107E+02 0.323E+02 0.978E+02   -.207E+01 -.214E+01 -.409E+01   -.500E-03 -.168E-02 -.157E-02
[...]
   -.316E+02 -.855E+02 0.168E+02   0.292E+02 0.997E+02 -.466E+02   0.398E+01 -.122E+02 0.314E+02   -.107E-02 0.928E-03 -.141E-02
   0.955E+02 -.371E+02 -.347E+02   -.113E+03 0.600E+02 0.310E+02   0.180E+02 -.251E+02 0.224E+01   0.982E-03 0.165E-02 -.119E-02
   0.353E+02 -.448E+02 -.345E+02   -.612E+02 0.553E+02 0.447E+02   0.244E+02 -.973E+01 -.900E+01   0.675E-03 0.215E-03 0.480E-03
   -.555E+02 -.441E+01 0.128E+03   0.569E+02 -.601E+01 -.120E+03   -.121E+01 0.123E+02 -.144E+02   -.966E-04 0.140E-03 0.311E-02
   -.334E+02 0.166E+02 0.490E+02   0.497E+02 -.208E+02 -.687E+02   -.180E+02 0.453E+01 0.230E+02   0.100E-02 -.108E-02 -.130E-02
   -.285E+02 -.532E+02 -.533E+02   0.325E+02 0.473E+02 0.354E+02   -.424E+01 0.979E+01 0.215E+02   -.264E-03 -.268E-03 -.719E-03
   0.356E+02 0.214E+02 -.110E+03   -.457E+02 -.174E+02 0.128E+03   0.724E+01 -.207E+01 -.166E+02   -.959E-03 -.475E-03 -.208E-02
   -.511E+01 0.308E+02 0.682E+02   0.297E+01 -.152E+01 -.828E+02   0.463E+01 -.270E+02 0.136E+02   -.688E-03 -.835E-03 0.162E-02
   0.251E+02 -.200E+02 -.630E+00   -.358E+02 0.256E+02 -.205E+02   0.117E+02 -.747E+01 0.188E+02   0.283E-03 -.799E-03 0.148E-02
   0.720E+02 -.651E+02 0.101E+02   -.794E+02 0.646E+02 0.470E+01   0.899E+01 0.362E+01 -.194E+02   -.818E-03 0.918E-03 0.111E-02
   -.119E+02 0.501E+02 -.237E+02   0.152E+02 -.561E+02 0.349E+02   -.415E+01 0.478E+01 -.111E+02   0.650E-03 -.772E-03 0.105E-02
   -.128E+02 0.442E+02 -.408E+02   0.257E+02 -.500E+02 0.240E+02   -.126E+02 0.570E+01 0.193E+02   -.435E-03 -.414E-03 -.160E-02
   0.678E+02 0.950E+02 0.725E+02   -.811E+02 -.927E+02 -.696E+02   0.152E+02 -.490E+01 -.370E+01   0.110E-03 0.763E-03 0.195E-02
   0.551E+02 -.655E+02 -.692E+02   -.660E+02 0.807E+02 0.867E+02   0.114E+02 -.171E+02 -.179E+02   0.317E-03 -.184E-03 0.118E-02
   -.704E+02 0.164E+03 -.979E+02   -.148E-11 0.682E-12 0.142E-13   0.704E+02 -.164E+03 0.979E+02   -.240E-02 -.539E-02 -.206E-02

 POSITION                                       TOTAL-FORCE (eV/Angst)
      5.35126      4.28926      1.11088        -1.910840      1.266969      0.412610
      0.10314      7.18019      6.48200         1.719747      2.091614     -2.143618
      9.33267     10.75932      0.89239        -0.458771     -1.222894      0.231501
      6.31217      3.93027      6.61854        -0.445396      4.031116     -0.268174
      6.39200      1.13087      1.31754        -2.123363     -2.082350      0.860020
      0.66475      4.10536      8.95249         0.697516     -1.459274      0.708546
      9.42731      5.97406      8.45704        -2.095209     -2.133703      2.640342
      6.24432      9.02101     11.07030         0.618444      0.288131      0.814309
      4.02133     10.83916     10.61872        -1.362835      0.782194      0.186686
      1.82422      5.22538      1.12687         0.371868     -2.270789     -1.027202
      0.22117      0.13751      7.47053        -1.178620      1.121928     -2.353725
      4.66342      7.85612      1.97950        -0.898432     -1.078050      1.690522
      3.58801      7.09354      6.40463         0.115091     -1.059921      2.429345
      8.38499      3.40572     11.59051        -0.594939      1.720899     -0.423142
      1.27541      8.62678      0.29042         1.963281     -0.728792     -0.536270
     10.12402      9.11087     10.11695        -0.371746     -0.368805     -1.723554
      6.01165      2.55685      9.56407         1.164367     -0.065739      0.866335
     10.81658      7.96149      2.30253        -1.082547     -0.092292      0.759058
     10.72507      2.37971      1.27858         1.337294     -0.842999      1.247322
      7.12679      9.13174      7.74421         0.062713     -1.369060     -0.709291
      3.06686      3.60403      6.71256        -2.854702      0.658723     -1.470788
      1.07460     10.37418      4.95344        -0.548341     -3.478250     -3.555407
      8.64131      5.32114      2.93796        -2.307749      0.721109     -1.636652
      8.64714     11.27118      4.58448         0.714965     -1.406531      0.530151
      5.46539     10.31849      4.45600        -0.513741     -0.553793     -0.151304
      0.06277      5.06221      4.45389         4.203716     -0.391553     -2.829457
      2.94039      2.27648      2.20464         0.212530      0.765638      2.353207
      2.82173     10.76744      2.34488        -1.672708     -1.470328      0.927645
     11.23060      1.45481      3.94389         8.447623      2.378192     -2.069629
     10.07900      4.17200      6.18155         3.822497     -3.638321      3.025529
      4.15458      4.54103      9.00447        -6.145569     -0.065962     -6.086438
      1.40453      6.71024      8.95114         1.197011      0.045655     -1.420512
      7.63230      0.18087     10.35969         0.952312     -2.119529     -0.286690
      1.27679      9.23215      8.34606         1.657733      2.124790     -1.697853
      5.75962      2.36634      4.13387         1.997109     -5.820748     -3.614422
      8.80481      7.09460      5.56719        -1.537971      0.140033     -0.453516
      9.94395      9.31910      6.87641         0.920046     -0.205016     -1.309022
      1.08149      0.70586      9.99785         2.286032     -3.117713      2.578313
      3.19579      2.40043     10.96719        -0.201176      1.467852     -3.197683
      1.92342      7.57456      3.63689         1.327049      0.358515      1.355100
      4.04897      4.71526      4.20582        -2.155293      3.036895      4.482934
      3.55717     11.31236      7.17735        -4.389759     -1.333146      3.304381
      8.74023      1.67612      7.24516        -0.218096      4.232037     -0.843345
      6.28204      5.96289      9.26334        -1.283599      2.047709     -3.270746
      0.36858     11.23031      1.09226         4.740699     -4.876272     -0.087466
      8.40642      2.79357      3.53814        -1.341069     -3.450432      4.990725
      2.94009      0.91215      4.99725         1.948233      0.059601      0.633396
     10.80373      5.79991      0.21460         1.511081     -1.124921     -0.822636
      6.36242      0.57165      7.40891         3.145505     -6.697993     -0.170581
      6.14098      7.17289      4.82566        -0.762223     -1.695782      0.358997
      8.01240      6.50874      0.03177         4.037783      0.156609     -2.122990
      7.87251      8.74876      2.23231        -1.369667      2.374935      5.353163
      9.90411      1.67444      9.95381         0.765830      2.432848      3.463705
      3.99883      6.86889     10.92905         1.448932      3.906514     -7.462924
     11.51492      6.14576      8.20809         2.405471      0.645621      4.041039
      6.71014      8.08719      3.54579         0.664578      0.412864     -3.195838
      4.34683      5.15221      5.99281        -0.106675     -0.155347     -2.138143
      3.68278     11.03837      5.61479        -0.365598     -0.535119     -2.788513
      8.47897      7.45926      1.48292         1.035447      1.068302     -1.096606
      8.37073      0.77848      1.08088         0.073876      2.683200     -0.544631
[...]
      7.87122     10.04627     10.35115         2.815835      2.072048      0.468368
      7.89555      7.31526     10.30889         1.536867      2.029964      1.632696
      6.79695      9.91820      1.78166         0.536786     -2.212368     -1.461884
      0.48043      8.09342      3.92538        -1.561094      0.814974      1.113292
      1.84578      6.63184      5.41756         0.208060      1.839861     -5.868723
      2.78971      1.04567      9.81311        -1.597312      0.236691      3.330456
      1.99328      6.97488      2.05568        -0.209709      3.964803      3.598823
     11.26663      0.26049      2.31204        -2.902344      1.961466      1.684390
      6.99494      1.88798      6.97148         2.489721      2.322916     -1.052955
      3.52318      4.75234      2.69193         1.007127     -1.943292     -2.272552
      9.15608      7.59926      7.31321         1.629190      3.122111     -4.603441
      4.56591      1.48857      4.90217        -0.852308     -1.210944      0.085767
      0.23198      5.32662     10.67600         0.361455     -0.143485      2.523454
      2.28579      4.47978      4.74788         1.906396     -2.593528     -0.742611
      2.63251      1.31137      6.67655         0.536458     -1.923558     -0.433934
    total drift:                                0.006079     -0.005759     -0.011381

  FREE ENERGIE OF THE ION-ELECTRON SYSTEM (eV)
  free  energy   TOTEN  =      -913.18436263 eV

  energy  without entropy=     -913.18436263  energy(sigma->0) =     -913.18436263