 vasp.5.4.4.18Apr17-6-g9f103f2a35 (build Oct 31 2019 15:01:46) complex

 executed on             LinuxIFC date 2024.04.29  08:52:56

 INCAR:
 POTCAR:    PAW_PBE Ca_sv 06Sep2000
 POTCAR:    PAW_PBE Si 05Jan2001
 POTCAR:    PAW_PBE O 08Apr2002
 POTCAR:    PAW_PBE Ca_sv 06Sep2000
   VRHFIN =Ca: 3s3p4s

   TITEL  = PAW_PBE Ca_sv 06Sep2000
   POMASS =   40.078; ZVAL   =   10.000    mass and valenz
   ENMAX  =  266.622; ENMIN  =  199.967 eV

   TITEL  = PAW_PBE Si 05Jan2001
   POMASS =   28.085; ZVAL   =    4.000    mass and valenz
   ENMAX  =  245.345; ENMIN  =  184.009 eV

   TITEL  = PAW_PBE O 08Apr2002
   POMASS =   16.000; ZVAL   =    6.000    mass and valenz
   ENMAX  =  400.000; ENMIN  =  300.000 eV

 Optimization of the real space projectors (new method)

 maximal supplied QI-value         = 16.25
 optimisation between [QCUT,QGAM] = [ 12.51, 25.03] = [ 43.85,175.40] Ry
 Optimized for a Real-space Cutoff    1.47 Angstroem

   l    n(q)    QCUT    max X(q) W(low)/X(q) W(high)/X(q)  e(spline)
   0     11    12.514    11.817    0.25E-04    0.32E-05    0.87E-07
   0     11    12.514     8.461    0.39E-04    0.59E-05    0.18E-06
   1     11    12.514     3.957    0.97E-05    0.57E-05    0.28E-07
   1     11    12.514     4.314    0.42E-04    0.14E-04    0.23E-06
   2     10    12.514    14.565    0.79E-04    0.50E-03    0.16E-05
   2     10    12.514    14.552    0.75E-04    0.48E-03    0.15E-05
 Optimization of the real space projectors (new method)

[...]

   l    n(q)    QCUT    max X(q) W(low)/X(q) W(high)/X(q)  e(spline)
   0      9    12.501   159.560    0.10E-03    0.83E-04    0.71E-07
   0      9    12.501   115.863    0.99E-04    0.81E-04    0.70E-07
   1      8    12.501    88.339    0.20E-03    0.25E-03    0.76E-07
   1      8    12.501    48.592    0.20E-03    0.24E-03    0.75E-07
 Optimization of the real space projectors (new method)

 maximal supplied QI-value         = 24.76
 optimisation between [QCUT,QGAM] = [ 12.38, 25.00] = [ 42.90,175.06] Ry
 Optimized for a Real-space Cutoff    1.16 Angstroem

   l    n(q)    QCUT    max X(q) W(low)/X(q) W(high)/X(q)  e(spline)
   0      9    12.378    20.381    0.16E-03    0.67E-05    0.31E-06
   0      9    12.378    15.268    0.17E-03    0.81E-05    0.33E-06
   1      8    12.378     5.964    0.20E-03    0.16E-03    0.30E-06
   1      8    12.378     5.382    0.18E-03    0.14E-03    0.26E-06
  PAW_PBE Ca_sv 06Sep2000               :
  PAW_PBE Si 05Jan2001                  :
  PAW_PBE O 08Apr2002                   :

 POSCAR: Ca Si  O
  positions in direct lattice
 exchange correlation table for  LEXCH =        8
   RHO(1)=    0.500       N(1)  =     2000
   RHO(2)=  100.500       N(2)  =     4000

 ion  position               nearest neighbor table
   1  0.745  0.851  0.499- 104 1.99  82 2.01 107 2.40  28 2.86  26 3.01  41 3.04  34 3.15
   2  0.351  0.730  0.153- 121 2.14 114 2.19 109 2.44  53 2.94  30 3.15
   3  0.126  0.981  0.471- 102 1.79 125 1.96  32 3.04
   4  0.994  0.844  0.659- 115 2.26  82 2.45  31 2.78
   5  0.034  0.586  0.763-  97 2.15 101 2.40  40 2.99
   6  0.500  0.880  0.282- 109 2.41
   7  0.225  0.933  0.829- 108 2.11  95 2.27  87 2.51 120 2.52
   8  0.019  0.326  0.864-  74 2.12 123 2.39  55 2.42  49 3.10
   9  0.212  0.390  0.107-  89 2.26 119 2.42  52 2.86  17 2.92
  10  0.425  0.366  0.798-  94 2.09 124 2.30  69 2.43  35 3.14
  11  0.700  0.385  0.501-  79 1.97  88 2.08  61 2.42  45 2.95
  12  0.217  0.735  0.423-  76 2.12 121 2.24 115 2.30  60 2.30  67 2.48  31 3.07
  13  0.460  0.339  0.547- 110 2.03 112 2.17  94 2.26  18 2.96  38 2.97
  14  0.582  0.417  0.008-  68 2.55
  15  0.584  0.073  0.970-  77 2.16  91 2.38  98 2.40 128 2.50
  16  0.846  0.165  0.818- 123 2.21  91 2.44  43 3.01  51 3.12
  17  0.246  0.218  0.239-  78 2.26 129 2.34 127 2.46 119 2.54   9 2.92  52 3.13  18 3.16
  18  0.438  0.197  0.377- 110 2.43  13 2.96  17 3.16
  19  0.930  0.726  0.240-  75 2.36 134 2.37  33 3.15
  20  0.398  0.929  0.539- 111 2.19 113 2.22
  21  0.645  0.754  0.076-  73 2.05
  22  0.158  0.739  0.966- 114 2.44 120 2.49  63 2.56
  23  0.751  0.516  0.751-  83 2.08  61 2.10 133 2.31  90 2.40  55 2.49  50 2.66  37 2.87
  24  0.853  0.193  0.208-  71 1.90  25 2.98
  25  0.938  0.390  0.270-  75 2.15  89 2.26  71 2.34  79 2.49  49 2.66  45 2.67  24 2.98
  26  0.762  0.043  0.617-  92 2.21  81 2.23  72 2.37 107 2.56  38 2.97   1 3.01
  27  0.317  0.051  0.032- 129 2.15  98 2.15 128 2.32  52 2.85
  28  0.821  0.661  0.563-  82 1.58 133 1.64 118 1.72 104 1.83   1 2.86
  29  0.989  0.982  0.182-  64 1.49 131 1.56 132 1.57  84 1.82  42 2.62  33 2.89
  30  0.440  0.851  0.970- 128 1.58 120 1.61  59 1.78 109 1.86  47 2.86   2 3.15
  31  0.192  0.775  0.649- 113 1.54  62 1.58 115 1.82  60 1.87   4 2.78  12 3.07
  32  0.275  0.984  0.299- 127 1.61  67 1.70  85 1.72 125 1.82  33 2.98   3 3.04
  33  0.140  0.829  0.211-  76 1.59  85 1.60  64 1.67 114 1.83  29 2.89  32 2.98  19 3.15
  34  0.566  0.697  0.516-  80 1.64 126 1.69 104 1.81 103 2.53  50 3.00   1 3.15
  35  0.274  0.185  0.810-  99 1.56 124 1.60  95 1.69  10 3.14
  36  0.885  0.748  0.958- 134 1.56  63 1.64 122 1.67  96 1.69  37 3.02  39 3.14
  37  0.835  0.527  0.949-  90 1.51 116 1.59  96 1.69  55 1.75  49 2.75  23 2.87  36 3.02
  38  0.569  0.146  0.570-  92 1.55 135 1.61 112 1.71 111 1.74  43 2.76  13 2.97  26 2.97
  39  0.724  0.885  0.854-  77 1.45 122 1.61  72 1.63  36 3.14
  40  0.253  0.542  0.791-  97 1.55  66 1.55  93 1.73  46 2.80   5 2.99
  41  0.782  0.992  0.324- 107 1.56  65 1.64 132 1.92  86 1.99   1 3.04
  42  0.045  0.023  0.998- 108 1.60  57 1.75  84 1.79 131 2.35  29 2.62
  43  0.664  0.255  0.720- 112 1.68 130 1.85  83 1.87  91 2.03  38 2.76  16 3.01
  44  0.627  0.360  0.253-  70 1.53 100 1.60  88 1.80
  45  0.822  0.518  0.371-  58 1.64  79 1.73 118 1.76  75 1.99  25 2.67  11 2.95
  46  0.196  0.539  0.589- 106 1.63  60 1.65 101 1.69  66 1.73  40 2.80  48 3.12
  47  0.471  0.658  0.883-  68 1.63  59 1.65  93 1.81  56 1.85  30 2.86
  48  0.289  0.428  0.404- 106 1.63  78 1.69 117 1.77 110 1.81  53 2.88  46 3.12
  49  0.949  0.405  0.071-  71 1.72  89 1.73  74 1.78 116 1.78  25 2.66  37 2.75   8 3.10
  50  0.568  0.533  0.671-  94 1.59  61 1.64  56 1.79  80 1.94  23 2.66  34 3.00
  51  0.020  0.097  0.677-  81 1.55  87 1.63 123 1.66 102 2.05  16 3.12
  52  0.370  0.258  0.044-  69 1.53  98 1.63 119 1.76 129 2.10  27 2.85   9 2.86  17 3.13
  53  0.402  0.588  0.314- 105 1.51 117 1.57 121 1.64 103 1.96  54 2.76  48 2.88   2 2.94
  54  0.605  0.598  0.268- 103 1.51  73 1.59  58 1.76 100 2.03 105 2.22  53 2.76
  55  0.894  0.457  0.855-  37 1.75   8 2.42  23 2.49
  56  0.547  0.619  0.773-  50 1.79  47 1.85
  57  0.012  0.147  0.968-  42 1.75
  58  0.708  0.552  0.336-  45 1.64  54 1.76
  59  0.517  0.771  0.896-  47 1.65  30 1.78
  60  0.226  0.659  0.578-  46 1.65  31 1.87  12 2.30
[...]
 121  0.321  0.680  0.303-  53 1.64   2 2.14  12 2.24
 122  0.782  0.791  0.903-  39 1.61  36 1.67
 123  0.989  0.200  0.740-  51 1.66  16 2.21   8 2.39
 124  0.390  0.198  0.781-  35 1.60  10 2.30
 125  0.180  0.061  0.359-  32 1.82   3 1.96
 126  0.525  0.804  0.462-  34 1.69
 127  0.350  0.066  0.251-  32 1.61  17 2.46
 128  0.434  0.965  0.935-  30 1.58  27 2.32  15 2.50
 129  0.232  0.184  0.068-  52 2.10  27 2.15  17 2.34
 130  0.777  0.254  0.639-  43 1.85
 131  0.033  0.089  0.161-  29 1.56  42 2.35
 132  0.914  0.007  0.269-  29 1.57  41 1.92
 133  0.851  0.639  0.681-  28 1.64  23 2.31
 134  0.871  0.721  0.071-  36 1.56  19 2.37
 135  0.641  0.181  0.479-  38 1.61

IMPORTANT INFORMATION: All symmetrisations will be switched off!
NOSYMM: (Re-)initialisation of all symmetry stuff for point group C_1.

Automatic generation of k-mesh.
 generate k-points for:    2    2    2
Space group operators:
 irot       det(A)        alpha          n_x          n_y          n_z        tau_x        tau_y        tau_z
    1     1.000000     0.000001     1.000000     0.000000     0.000000     0.000000     0.000000     0.000000

 Subroutine IBZKPT returns following result:

 Found      8 irreducible k-points:

 Following reciprocal coordinates:
            Coordinates               Weight
  0.000000  0.000000  0.000000      1.000000
  0.500000  0.000000  0.000000      1.000000
  0.000000  0.500000  0.000000      1.000000
  0.500000  0.500000  0.000000      1.000000
  0.000000  0.000000  0.500000      1.000000
  0.500000  0.000000  0.500000      1.000000
  0.000000  0.500000  0.500000      1.000000
  0.500000  0.500000  0.500000      1.000000

 Following cartesian coordinates:
            Coordinates               Weight
  0.000000  0.000000  0.000000      1.000000
  0.037563  0.000000  0.000000      1.000000
  0.000000  0.037563  0.000000      1.000000
  0.037563  0.037563  0.000000      1.000000
  0.000000  0.000000  0.037563      1.000000
  0.037563  0.000000  0.037563      1.000000
  0.000000  0.037563  0.037563      1.000000
  0.037563  0.037563  0.037563      1.000000

 SYSTEM =  unknown system
 POSCAR =  Ca Si  O

 Startparameter for this run:
   NWRITE =      2    write-flag & timer
   PREC   = a         normal or accurate (medium, high low for compatibility)
   ISTART =      0    job   : 0-new  1-cont  2-samecut
   ICHARG =      2    charge: 1-file 2-atom 10-const
   ISPIN  =      1    spin polarized calculation?
   LNONCOLLINEAR =      F non collinear calculations
   LSORBIT =      F    spin-orbit coupling
   INIWAV =      1    electr: 0-lowe 1-rand  2-diag
   LASPH  =      F    aspherical Exc in radial PAW
   METAGGA=      F    non-selfconsistent MetaGGA calc.

 Electronic Relaxation 1
   ENCUT  =  600.0 eV  44.10 Ry    6.64 a.u.  26.59 26.59 26.59*2*pi/ulx,y,z
   ENINI  =  600.0     initial cutoff
   ENAUG  =  605.4 eV  augmentation charge cutoff
   NELM   =     60;   NELMIN=  2; NELMDL= -5     # of ELM steps
   EDIFF  = 0.1E-05   stopping-criterion for ELM
   LREAL  =      T    real-space projection
   NLSPLINE    = F    spline interpolate recip. space projectors
   LCOMPAT=      F    compatible to vasp.4.4
   GGA_COMPAT  = T    GGA compatible to vasp.4.4-vasp.4.6
   LMAXPAW     = -100 max onsite density
   LMAXMIX     =    2 max onsite mixed and CHGCAR
   VOSKOWN=      0    Vosko Wilk Nusair interpolation
   ROPT   =   -0.00025  -0.00025  -0.00025
 Ionic relaxation
   EDIFFG = -.1E-01   stopping-criterion for IOM
   NSW    =      1    number of steps for IOM
   NBLOCK =      1;   KBLOCK =      1    inner block; outer block
   IBRION =     -1    ionic relax: 0-MD 1-quasi-New 2-CG
   NFREE  =      0    steps in history (QN), initial steepest desc. (CG)
   ISIF   =      2    stress and relaxation
   IWAVPR =     10    prediction:  0-non 1-charg 2-wave 3-comb
   ISYM   =      0    0-nonsym 1-usesym 2-fastsym
   LCORR  =      T    Harris-Foulkes like correction to forces

   POTIM  = 1.0000    time-step for ionic-motion
   TEIN   =    0.0    initial temperature
   TEBEG  =    0.0;   TEEND  =   0.0 temperature during run
   SMASS  =  -3.00    Nose mass-parameter (am)
   estimated Nose-frequenzy (Omega)   =  0.10E-29 period in steps =****** mass=  -0.405E-26a.u.
   SCALEE = 1.0000    scale energy and forces
[...]
     0.000000000  0.000000000 13.310935620     0.000000000  0.000000000  0.075126199

  length of vectors
    13.310935620 13.310935620 13.310935620     0.075126199  0.075126199  0.075126199

 FORCES acting on ions
    electron-ion (+dipol)            ewald-force                    non-local-force                 convergence-correction
   0.121E+03 -.201E+03 0.532E+02   -.115E+03 0.200E+03 -.589E+02   -.543E+01 0.518E+01 0.248E+01   0.132E-02 0.176E-03 0.598E-03
   -.449E+02 0.100E+03 0.176E+03   0.410E+02 -.103E+03 -.174E+03   0.389E+01 0.174E+01 -.334E+01   -.308E-03 -.423E-03 0.559E-03
   -.222E+02 -.120E+03 -.481E+02   0.189E+02 0.123E+03 0.481E+02   0.452E+01 -.760E+01 0.994E+00   -.222E-02 0.225E-02 0.154E-03
   0.114E+03 -.637E+02 -.540E+02   -.116E+03 0.653E+02 0.505E+02   -.372E+00 -.342E+00 0.368E+01   -.397E-03 -.266E-03 -.261E-03
   0.704E+02 0.685E+02 0.128E+03   -.735E+02 -.720E+02 -.127E+03   -.388E+00 0.342E+01 -.434E+00   -.589E-03 -.161E-02 -.170E-02
   -.213E+03 -.244E+03 -.245E+02   0.213E+03 0.242E+03 0.247E+02   0.645E+00 0.162E+01 0.272E+00   0.786E-04 -.670E-03 -.481E-04
   -.192E+03 -.797E+01 0.252E+03   0.186E+03 0.152E+02 -.250E+03   0.519E+01 -.561E+01 -.329E+01   -.845E-03 -.240E-04 0.159E-03
   -.754E+02 0.123E+03 0.151E+03   0.761E+02 -.121E+03 -.150E+03   0.215E+00 -.244E+01 -.197E+01   -.673E-03 -.688E-04 -.195E-02
   0.305E+02 -.183E+03 0.194E+02   -.342E+02 0.182E+03 -.190E+02   0.233E+01 0.138E+01 -.107E+01   -.190E-02 -.437E-03 0.272E-02
   0.781E+02 0.273E+02 -.101E+03   -.803E+02 -.332E+02 0.101E+03   0.632E+00 0.383E+01 0.150E+01   -.866E-04 0.966E-04 -.604E-03
   -.243E+03 0.125E+03 -.794E+02   0.243E+03 -.128E+03 0.776E+02   -.580E+00 0.152E+01 0.548E+01   0.317E-02 -.858E-03 -.353E-03
   0.482E+02 0.161E+03 -.500E+02   -.509E+02 -.160E+03 0.476E+02   0.275E+01 -.156E+01 0.252E+01   -.137E-02 -.232E-02 0.570E-03
   0.196E+03 0.554E+02 0.240E+02   -.197E+03 -.534E+02 -.218E+02   0.215E+01 -.287E+00 -.132E+01   -.351E-04 0.563E-03 -.949E-03
   -.808E+02 0.165E+03 -.337E+02   0.804E+02 -.158E+03 0.340E+02   0.490E+00 -.449E+01 -.234E+00   0.393E-03 0.143E-03 0.535E-04
   -.134E+03 -.643E+02 -.120E+03   0.132E+03 0.645E+02 0.114E+03   0.247E+00 0.892E+00 0.496E+01   -.962E-06 0.334E-03 -.123E-02
   0.510E+02 -.795E+01 -.192E+03   -.485E+02 0.637E+01 0.187E+03   -.190E+01 0.611E+00 0.408E+01   0.122E-02 0.105E-02 -.201E-02
   0.173E+03 -.250E+02 -.192E+03   -.174E+03 0.236E+02 0.191E+03   -.580E+00 -.104E+00 0.197E+01   -.223E-02 0.223E-02 0.156E-02
   -.359E+02 0.113E+03 0.111E+03   0.362E+02 -.115E+03 -.108E+03   0.382E+00 0.939E+00 -.338E+01   -.644E-03 0.214E-02 -.390E-04
   0.249E+02 0.367E+02 -.107E+03   -.282E+02 -.378E+02 0.103E+03   0.204E+01 0.119E+01 0.284E+01   0.124E-03 -.222E-02 0.669E-03
   -.735E+02 -.850E+02 -.177E+03   0.746E+02 0.860E+02 0.177E+03   -.270E+00 -.926E+00 -.328E+00   0.292E-04 -.538E-03 0.569E-03
   -.920E+02 -.124E+03 0.116E+03   0.944E+02 0.121E+03 -.111E+03   -.105E+01 0.261E+01 -.618E+01   0.672E-03 -.522E-03 -.622E-04
   0.486E+01 0.178E+03 -.257E+02   -.826E+01 -.174E+03 0.277E+02   0.182E+01 -.295E+01 -.201E+01   -.780E-03 0.301E-03 -.939E-03
   -.137E+03 -.209E+02 -.231E+02   0.142E+03 0.185E+02 0.258E+02   -.583E+00 0.285E+01 0.630E-01   0.160E-02 -.130E-02 -.890E-03
   0.957E+02 0.115E+03 -.112E+03   -.971E+02 -.120E+03 0.108E+03   -.351E+00 -.114E+00 0.516E+01   0.211E-02 0.203E-02 0.189E-02
   -.175E+03 0.184E+03 -.317E+03   0.179E+03 -.177E+03 0.313E+03   -.136E+01 -.689E+01 0.489E+01   0.204E-02 -.442E-03 0.346E-02
   -.549E+01 -.303E+02 0.764E+02   0.764E+01 0.328E+02 -.748E+02   -.724E+00 -.149E+01 -.228E+01   0.143E-02 0.172E-02 -.399E-03
   -.286E+02 0.661E+02 -.245E+02   0.294E+02 -.606E+02 0.226E+02   -.176E+01 -.644E+01 0.191E+01   -.867E-03 0.692E-03 -.276E-03
   -.229E+02 0.778E+02 0.426E+02   0.331E+02 -.689E+02 -.329E+02   -.946E+01 -.962E+01 -.726E+01   0.810E-03 -.794E-03 -.436E-04
   0.517E+02 -.214E+02 -.360E+02   -.532E+02 0.299E+02 0.352E+02   -.377E+01 -.201E+01 -.223E+01   0.556E-04 0.767E-03 0.232E-03
   -.104E+03 0.356E+02 0.397E+02   0.937E+02 -.238E+02 -.433E+02   0.104E+02 -.102E+02 0.494E+01   -.144E-03 0.137E-03 -.277E-03
   -.358E+02 -.213E+01 -.350E+02   0.381E+02 0.631E+01 0.337E+02   -.372E+01 -.726E+01 -.496E+01   -.366E-03 -.497E-03 -.642E-04
   -.159E+02 -.595E+02 -.628E+02   0.166E+02 0.631E+02 0.627E+02   -.441E+01 -.283E+01 0.136E+01   -.401E-03 0.581E-03 -.488E-04
   0.284E+02 0.299E+02 0.368E+02   -.296E+02 -.320E+02 -.284E+02   0.101E+01 -.170E+01 -.950E+01   -.312E-03 -.275E-03 0.270E-03
   0.250E+02 -.574E+02 -.519E+02   -.282E+02 0.576E+02 0.523E+02   0.457E+01 0.798E+00 -.257E+01   0.291E-03 -.449E-03 -.794E-05
   0.491E+02 0.639E+02 0.849E+02   -.443E+02 -.538E+02 -.849E+02   -.532E+01 -.110E+02 0.132E+01   -.495E-03 0.278E-03 0.544E-04
   0.290E+02 -.978E+02 -.134E+02   -.217E+02 0.912E+02 0.171E+02   -.421E+01 0.489E+01 -.595E+01   0.234E-03 -.356E-03 -.232E-04
   0.114E+02 0.333E+02 -.357E+02   -.162E+02 -.326E+02 0.340E+02   0.109E+02 -.300E+00 -.141E+01   0.389E-03 -.315E-03 -.206E-03
   0.583E+02 0.457E+02 0.911E+01   -.493E+02 -.547E+02 -.116E+02   -.950E+01 0.697E+01 -.852E-01   0.831E-03 0.365E-03 0.847E-04
   0.880E+02 0.420E+02 0.501E+02   -.799E+02 -.287E+02 -.471E+02   -.271E+01 -.162E+02 -.941E+01   -.333E-04 0.241E-03 -.391E-03
   -.305E+02 0.147E+02 -.333E+02   0.238E+02 -.155E+02 0.330E+02   0.972E+01 0.265E+01 0.338E+01   -.741E-03 -.256E-03 -.625E-03
   0.334E+02 -.138E+02 0.738E+02   -.374E+02 0.178E+02 -.655E+02   0.514E+01 -.738E+01 -.112E+02   0.616E-03 0.648E-03 0.538E-03
   0.406E+02 -.370E+02 0.173E+02   -.449E+02 0.392E+02 -.213E+02   -.725E+00 0.306E+01 0.448E+01   0.149E-03 0.470E-03 -.112E-03
   -.311E+02 0.735E+02 -.929E+02   0.361E+02 -.673E+02 0.902E+02   -.128E+01 -.265E+01 0.526E+01   0.752E-03 0.243E-03 -.389E-03
   -.242E+02 0.794E+02 0.164E+02   0.222E+02 -.831E+02 -.231E+02   0.359E+00 0.566E+01 0.124E+02   0.479E-03 0.952E-04 0.635E-03
   -.128E+03 -.726E+01 -.140E+02   0.123E+03 0.608E+01 0.117E+02   0.510E+01 0.325E+01 0.703E+00   0.115E-02 -.107E-02 0.420E-03
   0.481E+02 0.647E+02 0.347E+02   -.561E+02 -.668E+02 -.351E+02   0.459E+01 -.848E-01 0.739E+00   -.111E-02 -.880E-03 -.725E-03
   0.247E+02 -.556E+02 0.540E+02   -.182E+02 0.469E+02 -.444E+02   -.516E+01 0.253E+01 -.112E+02   -.148E-03 -.298E-04 -.786E-04
   0.583E+02 0.219E+01 0.465E+02   -.664E+02 -.963E+01 -.433E+02   0.670E+01 0.240E+01 -.188E+01   -.159E-02 -.424E-03 -.588E-05
   0.335E+02 0.567E+02 0.169E+02   -.257E+02 -.534E+02 -.162E+02   -.400E+01 -.291E+00 -.222E+01   0.339E-03 -.123E-03 0.833E-03
   0.546E+02 -.106E+03 -.353E+02   -.529E+02 0.969E+02 0.323E+02   -.357E+01 0.110E+02 0.210E+01   0.401E-03 -.586E-03 -.246E-03
   -.979E+02 -.142E+03 0.934E+02   0.901E+02 0.134E+03 -.870E+02   0.932E+01 0.758E+01 -.867E+01   -.620E-03 0.119E-02 -.483E-03
   -.794E+01 0.114E+02 0.191E+01   0.154E+02 -.591E+01 -.300E+01   -.814E+01 -.797E+01 0.598E+01   -.267E-03 0.101E-03 0.394E-03
   0.713E+02 0.553E+02 -.416E+02   -.698E+02 -.546E+02 0.307E+02   -.527E+00 0.388E+01 0.120E+02   -.516E-03 -.612E-03 0.280E-03
   -.544E+02 0.901E+02 0.692E+02   0.548E+02 -.717E+02 -.644E+02   0.414E+01 -.224E+02 -.775E+01   0.462E-03 -.466E-03 0.254E-03
   -.160E+02 0.152E+03 0.101E+03   0.255E+02 -.160E+03 -.113E+03   -.110E+02 0.789E+01 0.126E+02   0.693E-03 -.442E-03 -.123E-02
   0.648E+01 -.161E+03 0.116E+00   0.260E+01 0.172E+03 0.206E+01   -.938E+01 -.114E+02 -.308E+01   -.957E-06 -.441E-03 -.381E-04
   0.734E+02 -.822E+02 0.135E+02   -.771E+02 0.103E+03 -.127E+02   0.427E+01 -.230E+02 -.186E+01   0.141E-03 0.838E-03 -.204E-03
   -.602E+02 -.430E+02 0.205E+02   0.520E+02 0.422E+02 -.174E+02   0.744E+01 0.210E+01 -.312E+01   0.120E-02 -.969E-03 0.329E-03
   -.951E+02 -.899E+02 0.144E+03   0.119E+03 0.103E+03 -.156E+03   -.256E+02 -.122E+02 0.138E+02   -.377E-03 0.145E-04 0.335E-04
   -.653E+02 0.582E+02 -.388E+01   0.773E+02 -.458E+02 -.428E+01   -.123E+02 -.128E+02 0.927E+01   -.116E-02 -.142E-02 -.129E-03
[...]
   0.917E+02 -.318E+02 0.271E+02   -.948E+02 0.164E+02 -.289E+02   0.147E+01 0.150E+02 0.222E+01   -.161E-03 -.134E-03 -.437E-03
   -.108E+03 -.150E+03 0.146E+03   0.104E+03 0.169E+03 -.139E+03   0.492E+01 -.185E+02 -.749E+01   -.248E-03 0.183E-02 -.161E-02
   -.596E+02 0.169E+03 0.908E+02   0.888E+02 -.170E+03 -.992E+02   -.276E+02 -.612E+00 0.847E+01   0.624E-03 0.265E-03 0.215E-03
   0.750E+02 -.235E+03 -.592E+02   -.895E+02 0.251E+03 0.624E+02   0.193E+02 -.164E+02 -.737E+01   -.127E-02 0.253E-02 -.469E-03
   0.694E+00 -.114E+03 -.798E+02   -.701E+01 0.131E+03 0.676E+02   0.675E+01 -.187E+02 0.145E+02   0.316E-03 -.981E-03 0.261E-03
   -.174E+03 -.567E+02 -.130E+02   0.191E+03 0.736E+02 -.124E+01   -.158E+02 -.168E+02 0.145E+02   -.869E-03 0.101E-02 -.196E-03
   -.125E+03 -.667E+02 0.189E+03   0.122E+03 0.937E+02 -.201E+03   0.506E+01 -.256E+02 0.121E+02   0.541E-04 0.236E-03 -.451E-03
   0.146E+03 -.733E+02 0.339E+02   -.163E+03 0.684E+02 -.381E+02   0.192E+02 0.843E+01 0.469E+01   -.105E-02 0.353E-03 0.573E-03
   -.231E+03 -.185E+02 0.854E+02   0.249E+03 0.202E+02 -.976E+02   -.222E+02 -.298E+01 0.155E+02   0.219E-02 0.496E-03 -.137E-02
   -.321E+02 -.199E+03 -.750E+02   0.420E+02 0.231E+03 0.707E+02   -.615E+01 -.301E+02 0.424E+01   0.298E-03 0.162E-02 0.643E-03
   0.590E+02 -.687E+02 -.112E+03   -.631E+02 0.768E+02 0.134E+03   0.179E+00 -.803E+01 -.193E+02   0.448E-03 0.130E-02 0.793E-03
   -.692E+02 -.200E+02 -.442E+02   0.761E+02 0.213E+02 0.703E+02   -.688E+01 -.260E+01 -.270E+02   0.924E-03 -.106E-02 -.417E-03
   0.448E+02 -.399E+02 -.110E+03   -.482E+02 0.284E+02 0.137E+03   0.238E+01 0.132E+02 -.228E+02   0.311E-04 -.834E-03 0.645E-03
   -.128E+03 0.774E+02 0.194E+03   0.149E+03 -.710E+02 -.217E+03   -.229E+02 -.591E+01 0.233E+02   0.182E-02 0.114E-02 -.134E-03
   -.166E+02 0.142E+03 0.347E+01   -.568E-13 0.597E-12 0.796E-12   0.165E+02 -.142E+03 -.348E+01   0.188E-02 -.429E-02 0.508E-03

 POSITION                                       TOTAL-FORCE (eV/Angst)
      9.91402     11.33095      6.64878         0.252747      3.948958     -3.223847
      4.67216      9.72305      2.03662        -0.010233     -0.796371     -0.760129
      1.67072     13.06220      6.26375         1.209356     -4.374751      0.980619
     13.23769     11.24097      8.76683        -2.109189      1.342041      0.180973
      0.44880      7.80583     10.15921        -3.554347     -0.128181     -0.076268
      6.66047     11.71003      3.75281         0.837551     -0.434083      0.465661
      2.99575     12.41489     11.04070        -0.451339      1.565101     -1.347305
      0.25152      4.33518     11.49949         0.995959     -0.698238     -1.115094
      2.82117      5.19698      1.42702        -1.319556      0.905676     -0.574381
      5.65669      4.87094     10.62252        -1.587304     -2.093377      1.495583
      9.31340      5.12070      6.66350        -0.636967     -1.903090      3.632201
      2.89091      9.78723      5.63003         0.048495      0.103774      0.128168
      6.11862      4.51521      7.28215         0.923259      1.745879      0.815873
      7.74123      5.54430      0.11155         0.053896      1.716975      0.075063
      7.77300      0.97054     12.90649        -0.901032      1.117695     -1.030136
     11.26760      2.19534     10.89311         0.593243     -0.969643     -0.410896
      3.27109      2.90756      3.18787        -1.019750     -1.494234      0.145255
      5.83103      2.62453      5.02236         0.760779     -1.083274      0.082832
     12.37380      9.66026      3.18831        -1.219681      0.136269     -0.600854
      5.29526     12.36543      7.17919         0.826634      0.046384     -0.098657
      8.58170     10.02990      1.01409         1.362068     -0.130283     -0.522063
      2.10628      9.83946     12.86305        -1.572599      0.624665      0.063543
      9.98989      6.86970      9.99936         3.447627      0.359048      2.830019
     11.35322      2.56505      2.76871        -1.797254     -5.306962      1.292670
     12.48664      5.19073      3.59419         2.215154      0.476933      0.574550
     10.14362      0.57879      8.21869         1.427527      1.085783     -0.648053
      4.21795      0.68410      0.41986        -0.975807     -0.929211     -0.020922
     10.92754      8.79316      7.49965         0.724366     -0.729160      2.465134
     13.16859     13.07080      2.41950        -5.256557      6.468574     -3.026213
      5.85104     11.33176     12.90511         0.051190      1.655469      1.376834
      2.55088     10.31907      8.63842        -1.508826     -3.080609     -6.213992
      3.66528     13.10069      3.97555        -3.724920      0.718354      1.284596
      1.86801     11.03351      2.81326        -0.164632     -3.777177     -1.057004
      7.53428      9.27140      6.86809         1.339209      0.967557     -2.226782
      3.65220      2.45734     10.77591        -0.496240     -0.923860      1.306051
     11.78650      9.95827     12.74996         3.046553     -1.758433     -2.211752
     11.11169      7.01700     12.63513         6.048520      0.431850     -3.124546
      7.57675      1.94420      7.59319        -0.584468     -1.982004     -2.584668
      9.63474     11.78221     11.36869         5.322182     -2.923575     -6.463720
      3.36255      7.21984     10.52735         3.045341      1.796138      3.028796
     10.40291     13.21012      4.31097         1.176711     -3.438485     -2.787708
      0.59419      0.30959     13.27778        -5.051679      5.261833      0.477369
      8.83261      3.39319      9.58174         3.755911      3.526575      2.557390
      8.34839      4.79562      3.36797        -1.598978      2.051168      5.695311
     10.93535      6.89242      4.94238         0.373453      2.072200     -1.558419
      2.60675      7.17861      7.83574        -3.401327     -2.195044      0.364626
      6.26759      8.75269     11.74746         1.293724     -6.137309     -1.656182
      3.84538      5.69383      5.38267        -1.418421     -5.039062      1.391800
     12.62562      5.39213      0.94566         3.807630      3.095389     -1.468685
      7.55983      7.09595      8.93597        -1.818588      1.981580     -0.842025
      0.27278      1.29021      9.01037         1.510489     -0.030621     -2.265049
      4.92244      3.44085      0.58764        -0.675100     -2.491653      4.882666
      5.35738      7.82920      4.17765         0.931680      4.549017      1.047810
      8.04763      7.95493      3.57109         4.563552     -4.034937     -2.990187
     11.90277      6.08763     11.38559        -1.441240     -0.531363      0.035727
      7.28106      8.23668     10.29166        -0.306333     -0.881778     -0.908633
      0.16170      1.95763     12.88059         0.546408     -2.569295     -1.016119
      9.42542      7.34923      4.47875        -0.763539      1.283173     -0.059101
      6.88746     10.26810     11.92951        -1.540335      1.269843      1.478893
      3.01335      8.77390      7.69106        -0.199886     -0.454687      1.102280
[...]
      4.27298      9.05408      4.03037         0.712426     -1.617929      1.582226
     10.40445     10.52747     12.01388        -1.600374     -0.392487      0.438516
     13.16086      2.66246      9.84675         1.518478      0.637825     -0.268003
      5.19047      2.63460     10.38924         1.695992     -1.806995      0.099288
      2.39240      0.80976      4.77996         4.767077     -0.328524     -4.138047
      6.99187     10.70575      6.14782         0.438559     -1.206259      2.255992
      4.65767      0.88508      3.33668         1.589117      0.216676      0.324494
      5.77498     12.84515     12.44511         2.225286      1.373663     -0.511168
      3.09426      2.45384      0.90244         2.738473      3.532015      0.565969
     10.33617      3.38679      8.50447        -3.499861     -1.242037      3.254761
      0.44213      1.18444      2.14463         3.797374      1.723150     -0.044904
     12.17196      0.08807      3.58689        -3.893146      0.019865      2.109771
     11.32107      8.51192      9.06510         0.008998     -1.353182     -0.924533
     11.59387      9.60301      0.94855        -0.956380      1.653638      3.313528
      8.52866      2.41338      6.37626        -1.658705      0.433831     -0.436890
    total drift:                               -0.013921     -0.002036     -0.005764

  FREE ENERGIE OF THE ION-ELECTRON SYSTEM (eV)
  free  energy   TOTEN  =      -905.54457661 eV

  energy  without entropy=     -905.53899380  energy(sigma->0) =     -905.54178520