 vasp.5.4.4.18Apr17-6-g9f103f2a35 (build Mar 16 2023 09:39:13) complex

 executed on             LinuxIFC date 2024.04.29  19:48:09

 INCAR:
 POTCAR:    PAW_PBE Ca_sv 06Sep2000
 POTCAR:    PAW_PBE Si 05Jan2001
 POTCAR:    PAW_PBE O 08Apr2002
 POTCAR:    PAW_PBE Ca_sv 06Sep2000
   VRHFIN =Ca: 3s3p4s

   TITEL  = PAW_PBE Ca_sv 06Sep2000
   POMASS =   40.078; ZVAL   =   10.000    mass and valenz
   ENMAX  =  266.622; ENMIN  =  199.967 eV

   TITEL  = PAW_PBE Si 05Jan2001
   POMASS =   28.085; ZVAL   =    4.000    mass and valenz
   ENMAX  =  245.345; ENMIN  =  184.009 eV

   TITEL  = PAW_PBE O 08Apr2002
   POMASS =   16.000; ZVAL   =    6.000    mass and valenz
   ENMAX  =  400.000; ENMIN  =  300.000 eV

 Optimization of the real space projectors (new method)

 maximal supplied QI-value         = 16.25
 optimisation between [QCUT,QGAM] = [ 12.51, 25.03] = [ 43.85,175.40] Ry
 Optimized for a Real-space Cutoff    1.47 Angstroem

   l    n(q)    QCUT    max X(q) W(low)/X(q) W(high)/X(q)  e(spline)
   0     11    12.514    11.817    0.25E-04    0.32E-05    0.87E-07
   0     11    12.514     8.461    0.39E-04    0.59E-05    0.18E-06
   1     11    12.514     3.957    0.97E-05    0.57E-05    0.28E-07
   1     11    12.514     4.314    0.42E-04    0.14E-04    0.23E-06
   2     10    12.514    14.565    0.79E-04    0.50E-03    0.16E-05
   2     10    12.514    14.552    0.75E-04    0.48E-03    0.15E-05
 Optimization of the real space projectors (new method)

[...]

   l    n(q)    QCUT    max X(q) W(low)/X(q) W(high)/X(q)  e(spline)
   0      9    12.501   159.560    0.10E-03    0.83E-04    0.71E-07
   0      9    12.501   115.863    0.99E-04    0.81E-04    0.70E-07
   1      8    12.501    88.339    0.20E-03    0.25E-03    0.76E-07
   1      8    12.501    48.592    0.20E-03    0.24E-03    0.75E-07
 Optimization of the real space projectors (new method)

 maximal supplied QI-value         = 24.76
 optimisation between [QCUT,QGAM] = [ 12.38, 25.00] = [ 42.90,175.06] Ry
 Optimized for a Real-space Cutoff    1.16 Angstroem

   l    n(q)    QCUT    max X(q) W(low)/X(q) W(high)/X(q)  e(spline)
   0      9    12.378    20.381    0.16E-03    0.67E-05    0.31E-06
   0      9    12.378    15.268    0.17E-03    0.81E-05    0.33E-06
   1      8    12.378     5.964    0.20E-03    0.16E-03    0.30E-06
   1      8    12.378     5.382    0.18E-03    0.14E-03    0.26E-06
  PAW_PBE Ca_sv 06Sep2000               :
  PAW_PBE Si 05Jan2001                  :
  PAW_PBE O 08Apr2002                   :

 POSCAR: Ca Si  O
  positions in direct lattice
 exchange correlation table for  LEXCH =        8
   RHO(1)=    0.500       N(1)  =     2000
   RHO(2)=  100.500       N(2)  =     4000

 ion  position               nearest neighbor table
   1  0.647  0.779  0.568- 124 2.17  88 2.27  97 2.30 101 2.49
   2  0.189  0.110  0.460- 135 2.12 100 2.25  39 2.68
   3  0.156  0.644  0.660- 134 2.22 119 2.50  25 3.13
   4  0.137  0.199  0.751- 131 1.95
   5  0.300  0.303  0.979-  80 2.45  33 3.03
   6  0.128  0.834  0.918- 116 2.38 113 2.49
   7  0.965  0.539  0.909-  83 2.19  92 2.22  78 2.35  49 2.83  37 3.09
   8  0.908  0.222  0.265- 107 1.95 109 2.30  15 3.03  41 3.16
   9  0.353  0.003  0.055-  91 2.12 120 2.37 127 2.45  38 2.98
  10  0.502  0.027  0.679- 114 2.17 101 2.40  66 2.44 118 2.45
  11  0.369  0.760  0.964- 103 1.93 113 2.12 125 2.35 127 2.37  44 2.94
  12  0.990  0.325  0.568- 102 2.10 110 2.15 135 2.29 104 2.31
  13  0.962  0.957  0.289-  70 2.04  74 2.23  58 2.31
  14  0.640  0.348  0.026-  57 2.20
  15  0.930  0.434  0.185-  78 1.98  68 2.40  89 2.50  37 2.90   8 3.03
  16  0.725  0.335  0.516-  61 2.34 104 2.37 128 2.44 110 2.52  45 3.10
  17  0.696  0.665  0.775-  90 1.86  97 2.42  96 2.53  19 2.80
  18  0.309  0.741  0.464- 119 2.32 123 2.37 106 2.45  40 2.99
  19  0.559  0.533  0.686-  88 2.08 128 2.10  71 2.33  73 2.57  29 2.76  17 2.80  30 3.03
  20  0.916  0.019  0.743- 129 2.14 108 2.22
  21  0.486  0.880  0.304-  86 2.21  55 2.34 121 2.51 123 2.57
  22  0.798  0.054  0.009-  69 2.30
  23  0.889  0.598  0.528-  94 2.10 102 2.22  81 2.31 104 2.37  50 3.12
  24  0.700  0.638  0.272-  98 2.03 111 2.25  81 2.26  62 2.47  53 2.90  46 3.13
  25  0.310  0.484  0.582- 134 2.17  73 2.23  39 3.04  36 3.06   3 3.13
  26  0.070  0.799  0.462- 106 2.05  70 2.06  58 2.48  94 2.50
  27  0.236  0.485  0.254-  67 2.20  80 2.51  47 3.10  34 3.12
  28  0.884  0.091  0.477-  74 1.57 108 1.61  75 1.70 110 1.84  54 2.83
  29  0.416  0.683  0.705- 119 1.49  71 1.67  88 1.71 103 1.79  19 2.76
  30  0.406  0.482  0.847- 122 1.49 105 1.58  71 1.64  56 1.76  73 2.50  19 3.03  51 3.04
  31  0.621  0.650  0.015-  64 1.58 125 1.63  90 1.64  62 1.76  44 2.92  51 2.93  32 3.12
  32  0.710  0.842  0.116-  69 1.59  62 1.95 111 2.00 121 2.05  60 2.15  44 2.53  31 3.12
  33  0.166  0.426  0.842- 132 1.66  83 1.68 105 1.71 131 1.85   5 3.03
  34  0.426  0.621  0.279-  67 1.45  86 1.53  93 1.76  72 1.79  46 2.84  51 3.07  27 3.12
  35  0.077  0.120  0.078-  99 1.50  95 1.60  85 1.65 133 1.66  47 3.10  37 3.12
  36  0.428  0.286  0.595- 118 1.60  87 1.75  73 1.88  25 3.06  39 3.13
  37  0.004  0.332  0.008- 133 1.50  78 1.54  63 1.58 132 1.85  15 2.90   7 3.09  35 3.12
  38  0.513  0.100  0.932- 130 1.64  91 1.67 114 1.75   9 2.98
  39  0.236  0.305  0.459-  77 1.57  87 1.58 135 1.67  82 1.70   2 2.68  25 3.04  36 3.13
  40  0.247  0.878  0.297- 120 1.57 123 1.65  58 1.76 115 1.84  43 2.98  18 2.99
  41  0.702  0.341  0.278-  89 1.81 107 1.81  79 1.86  61 1.94   8 3.16
  42  0.901  0.797  0.658-  76 1.49  94 1.59  97 1.83
  43  0.170  0.741  0.138- 113 1.56 117 1.68 115 1.73 126 1.75  49 2.58  40 2.98
  44  0.562  0.860  0.997-  60 1.47 127 1.59 125 1.76 121 1.90  32 2.53  31 2.92  11 2.94
  45  0.795  0.447  0.708-  96 1.52 128 1.64  65 1.72 104 1.81  16 3.10
  46  0.557  0.503  0.401-  98 1.55  84 1.60  61 1.64  93 1.79  34 2.84  24 3.13
  47  0.181  0.260  0.232-  80 1.69 109 1.80  95 1.85  82 1.94  35 3.10  27 3.10
  48  0.828  0.263  0.858-  65 1.50  57 1.67  63 1.72 129 1.74
  49  0.002  0.669  0.073-  92 1.59  68 1.60 117 1.76 126 1.94  43 2.58   7 2.83
  50  0.095  0.512  0.456- 102 1.58 112 1.60 134 1.70  77 1.90  23 3.12
  51  0.440  0.535  0.066-  72 1.57  59 1.66  64 1.77  56 1.81  31 2.93  30 3.04  34 3.07
  52  0.220  0.913  0.645- 116 1.66 106 1.71 100 1.85  66 1.99
  53  0.809  0.796  0.374-  81 1.61 124 1.72 111 1.85  70 1.93  24 2.90
  54  0.697  0.990  0.470-  75 1.57  55 1.67 124 1.78 101 1.89  28 2.83
  55  0.589  0.979  0.407-  54 1.67  21 2.34
  56  0.382  0.564  0.947-  30 1.76  51 1.81
  57  0.751  0.248  0.956-  48 1.67  14 2.20
  58  0.127  0.921  0.333-  40 1.76  13 2.31  26 2.48
  59  0.449  0.410  0.073-  51 1.66
  60  0.662  0.904  0.976-  44 1.47  32 2.15
[...]
 121  0.568  0.897  0.135-  44 1.90  32 2.05  21 2.51
 122  0.474  0.395  0.864-  30 1.49
 123  0.318  0.905  0.396-  40 1.65  18 2.37  21 2.57
 124  0.731  0.861  0.455-  53 1.72  54 1.78   1 2.17
 125  0.532  0.734  0.024-  31 1.63  44 1.76  11 2.35
 126  0.120  0.619  0.141-  43 1.75  49 1.94
 127  0.466  0.908  0.945-  44 1.59  11 2.37   9 2.45
 128  0.681  0.436  0.663-  45 1.64  19 2.10  16 2.44
 129  0.897  0.160  0.819-  48 1.74  20 2.14
 130  0.601  0.135  0.010-  38 1.64
 131  0.180  0.339  0.735-  33 1.85   4 1.95
 132  0.120  0.381  0.949-  33 1.66  37 1.85
 133  0.053  0.240  0.052-  37 1.50  35 1.66
 134  0.192  0.572  0.513-  50 1.70  25 2.17   3 2.22
 135  0.131  0.252  0.503-  39 1.67   2 2.12  12 2.29

IMPORTANT INFORMATION: All symmetrisations will be switched off!
NOSYMM: (Re-)initialisation of all symmetry stuff for point group C_1.

Automatic generation of k-mesh.
 generate k-points for:    2    2    2
Space group operators:
 irot       det(A)        alpha          n_x          n_y          n_z        tau_x        tau_y        tau_z
    1     1.000000     0.000001     1.000000     0.000000     0.000000     0.000000     0.000000     0.000000

 Subroutine IBZKPT returns following result:

 Found      8 irreducible k-points:

 Following reciprocal coordinates:
            Coordinates               Weight
  0.000000  0.000000  0.000000      1.000000
  0.500000  0.000000  0.000000      1.000000
  0.000000  0.500000  0.000000      1.000000
  0.500000  0.500000  0.000000      1.000000
  0.000000  0.000000  0.500000      1.000000
  0.500000  0.000000  0.500000      1.000000
  0.000000  0.500000  0.500000      1.000000
  0.500000  0.500000  0.500000      1.000000

 Following cartesian coordinates:
            Coordinates               Weight
  0.000000  0.000000  0.000000      1.000000
  0.037563  0.000000  0.000000      1.000000
  0.000000  0.037563  0.000000      1.000000
  0.037563  0.037563  0.000000      1.000000
  0.000000  0.000000  0.037563      1.000000
  0.037563  0.000000  0.037563      1.000000
  0.000000  0.037563  0.037563      1.000000
  0.037563  0.037563  0.037563      1.000000

 SYSTEM =  unknown system
 POSCAR =  Ca Si  O

 Startparameter for this run:
   NWRITE =      2    write-flag & timer
   PREC   = a         normal or accurate (medium, high low for compatibility)
   ISTART =      0    job   : 0-new  1-cont  2-samecut
   ICHARG =      2    charge: 1-file 2-atom 10-const
   ISPIN  =      1    spin polarized calculation?
   LNONCOLLINEAR =      F non collinear calculations
   LSORBIT =      F    spin-orbit coupling
   INIWAV =      1    electr: 0-lowe 1-rand  2-diag
   LASPH  =      F    aspherical Exc in radial PAW
   METAGGA=      F    non-selfconsistent MetaGGA calc.

 Electronic Relaxation 1
   ENCUT  =  600.0 eV  44.10 Ry    6.64 a.u.  26.59 26.59 26.59*2*pi/ulx,y,z
   ENINI  =  600.0     initial cutoff
   ENAUG  =  605.4 eV  augmentation charge cutoff
   NELM   =     60;   NELMIN=  2; NELMDL= -5     # of ELM steps
   EDIFF  = 0.1E-05   stopping-criterion for ELM
   LREAL  =      T    real-space projection
   NLSPLINE    = F    spline interpolate recip. space projectors
   LCOMPAT=      F    compatible to vasp.4.4
   GGA_COMPAT  = T    GGA compatible to vasp.4.4-vasp.4.6
   LMAXPAW     = -100 max onsite density
   LMAXMIX     =    2 max onsite mixed and CHGCAR
   VOSKOWN=      0    Vosko Wilk Nusair interpolation
   ROPT   =   -0.00025  -0.00025  -0.00025
 Ionic relaxation
   EDIFFG = -.1E-01   stopping-criterion for IOM
   NSW    =      1    number of steps for IOM
   NBLOCK =      1;   KBLOCK =      1    inner block; outer block
   IBRION =     -1    ionic relax: 0-MD 1-quasi-New 2-CG
   NFREE  =      0    steps in history (QN), initial steepest desc. (CG)
   ISIF   =      2    stress and relaxation
   IWAVPR =     10    prediction:  0-non 1-charg 2-wave 3-comb
   ISYM   =      0    0-nonsym 1-usesym 2-fastsym
   LCORR  =      T    Harris-Foulkes like correction to forces

   POTIM  = 1.0000    time-step for ionic-motion
   TEIN   =    0.0    initial temperature
   TEBEG  =    0.0;   TEEND  =   0.0 temperature during run
   SMASS  =  -3.00    Nose mass-parameter (am)
   estimated Nose-frequenzy (Omega)   =  0.10E-29 period in steps =****** mass=  -0.405E-26a.u.
   SCALEE = 1.0000    scale energy and forces
   NPACO  =    256;   APACO  = 16.0  distance and # of slots for P.C.
   PSTRESS=    0.0 pullay stress

[...]
     0.000000000  0.000000000 13.310935620     0.000000000  0.000000000  0.075126199

  length of vectors
    13.310935620 13.310935620 13.310935620     0.075126199  0.075126199  0.075126199

 FORCES acting on ions
    electron-ion (+dipol)            ewald-force                    non-local-force                 convergence-correction
   0.137E+03 -.112E+03 -.564E+02   -.136E+03 0.118E+03 0.560E+02   -.194E+01 -.498E+01 -.300E+00   -.142E-02 -.224E-05 0.226E-02
   -.199E+03 0.156E+03 0.513E+02   0.195E+03 -.159E+03 -.472E+02   0.285E+01 -.769E+00 -.455E+01   0.725E-02 0.397E-02 0.474E-02
   0.211E+03 -.796E+02 -.291E+03   -.206E+03 0.821E+02 0.288E+03   -.397E+01 -.892E+00 0.381E+01   0.234E-02 -.274E-02 0.106E-03
   -.100E+02 0.324E+03 -.121E+03   0.130E+02 -.323E+03 0.118E+03   -.293E+01 -.441E+01 0.280E+01   0.422E-02 0.270E-02 -.300E-02
   -.106E+03 0.302E+03 0.101E+02   0.111E+03 -.299E+03 -.384E+01   -.267E+01 -.235E+01 -.417E+01   -.552E-03 0.196E-02 -.461E-02
   0.144E+03 -.222E+03 0.838E+02   -.144E+03 0.222E+03 -.845E+02   -.101E+01 0.667E+00 0.496E+00   -.315E-02 -.784E-03 -.197E-02
   0.192E+03 -.749E+02 0.157E+03   -.189E+03 0.780E+02 -.154E+03   -.412E+01 -.314E+01 -.252E+01   0.116E-02 0.894E-03 -.474E-02
   0.139E+03 0.213E+03 0.122E+03   -.137E+03 -.213E+03 -.118E+03   0.154E+00 -.267E+01 -.464E+01   0.173E-01 -.184E-02 0.750E-02
   0.321E+02 -.182E+03 -.256E+02   -.317E+02 0.183E+03 0.277E+02   -.151E+01 -.250E+01 -.513E+00   -.202E-02 0.955E-03 -.141E-02
   -.690E+02 -.566E+02 -.394E+02   0.672E+02 0.589E+02 0.373E+02   0.958E+00 -.262E+01 0.552E+00   -.269E-02 0.107E-01 -.612E-02
   0.991E+02 -.163E+03 0.838E+01   -.971E+02 0.159E+03 -.110E+02   -.107E+01 0.153E+01 0.383E+01   0.249E-05 -.178E-02 -.352E-02
   -.138E+02 0.201E+03 -.238E+03   0.875E+01 -.200E+03 0.231E+03   0.415E+01 -.158E+01 0.697E+01   0.257E-03 0.172E-02 0.308E-02
   0.112E+03 -.986E+02 0.277E+03   -.106E+03 0.975E+02 -.274E+03   -.436E+01 0.242E+01 -.495E+01   0.350E-02 -.203E-02 0.902E-03
   0.776E+02 0.129E+03 0.372E+02   -.777E+02 -.133E+03 -.332E+02   -.124E+01 0.331E+01 -.222E+01   -.902E-02 0.101E-01 -.272E-01
   0.127E+03 -.248E+02 -.161E+03   -.128E+03 0.309E+02 0.158E+03   -.553E+00 -.374E+01 0.611E+01   0.132E-01 0.442E-02 -.179E-02
   0.264E+03 0.340E+03 -.571E+02   -.259E+03 -.337E+03 0.550E+02   -.418E+01 -.319E+01 0.162E+01   -.135E-01 -.345E-03 0.147E-01
   -.175E+03 -.220E+03 -.682E+02   0.179E+03 0.222E+03 0.721E+02   -.149E+01 -.500E+00 -.640E+01   0.484E-03 -.263E-02 -.242E-02
   -.141E+03 -.134E+03 0.145E+02   0.142E+03 0.137E+03 -.128E+02   -.431E+00 -.284E+01 -.180E+01   0.165E-02 -.449E-03 0.352E-02
   -.158E+03 0.192E+03 -.262E+02   0.153E+03 -.199E+03 0.208E+02   0.278E+01 0.283E+01 0.408E+01   -.629E-02 -.129E-01 -.511E-02
   0.344E+02 0.634E+02 -.192E+03   -.372E+02 -.580E+02 0.186E+03   0.237E+01 -.542E+01 0.484E+01   -.270E-02 0.389E-04 0.750E-03
   -.638E+02 -.371E+03 0.912E+00   0.647E+02 0.371E+03 0.462E+00   -.555E+00 0.106E+01 -.129E+01   -.255E-02 -.303E-03 0.534E-02
   0.105E+02 0.191E+02 0.131E+03   -.131E+02 -.195E+02 -.125E+03   0.162E+01 0.986E+00 -.446E+01   0.541E-02 -.815E-02 -.108E-01
   0.790E+02 0.238E+02 -.713E+02   -.798E+02 -.263E+02 0.664E+02   -.457E+00 0.311E+00 0.324E+01   -.782E-03 -.192E-02 0.520E-02
   -.824E+02 0.108E+03 0.189E+03   0.820E+02 -.106E+03 -.184E+03   0.559E+00 -.246E+01 -.583E+01   -.266E-02 0.518E-02 0.541E-02
   -.455E+01 0.171E+03 -.388E+02   0.114E+02 -.171E+03 0.361E+02   -.410E+01 -.171E+00 0.194E+01   0.125E-01 -.115E-01 0.441E-02
   0.156E+02 -.652E+02 -.406E+02   -.182E+02 0.699E+02 0.365E+02   0.148E+01 -.435E+01 0.175E+01   0.141E-02 -.290E-03 0.227E-02
   0.140E+02 0.121E+03 0.155E+03   -.115E+02 -.120E+03 -.154E+03   -.267E+01 -.130E+01 -.183E+01   0.240E-02 -.219E-02 0.294E-02
   0.533E+02 -.280E+02 -.560E+02   -.481E+02 0.258E+02 0.576E+02   -.595E+01 0.616E+01 0.427E+00   0.129E-03 0.234E-03 0.271E-02
   -.460E+02 -.176E+03 -.433E+02   0.379E+02 0.174E+03 0.409E+02   0.105E+02 0.466E+01 0.102E+02   -.157E-03 -.217E-02 -.124E-02
   -.507E+02 0.451E+02 -.228E+02   0.544E+02 -.550E+02 0.280E+02   -.596E+01 0.143E+02 -.316E+01   0.169E-03 -.243E-02 -.504E-02
   -.121E+03 -.243E+02 0.928E+01   0.115E+03 0.189E+02 -.114E+02   0.764E+01 0.556E+01 0.222E+01   -.329E-03 0.679E-03 -.214E-02
   -.112E+02 -.453E+02 0.273E+02   0.221E+02 0.537E+02 -.264E+02   -.114E+02 -.894E+01 0.245E+01   0.762E-03 -.661E-03 -.130E-02
   0.375E+02 0.538E+02 0.536E+02   -.379E+02 -.484E+02 -.493E+02   0.268E+01 -.379E+01 -.541E+01   0.123E-02 -.192E-04 -.148E-02
   -.394E+02 -.457E+02 0.759E+02   0.367E+02 0.410E+02 -.624E+02   0.857E+01 0.215E+01 -.192E+02   -.738E-03 -.877E-03 0.224E-02
   0.929E+01 0.850E+02 0.727E+02   -.613E+01 -.905E+02 -.731E+02   -.718E+01 0.635E+01 0.418E+01   0.834E-03 -.136E-03 -.662E-03
   -.156E+03 0.984E+02 -.107E+02   0.152E+03 -.107E+03 0.137E+02   0.182E+01 0.109E+02 -.132E+01   0.637E-02 0.115E-02 -.336E-03
   0.148E+02 0.913E+02 0.518E+02   -.179E+02 -.882E+02 -.481E+02   0.424E+01 -.986E+00 -.741E+01   0.211E-02 0.577E-03 -.220E-02
   -.253E+02 0.387E+02 0.591E+02   0.294E+02 -.272E+02 -.555E+02   -.286E+01 -.726E+01 -.551E+01   -.101E-02 0.297E-03 -.445E-02
   -.745E+02 0.103E+03 -.378E+02   0.715E+02 -.101E+03 0.321E+02   0.485E+00 -.368E+01 0.211E+01   0.484E-02 -.206E-03 0.308E-02
   0.190E+02 -.685E+02 0.241E+02   -.125E+02 0.776E+02 -.249E+02   -.898E+01 -.773E+01 0.155E+01   0.683E-03 0.502E-03 0.161E-02
   0.125E+03 0.771E+02 -.138E+02   -.119E+03 -.828E+02 0.463E+01   -.431E+01 0.355E+01 0.540E+01   0.904E-03 0.114E-01 0.153E-01
   0.453E+02 -.646E+02 -.112E+03   -.374E+02 0.630E+02 0.113E+03   -.156E+02 0.119E+01 -.267E+01   -.409E-03 -.414E-03 0.949E-03
   0.154E+02 -.312E+02 0.668E+01   -.156E+02 0.315E+02 -.976E+01   -.125E+01 -.309E+01 0.743E+01   -.407E-03 -.215E-03 -.444E-03
   -.202E+02 -.593E+02 0.563E+02   0.243E+02 0.696E+02 -.584E+02   -.106E+02 -.115E+02 0.749E+01   0.436E-03 -.329E-03 -.143E-02
   0.251E+02 0.819E+02 -.573E+02   -.246E+02 -.744E+02 0.537E+02   -.237E+00 -.120E+02 -.132E+01   -.158E-02 -.743E-03 -.110E-02
   0.172E+02 0.125E+03 -.808E+00   -.149E+02 -.117E+03 0.298E+01   -.500E+01 -.808E+01 -.472E+01   -.299E-02 -.149E-02 0.579E-02
   -.830E+02 0.883E+02 -.472E+01   0.823E+02 -.826E+02 -.153E+01   -.601E+00 -.649E+01 0.543E+01   0.136E-02 0.362E-03 0.941E-03
   0.908E+02 0.131E+03 0.668E+02   -.906E+02 -.127E+03 -.611E+02   0.131E+01 -.912E+01 0.133E+01   0.117E-04 0.312E-03 -.393E-02
   0.391E+02 -.766E+02 -.265E+02   -.461E+02 0.725E+02 0.203E+02   0.841E+01 0.408E+01 0.939E+01   0.322E-03 0.568E-03 -.174E-02
   0.360E+01 0.227E+02 0.843E+01   -.136E+02 -.163E+02 -.135E+02   0.127E+02 -.639E+01 0.189E+01   0.129E-02 -.850E-03 0.171E-02
   0.696E+01 0.446E+02 -.269E+01   -.792E+01 -.538E+02 0.507E+01   0.270E+01 0.415E+01 -.604E+01   -.155E-02 -.336E-03 -.126E-02
   -.368E+02 -.914E+02 -.612E+02   0.376E+02 0.927E+02 0.655E+02   0.249E+01 0.269E+01 -.485E+01   0.145E-02 0.656E-03 -.402E-03
   -.234E+02 -.101E+03 0.562E+02   0.217E+02 0.918E+02 -.541E+02   0.262E+01 0.982E+01 -.360E+01   -.217E-03 -.425E-03 0.139E-02
   0.768E+02 -.154E+03 -.542E+02   -.845E+02 0.151E+03 0.467E+02   0.909E+00 -.209E+01 0.943E+01   -.203E-02 0.239E-03 0.352E-02
   0.135E+03 -.253E+03 0.469E+02   -.156E+03 0.254E+03 -.576E+02   0.222E+02 -.416E+00 0.111E+02   -.389E-02 0.571E-03 0.587E-02
   0.803E+02 -.230E+02 -.529E+02   -.957E+02 0.378E+02 0.496E+02   0.174E+02 -.146E+02 0.613E+01   -.585E-04 -.250E-02 -.343E-02
   0.101E+03 0.126E+03 0.286E+02   -.113E+03 -.131E+03 -.782E+01   0.127E+02 0.421E+01 -.239E+02   0.181E-02 -.641E-03 -.131E-01
   -.376E+02 -.137E+03 0.578E+02   0.231E+02 0.146E+03 -.539E+02   0.167E+02 -.105E+02 -.416E+01   0.141E-02 0.112E-03 0.130E-02
   -.301E+02 0.268E+03 -.979E+02   0.338E+02 -.295E+03 0.103E+03   -.514E+01 0.276E+02 -.506E+01   -.570E-02 0.268E-02 -.271E-02
   -.158E+03 -.134E+03 0.206E+03   0.191E+03 0.155E+03 -.218E+03   -.261E+02 -.199E+02 0.106E+02   0.187E-02 -.108E-02 -.360E-02
[...]
   -.187E+03 0.293E+03 -.118E+02   0.210E+03 -.327E+03 0.170E+02   -.197E+02 0.309E+02 -.433E+01   -.250E-02 -.247E-03 -.104E-01
   -.129E+03 -.253E+03 -.787E+02   0.142E+03 0.267E+03 0.101E+03   -.134E+02 -.168E+02 -.223E+02   0.100E-02 0.120E-02 0.365E-02
   0.271E+02 -.113E+03 0.962E+01   -.365E+02 0.110E+03 -.135E+01   0.121E+02 0.247E+01 -.952E+01   -.141E-02 -.248E-04 0.298E-02
   -.174E+02 -.731E+02 -.852E+01   -.515E+01 0.709E+02 0.189E+02   0.227E+02 0.452E+01 -.118E+02   -.283E-03 -.290E-03 -.179E-02
   -.464E+01 0.849E+02 0.202E+02   0.484E+01 -.109E+03 -.109E+02   0.164E+00 0.249E+02 -.112E+02   0.766E-03 -.286E-03 -.813E-03
   0.393E+01 -.200E+03 0.174E+03   -.250E+02 0.212E+03 -.193E+03   0.198E+02 -.100E+02 0.194E+02   0.211E-03 0.568E-04 -.220E-02
   0.683E+02 0.202E+03 -.395E+02   -.895E+02 -.208E+03 0.298E+02   0.219E+02 0.611E+01 0.108E+02   -.703E-02 -.481E-02 -.220E-02
   0.121E+02 0.100E+03 0.172E+02   -.935E+00 -.111E+03 -.206E+02   -.123E+02 0.119E+02 0.371E+01   -.685E-03 0.224E-03 -.233E-02
   -.583E+01 0.136E+02 -.704E+02   0.250E+02 -.380E+01 0.913E+02   -.200E+02 -.119E+02 -.224E+02   -.437E-02 -.496E-02 -.123E-01
   -.159E+02 0.625E+02 0.413E+02   0.247E+02 -.641E+02 -.565E+02   -.103E+02 0.504E+01 0.170E+02   0.482E-02 0.976E-03 -.231E-02
   -.599E+02 0.876E+02 0.998E+01   0.615E+02 -.862E+02 0.113E+02   -.252E+00 -.352E+01 -.240E+02   0.139E-02 0.345E-03 -.194E-02
   -.202E+02 0.117E+03 0.700E+02   0.334E+02 -.123E+03 -.591E+02   -.124E+02 0.367E+01 -.101E+02   0.313E-02 -.120E-03 -.190E-02
   0.403E+02 -.366E+02 0.258E+02   -.238E+02 0.463E+02 -.265E+02   -.188E+02 -.871E+01 0.194E+01   0.309E-02 -.211E-02 0.205E-02
   0.301E+02 0.103E+03 -.968E+02   -.527E+02 -.109E+03 0.102E+03   0.246E+02 0.592E+01 -.325E+01   0.516E-02 0.103E-02 0.175E-02
   0.664E+02 0.111E+03 -.851E+01   0.853E-12 -.227E-12 -.355E-12   -.665E+02 -.111E+03 0.855E+01   0.865E-01 -.550E-02 -.127E-01

 POSITION                                       TOTAL-FORCE (eV/Angst)
      8.61193     10.36750      7.56201        -0.364642      1.653566     -0.733137
      2.51376      1.46146      6.12839        -0.310377     -3.680655     -0.450479
      2.08271      8.57221      8.78826         0.741451      1.631919      0.952688
      1.82979      2.65039      9.99733         0.079825     -3.392726     -0.413161
      3.99166      4.03401     13.02574         2.082889      0.495029      2.088275
      1.70199     11.10508     12.22381        -0.535010      0.233416     -0.220721
     12.85145      7.17015     12.10531        -1.270506      0.007022      0.471435
     12.08014      2.95585      3.52161         1.946863     -3.007362     -0.590899
      4.69891      0.04535      0.73277        -1.150548     -0.621875      1.604561
      6.68319      0.36212      9.03540        -0.782091     -0.310067     -1.518806
      4.90778     10.11688     12.82799         0.979603     -1.582695      1.236970
     13.17566      4.33167      7.56705        -0.904455     -0.832096     -0.221249
     12.80956     12.73379      3.85060         1.308182      1.259462     -2.304188
      8.51610      4.62950      0.34181        -1.295811     -0.490838      1.694583
     12.37327      5.78194      2.45740        -1.389606      2.405282      2.519821
      9.64745      4.46146      6.86916         1.460461     -0.148344     -0.452323
      9.26921      8.85118     10.31575         2.764205      1.976475     -2.505908
      4.11455      9.85789      6.17962         1.036060      0.201452     -0.078377
      7.43639      7.09505      9.13585        -1.979927     -4.199189     -1.297454
     12.18654      0.24836      9.89592        -0.453964     -0.024473     -1.846722
      6.47213     11.71971      4.04773         0.360241      1.564722      0.088051
     10.62488      0.71738      0.11561        -1.054408      0.628688      1.416594
     11.83572      7.96121      7.02231        -1.234592     -2.196790     -1.671515
      9.31131      8.49413      3.61508         0.203738     -0.732419     -1.654840
      4.12714      6.43676      7.74731         2.808303     -0.239641     -0.840364
      0.93682     10.64015      6.14844        -1.096323      0.271609     -2.379421
      3.14726      6.46065      3.38578        -0.172531      0.461527     -0.432612
     11.76786      1.20755      6.35066        -0.764874      3.983047      2.001560
      5.53401      9.08517      9.37965         2.434107      2.371836      7.774301
      5.40473      6.41225     11.27170        -2.227998      4.365768      2.064297
      8.26336      8.64799      0.19652         1.906498      0.110495      0.110832
      9.44713     11.20411      1.54943        -0.483775     -0.536479      3.382206
      2.20677      5.67687     11.21041         2.291592      1.564975     -1.106439
      5.67577      8.26366      3.72037         5.847185     -2.466868     -5.701516
      1.01858      1.60302      1.03489        -4.012384      0.859970      3.785107
      5.69348      3.80813      7.91660        -1.839355      2.032149      1.670276
      0.05875      4.42096      0.10313         1.193952      2.036949     -3.749996
      6.82922      1.33262     12.41077         1.207270      4.311268     -1.926391
      3.14295      4.06437      6.11221        -2.506782     -1.350490     -3.534839
      3.28432     11.68677      3.95957        -2.480494      1.369521      0.736620
      9.34721      4.53443      3.70616         1.423023     -2.126159     -3.720841
     11.99847     10.60708      8.76228        -7.741299     -0.450493     -1.835859
      2.26651      9.86227      1.83503        -1.485889     -2.814806      4.352070
      7.48647     11.45288     13.27652        -6.434216     -1.188768      5.401446
     10.58692      5.94644      9.41828         0.267034     -4.564264     -4.947573
      7.41207      6.69081      5.33174        -2.722925      0.107176     -2.533624
      2.40719      3.46023      3.09265        -1.235527     -0.847581     -0.822491
     11.01493      3.50521     11.41677         1.547534     -4.906598      7.051532
      0.02237      8.91155      0.97569         1.369500      0.012931      3.262743
      1.26618      6.80888      6.06596         2.708957      0.000965     -3.195851
      5.86170      7.11563      0.87885         1.738025     -5.057556     -3.650417
      2.92373     12.15394      8.58311         3.353300      3.926810     -0.501881
     10.77023     10.59630      4.98476         0.908330      0.752074     -1.473666
      9.28429     13.17492      6.25461        -6.749360     -4.931768      2.016536
      7.84294     13.03800      5.41641         1.195044      0.522179      0.409051
      5.07825      7.51022     12.60591         2.044836      0.188087      2.838608
      9.99450      3.29758     12.72412        -0.010795     -1.007118     -3.083387
      1.68738     12.26234      4.43302         2.091597     -1.249001     -0.302423
      5.97745      5.46270      0.97304        -1.435170      0.971099     -0.276797
      8.80564     12.02736     12.98572         7.022808      0.651046     -2.218965
[...]
      7.55573     11.94432      1.79801         2.224122     -2.293934     -1.819944
      6.31169      5.25701     11.49892         3.900926     -2.727427      0.780539
      4.23051     12.04592      5.26489        -0.056997     -2.780187     -0.112178
      9.73362     11.45984      6.05914         2.737817     -0.646459     -1.246440
      7.08635      9.77296      0.32271         0.146614      2.353227     -1.412322
      1.59797      8.24056      1.88240         0.364079      1.198991     -1.937402
      6.20672     12.08687     12.58183        -1.237722      1.099439      0.166829
      9.06454      5.80491      8.81933         0.728046     -0.043531      1.131297
     11.93965      2.12341     10.90793        -1.171583      0.900003      0.368242
      8.00547      1.79501      0.13841        -0.763798     -2.094001     -1.496155
      2.39071      4.50795      9.78585        -1.509537      3.476407      1.813436
      1.60366      5.07681     12.63381         1.367429     -2.041233     -2.702161
      0.70450      3.20055      0.69846         0.754503     -2.429076      0.784274
      2.55082      7.61934      6.83492        -2.345572      1.000733      1.250891
      1.74349      3.35699      6.69415         1.935607     -0.005502      1.632730
    total drift:                               -0.008705      0.011060      0.029377

  FREE ENERGIE OF THE ION-ELECTRON SYSTEM (eV)
  free  energy   TOTEN  =      -918.08142599 eV

  energy  without entropy=     -918.06883894  energy(sigma->0) =     -918.07513246