 vasp.5.4.4.18Apr17-6-g9f103f2a35 (build Mar 16 2023 09:39:13) complex

 executed on             LinuxIFC date 2024.04.30  16:24:33

 INCAR:
 POTCAR:    PAW_PBE Ca_sv 06Sep2000
 POTCAR:    PAW_PBE Si 05Jan2001
 POTCAR:    PAW_PBE O 08Apr2002
 POTCAR:    PAW_PBE Ca_sv 06Sep2000
   VRHFIN =Ca: 3s3p4s

   TITEL  = PAW_PBE Ca_sv 06Sep2000
   POMASS =   40.078; ZVAL   =   10.000    mass and valenz
   ENMAX  =  266.622; ENMIN  =  199.967 eV

   TITEL  = PAW_PBE Si 05Jan2001
   POMASS =   28.085; ZVAL   =    4.000    mass and valenz
   ENMAX  =  245.345; ENMIN  =  184.009 eV

   TITEL  = PAW_PBE O 08Apr2002
   POMASS =   16.000; ZVAL   =    6.000    mass and valenz
   ENMAX  =  400.000; ENMIN  =  300.000 eV

 Optimization of the real space projectors (new method)

 maximal supplied QI-value         = 16.25
 optimisation between [QCUT,QGAM] = [ 12.51, 25.03] = [ 43.85,175.40] Ry
 Optimized for a Real-space Cutoff    1.47 Angstroem

   l    n(q)    QCUT    max X(q) W(low)/X(q) W(high)/X(q)  e(spline)
   0     11    12.514    11.817    0.25E-04    0.32E-05    0.87E-07
   0     11    12.514     8.461    0.39E-04    0.59E-05    0.18E-06
   1     11    12.514     3.957    0.97E-05    0.57E-05    0.28E-07
   1     11    12.514     4.314    0.42E-04    0.14E-04    0.23E-06
   2     10    12.514    14.565    0.79E-04    0.50E-03    0.16E-05
   2     10    12.514    14.552    0.75E-04    0.48E-03    0.15E-05
 Optimization of the real space projectors (new method)

[...]

   l    n(q)    QCUT    max X(q) W(low)/X(q) W(high)/X(q)  e(spline)
   0      9    12.501   159.560    0.10E-03    0.83E-04    0.71E-07
   0      9    12.501   115.863    0.99E-04    0.81E-04    0.70E-07
   1      8    12.501    88.339    0.20E-03    0.25E-03    0.76E-07
   1      8    12.501    48.592    0.20E-03    0.24E-03    0.75E-07
 Optimization of the real space projectors (new method)

 maximal supplied QI-value         = 24.76
 optimisation between [QCUT,QGAM] = [ 12.38, 25.00] = [ 42.90,175.06] Ry
 Optimized for a Real-space Cutoff    1.16 Angstroem

   l    n(q)    QCUT    max X(q) W(low)/X(q) W(high)/X(q)  e(spline)
   0      9    12.378    20.381    0.16E-03    0.67E-05    0.31E-06
   0      9    12.378    15.268    0.17E-03    0.81E-05    0.33E-06
   1      8    12.378     5.964    0.20E-03    0.16E-03    0.30E-06
   1      8    12.378     5.382    0.18E-03    0.14E-03    0.26E-06
  PAW_PBE Ca_sv 06Sep2000               :
  PAW_PBE Si 05Jan2001                  :
  PAW_PBE O 08Apr2002                   :

 POSCAR: Ca Si  O
  positions in direct lattice
 exchange correlation table for  LEXCH =        8
   RHO(1)=    0.500       N(1)  =     2000
   RHO(2)=  100.500       N(2)  =     4000

 ion  position               nearest neighbor table
   1  0.605  0.426  0.456- 111 2.20  88 2.26 100 2.34  97 2.46  21 2.95  47 3.00  33 3.04
   2  0.836  0.824  0.411-  96 2.30  83 2.41
   3  0.042  0.368  0.983-  80 1.92  66 2.49  70 2.54  44 3.14
   4  0.535  0.640  0.864- 125 2.11 134 2.14 126 2.42 116 2.49  36 2.99
   5  0.023  0.579  0.218-  64 2.08  66 2.21  53 2.88
   6  0.916  0.590  0.519- 130 1.98  96 2.07  92 2.23 122 2.49  68 2.55  50 2.93  47 3.11
   7  0.165  0.902  0.934-  59 2.35  56 2.35 118 2.42 120 2.42 113 2.43  69 2.52  43 2.93  45 3.00

   8  0.268  0.124  0.328- 127 2.17  61 2.18  93 2.19
   9  0.300  0.115  0.698-  84 1.88 101 2.23  56 2.48  49 2.92
  10  0.455  0.859  0.287-  72 2.02 129 2.11  81 2.35 108 2.43  48 3.08  33 3.15
  11  0.911  0.584  0.942-  66 2.02 117 2.18 103 2.24  99 2.33  31 2.71  53 3.13
  12  0.760  0.430  0.705-  77 2.05 122 2.44  14 3.14
  13  0.195  0.844  0.269-  81 2.02 129 2.29  58 2.29  61 2.46  50 3.02  46 3.14
  14  0.574  0.267  0.747- 104 2.09 109 2.19  94 2.21 102 2.29  88 2.32  37 2.83  36 2.86  12 3.14

[...]

  45  0.131  0.065  0.106-  69 1.60 120 1.62 124 1.63  61 1.74  44 2.73   7 3.00
  46  0.252  0.902  0.506- 119 1.51  74 1.67  81 1.79  76 1.84  50 3.00  13 3.14
  47  0.782  0.517  0.322-  97 1.64  64 1.72  85 1.85  96 1.87   1 3.00   6 3.11
  48  0.421  0.806  0.050- 123 1.61  95 1.61 118 1.66 129 1.81  10 3.08  43 3.14
  49  0.100  0.213  0.768- 101 1.56  70 1.64 107 1.64  78 2.17   9 2.92
  50  0.075  0.749  0.455-  68 1.61 130 1.61  58 1.68 119 1.77   6 2.93  46 3.00  13 3.02
  51  0.916  0.947  0.849-  59 1.48 133 1.64 110 1.70  22 2.94  26 2.99
  52  0.838  0.324  0.481-  55 1.49  63 1.52  77 1.57  97 1.62  29 2.86
  53  0.125  0.673  0.034-  86 1.59 113 1.60  57 1.75  66 1.86   5 2.88  11 3.13
  54  0.258  0.641  0.813- 131 1.63  57 1.68  87 1.70 116 1.78
  55  0.820  0.227  0.416-  52 1.49  29 1.79
  56  0.262  0.938  0.777-  43 1.59   7 2.35   9 2.48
  57  0.176  0.693  0.906-  54 1.68  53 1.75
  58  0.032  0.798  0.338-  50 1.68  13 2.29
  59  0.019  0.898  0.818-  51 1.48   7 2.35
  60  0.301  0.269  0.560-  39 1.75  30 2.02
  61  0.148  0.033  0.240-  45 1.74   8 2.18  13 2.46
  62  0.590  0.712  0.490-  33 1.75  38 1.81
  63  0.958  0.338  0.461-  52 1.52  24 1.89
  64  0.897  0.478  0.259-  47 1.72   5 2.08
  65  0.402  0.705  0.428-  33 1.60  16 2.33  27 2.35
  66  0.033  0.556  0.043-  53 1.86  11 2.02   5 2.21   3 2.49
  67  0.352  0.405  0.225-  28 1.73  21 2.41  17 2.55
  68  0.085  0.629  0.412-  50 1.61   6 2.55
  69  0.039  0.988  0.064-  45 1.60  25 2.14  44 2.33   7 2.52
  70  0.990  0.242  0.833-  49 1.64   3 2.54
  71  0.772  0.857  0.980-  31 1.57  41 1.78
  72  0.595  0.937  0.310-  32 1.59  10 2.02
  73  0.683  0.256  0.023-  42 1.78  35 1.81
  74  0.377  0.913  0.551-  46 1.67  27 2.30
  75  0.634  0.076  0.461-  29 1.61  20 1.86
  76  0.160  0.005  0.558-  34 1.54  46 1.84
  77  0.780  0.314  0.591-  52 1.57  12 2.05
  78  0.154  0.364  0.703-  39 1.67  40 1.87  49 2.17
  79  0.492  0.931  0.805-  37 1.69  43 1.73
  80  0.060  0.463  0.864-  40 1.66   3 1.92
  81  0.297  0.916  0.371-  46 1.79  13 2.02  10 2.35
  82  0.972  0.041  0.512-  34 1.56
  83  0.824  0.935  0.255-  32 1.64  25 2.21   2 2.41
  84  0.407  0.114  0.593-  30 1.71   9 1.88
  85  0.645  0.530  0.270-  47 1.85  19 2.08
  86  0.208  0.637  0.123-  53 1.59  17 2.20
  87  0.345  0.734  0.766-  54 1.70  43 1.90  27 2.15
  88  0.530  0.310  0.572-  30 1.58   1 2.26  14 2.32
  89  0.688  0.105  0.271-  32 1.63  29 1.79
  90  0.864  0.254  0.016-  42 1.69  44 1.70  23 2.34
  91  0.644  0.009  0.904-  37 1.74  41 1.82
  92  0.951  0.515  0.676-  40 1.73   6 2.23
  93  0.131  0.159  0.432-  34 1.56   8 2.19  18 2.45
  94  0.466  0.332  0.870-  36 1.70  35 2.21  14 2.21
  95  0.414  0.679  0.031-  48 1.61  17 2.11
  96  0.833  0.642  0.386-  47 1.87   6 2.07   2 2.30
  97  0.798  0.429  0.418-  52 1.62  47 1.64   1 2.46
  98  0.125  0.396  0.174-  28 1.66
  99  0.796  0.681  0.832-  31 1.80  22 2.12  11 2.33
 100  0.671  0.291  0.345-  29 1.62  21 2.18   1 2.34
 101  0.209  0.197  0.827-  49 1.56   9 2.23  15 2.55
 102  0.637  0.097  0.728-  37 1.65  14 2.29  26 2.46
 103  0.815  0.436  0.910-  42 1.57  11 2.24
 104  0.467  0.162  0.820-  37 1.69  14 2.09
[...]
 121  0.215  0.471  0.534-  39 1.61  16 2.33  24 2.49
 122  0.731  0.587  0.594-  38 1.77  12 2.44   6 2.49
 123  0.513  0.895  0.044-  48 1.61  41 1.73
 124  0.069  0.172  0.066-  45 1.63  44 1.69
 125  0.629  0.708  0.988-  31 1.69   4 2.11  19 2.16
 126  0.566  0.736  0.700-  38 1.60  27 2.17   4 2.42
 127  0.249  0.227  0.189-  28 1.70   8 2.17
 128  0.337  0.414  0.708-  39 1.53  36 1.60
 129  0.343  0.852  0.162-  48 1.81  10 2.11  13 2.29
 130  0.979  0.734  0.539-  50 1.61   6 1.98  22 2.46
 131  0.169  0.593  0.730-  54 1.63  40 1.80
 132  0.898  0.136  0.151-  44 1.56  23 2.19  18 2.28
 133  0.839  0.947  0.743-  51 1.64  26 2.42  22 2.56
 134  0.545  0.487  0.789-  36 1.57   4 2.14
 135  0.674  0.971  0.120-  41 1.54  32 1.65

IMPORTANT INFORMATION: All symmetrisations will be switched off!
NOSYMM: (Re-)initialisation of all symmetry stuff for point group C_1.

Automatic generation of k-mesh.
 generate k-points for:    2    2    2
Space group operators:
 irot       det(A)        alpha          n_x          n_y          n_z        tau_x        tau_y        tau_z
    1     1.000000     0.000001     1.000000     0.000000     0.000000     0.000000     0.000000     0.000000

 Subroutine IBZKPT returns following result:

 Found      8 irreducible k-points:

 Following reciprocal coordinates:
            Coordinates               Weight
  0.000000  0.000000  0.000000      1.000000
  0.500000  0.000000  0.000000      1.000000
  0.000000  0.500000  0.000000      1.000000
  0.500000  0.500000  0.000000      1.000000
  0.000000  0.000000  0.500000      1.000000
  0.500000  0.000000  0.500000      1.000000
  0.000000  0.500000  0.500000      1.000000
  0.500000  0.500000  0.500000      1.000000

 Following cartesian coordinates:
            Coordinates               Weight
  0.000000  0.000000  0.000000      1.000000
  0.039917  0.000000  0.000000      1.000000
  0.000000  0.039917  0.000000      1.000000
  0.039917  0.039917  0.000000      1.000000
  0.000000  0.000000  0.039917      1.000000
  0.039917  0.000000  0.039917      1.000000
  0.000000  0.039917  0.039917      1.000000
  0.039917  0.039917  0.039917      1.000000

 SYSTEM =  unknown system
 POSCAR =  Ca Si  O

 Startparameter for this run:
   NWRITE =      2    write-flag & timer
   PREC   = a         normal or accurate (medium, high low for compatibility)
   ISTART =      0    job   : 0-new  1-cont  2-samecut
   ICHARG =      2    charge: 1-file 2-atom 10-const
   ISPIN  =      1    spin polarized calculation?
   LNONCOLLINEAR =      F non collinear calculations
   LSORBIT =      F    spin-orbit coupling
   INIWAV =      1    electr: 0-lowe 1-rand  2-diag
   LASPH  =      F    aspherical Exc in radial PAW
   METAGGA=      F    non-selfconsistent MetaGGA calc.

 Electronic Relaxation 1
   ENCUT  =  600.0 eV  44.10 Ry    6.64 a.u.  25.02 25.02 25.02*2*pi/ulx,y,z
   ENINI  =  600.0     initial cutoff
   ENAUG  =  605.4 eV  augmentation charge cutoff
   NELM   =     60;   NELMIN=  2; NELMDL= -5     # of ELM steps
   EDIFF  = 0.1E-05   stopping-criterion for ELM
   LREAL  =      T    real-space projection
   NLSPLINE    = F    spline interpolate recip. space projectors
   LCOMPAT=      F    compatible to vasp.4.4
   GGA_COMPAT  = T    GGA compatible to vasp.4.4-vasp.4.6
   LMAXPAW     = -100 max onsite density
   LMAXMIX     =    2 max onsite mixed and CHGCAR
   VOSKOWN=      0    Vosko Wilk Nusair interpolation
   ROPT   =   -0.00025  -0.00025  -0.00025
 Ionic relaxation
   EDIFFG = -.1E-01   stopping-criterion for IOM
   NSW    =      1    number of steps for IOM
   NBLOCK =      1;   KBLOCK =      1    inner block; outer block
   IBRION =     -1    ionic relax: 0-MD 1-quasi-New 2-CG
   NFREE  =      0    steps in history (QN), initial steepest desc. (CG)
   ISIF   =      2    stress and relaxation
   IWAVPR =     10    prediction:  0-non 1-charg 2-wave 3-comb
   ISYM   =      0    0-nonsym 1-usesym 2-fastsym
   LCORR  =      T    Harris-Foulkes like correction to forces

   POTIM  = 1.0000    time-step for ionic-motion
   TEIN   =    0.0    initial temperature
   TEBEG  =    0.0;   TEEND  =   0.0 temperature during run
[...]
     0.000000000  0.000000000 12.526070000     0.000000000  0.000000000  0.079833499

  length of vectors
    12.526070000 12.526070000 12.526070000     0.079833499  0.079833499  0.079833499

 FORCES acting on ions
    electron-ion (+dipol)            ewald-force                    non-local-force                 convergence-correction
   0.775E+02 -.108E+03 -.116E+03   -.799E+02 0.106E+03 0.117E+03   0.265E+01 0.179E+01 0.698E+00   0.667E-03 0.608E-03 -.333E-03
   0.571E+02 -.171E+03 -.135E+01   -.545E+02 0.167E+03 0.140E+00   -.177E+01 0.325E+01 0.134E+01   -.907E-03 -.768E-03 -.683E-03
   -.276E+02 0.806E+02 -.853E+02   0.306E+02 -.792E+02 0.843E+02   -.217E+01 -.333E+01 0.376E+01   -.708E-03 0.144E-02 -.703E-03
   -.921E+02 -.597E+02 0.654E+02   0.917E+02 0.580E+02 -.664E+02   -.745E+00 0.180E+01 0.176E+00   0.146E-02 0.516E-03 0.482E-03
   0.771E+01 -.756E+02 -.856E+02   -.809E+01 0.723E+02 0.834E+02   0.158E+01 0.402E+01 0.251E+01   -.113E-02 0.106E-02 -.665E-03
   -.712E+02 0.809E+02 -.728E+02   0.703E+02 -.793E+02 0.717E+02   0.494E+00 -.498E+01 0.976E+00   -.131E-02 0.783E-03 -.905E-04
   0.233E+02 -.130E+02 0.119E+03   -.232E+02 0.153E+02 -.117E+03   -.162E+00 -.160E+01 -.458E+00   -.358E-03 -.240E-03 0.115E-02
   -.235E+03 -.318E+02 -.433E+02   0.231E+03 0.319E+02 0.407E+02   0.570E+01 -.426E+00 0.298E+01   -.153E-03 -.124E-02 -.243E-03
   0.901E+02 0.950E+02 -.506E+02   -.889E+02 -.959E+02 0.497E+02   -.330E+01 -.321E+00 0.245E+01   0.187E-02 -.466E-03 0.351E-03
   -.937E+02 -.105E+03 -.144E+02   0.917E+02 0.104E+03 0.146E+02   0.594E+00 0.125E+00 0.125E+01   0.866E-03 -.708E-03 0.251E-03
   0.705E+02 -.345E+02 0.802E+02   -.701E+02 0.318E+02 -.775E+02   -.591E+00 0.137E+01 -.444E+01   -.101E-02 0.211E-03 0.469E-03
   -.702E+01 -.105E+03 -.825E+02   0.982E+01 0.106E+03 0.812E+02   -.221E+01 0.124E+01 0.315E+01   -.362E-03 0.790E-03 0.523E-03
   0.726E+02 0.951E+02 0.264E+02   -.709E+02 -.898E+02 -.282E+02   -.256E+01 -.517E+01 -.109E+01   -.207E-03 0.173E-03 -.515E-03
   -.489E+02 -.460E+02 0.100E+03   0.475E+02 0.403E+02 -.987E+02   0.186E+01 0.516E+01 -.266E+01   0.312E-03 -.501E-03 0.468E-03
   -.819E+02 0.101E+03 -.609E+02   0.796E+02 -.100E+03 0.616E+02   0.214E+01 -.150E+00 -.813E+00   0.349E-03 0.152E-03 -.928E-03
   0.126E+03 0.243E+02 0.327E+02   -.121E+03 -.243E+02 -.292E+02   -.480E+01 0.162E+00 -.370E+01   0.913E-03 0.100E-02 -.106E-03
   -.557E+02 0.144E+02 -.816E+02   0.542E+02 -.135E+02 0.820E+02   0.243E+01 -.303E+00 0.135E+00   0.286E-03 0.108E-02 -.125E-03
   0.209E+02 0.610E+02 -.985E+02   -.182E+02 -.658E+02 0.100E+03   -.180E+01 0.301E+01 -.394E+00   -.137E-02 -.129E-02 -.110E-02
   -.141E+03 -.180E+02 -.373E+02   0.137E+03 0.167E+02 0.404E+02   0.232E+01 0.976E+00 -.266E+01   0.115E-02 0.671E-03 0.198E-03
   -.271E+02 0.492E+02 -.774E+02   0.267E+02 -.479E+02 0.785E+02   -.161E+01 -.407E+01 0.198E+01   0.346E-03 -.660E-04 -.208E-03
   0.887E+02 0.378E+02 0.953E+02   -.936E+02 -.419E+02 -.964E+02   0.203E+01 0.364E+01 0.965E-01   0.132E-02 0.344E-03 0.191E-03
   -.131E+03 -.959E+02 0.293E+02   0.128E+03 0.991E+02 -.310E+02   0.329E+01 -.164E+01 -.195E+00   -.153E-02 -.407E-03 0.127E-03
   0.539E+02 -.143E+03 0.800E+01   -.554E+02 0.138E+03 -.100E+02   0.317E-01 0.439E+01 0.213E+01   -.116E-02 -.921E-04 -.571E-03
   -.170E+03 -.842E+01 0.642E+02   0.169E+03 0.665E+01 -.608E+02   0.421E+01 0.223E+01 -.435E+01   -.158E-02 0.982E-03 0.327E-03
   0.102E+03 0.955E+02 -.102E+03   -.989E+02 -.946E+02 0.102E+03   -.275E+01 -.165E+01 -.174E-01   -.624E-03 -.887E-03 0.213E-04
   -.135E+03 0.119E+03 0.168E+03   0.130E+03 -.119E+03 -.166E+03   0.404E+01 -.115E+00 -.238E+01   -.183E-02 -.233E-03 0.909E-03
   0.843E+02 0.756E+02 0.312E+02   -.834E+02 -.711E+02 -.351E+02   -.115E+01 -.382E+01 0.901E+00   0.166E-02 0.710E-03 -.545E-03
   0.464E+01 0.891E+01 -.271E+02   -.503E+01 -.117E+02 0.308E+02   0.160E+01 0.971E-01 -.198E+01   0.148E-03 0.244E-03 -.431E-03
   0.807E+00 0.725E+02 -.623E+02   -.433E+01 -.751E+02 0.580E+02   0.378E+01 0.420E+00 0.691E+00   -.342E-03 -.224E-03 -.113E-03
   0.289E+02 0.493E+01 0.253E+02   -.253E+02 -.879E+01 -.278E+02   -.831E+01 0.256E+00 0.374E+01   0.509E-03 -.436E-03 0.322E-04
   0.110E+02 0.277E+02 0.336E+02   -.983E+01 -.250E+02 -.289E+02   -.339E-01 -.660E+01 -.486E+01   0.633E-04 0.216E-03 0.158E-03
   -.462E+01 0.455E+02 -.194E+02   0.500E+00 -.436E+02 0.218E+02   0.342E+01 -.581E+00 -.342E+01   0.224E-03 -.403E-03 -.183E-03
   -.958E+02 0.235E+02 -.246E+02   0.830E+02 -.178E+02 0.196E+02   0.119E+02 -.514E+01 0.284E+01   0.459E-03 0.243E-03 -.928E-04
   0.661E+02 -.600E+01 -.466E+02   -.679E+02 -.235E+01 0.392E+02   0.215E-01 0.908E+01 0.941E+01   -.117E-04 -.197E-03 -.331E-03
   -.859E+01 0.214E+02 -.215E+01   0.844E+01 -.189E+02 0.109E+02   -.520E+00 -.371E+01 -.906E+01   0.225E-03 0.285E-04 -.225E-03
   0.389E+02 -.105E+01 0.394E+02   -.310E+02 0.215E+01 -.375E+02   -.952E+01 -.969E+00 0.169E+01   0.621E-03 -.247E-03 0.361E-03
   0.149E+02 0.523E+02 -.364E+02   -.107E+02 -.473E+02 0.330E+02   -.221E+01 -.484E+01 0.353E+01   0.317E-03 0.386E-03 -.602E-04
   -.262E+02 0.324E+02 -.359E+02   0.251E+02 -.269E+02 0.349E+02   0.289E+01 -.643E+01 -.338E+01   0.347E-03 0.121E-03 -.140E-04
   -.170E+01 -.115E+02 0.668E+02   0.233E+01 0.125E+02 -.690E+02   -.192E+01 -.487E+01 -.249E+01   0.159E-03 -.444E-05 0.108E-03
   0.560E+01 -.173E+02 0.761E+02   -.107E+02 0.167E+02 -.661E+02   0.539E+01 0.283E+00 -.832E+01   -.400E-03 0.292E-03 0.581E-03
   0.166E+02 0.128E+02 0.422E+02   -.179E+02 -.181E+01 -.351E+02   -.104E+01 -.776E+01 -.112E+02   0.685E-03 -.230E-03 0.335E-04
   0.235E+02 -.210E+02 -.233E+02   -.230E+02 0.237E+02 0.184E+02   -.209E+01 -.610E+01 0.446E+01   -.101E-03 0.227E-03 -.974E-04
   -.421E+02 0.207E+01 0.524E+02   0.324E+02 0.810E+01 -.489E+02   0.103E+02 -.976E+01 -.207E+01   0.142E-03 0.975E-04 -.171E-03
   0.306E+02 0.149E+02 0.875E+02   -.296E+02 -.137E+02 -.740E+02   0.951E+00 -.269E+01 -.142E+02   -.850E-03 -.262E-03 0.973E-05
   -.686E+02 -.133E+02 -.577E+02   0.679E+02 0.794E+01 0.511E+02   0.336E+01 0.454E+01 0.845E+01   0.718E-05 -.917E-03 0.915E-04
   0.396E+02 -.482E+02 -.412E+02   -.324E+02 0.426E+02 0.396E+02   -.178E+01 0.132E+02 -.342E-01   0.749E-03 0.149E-03 -.383E-03
   0.491E+02 -.801E+02 0.984E+02   -.431E+02 0.790E+02 -.974E+02   -.440E+01 0.479E+01 -.153E+01   -.510E-03 0.422E-03 -.301E-03
   -.281E+02 -.159E+02 -.523E+02   0.246E+02 0.156E+02 0.509E+02   -.152E+01 0.171E+01 0.396E+01   0.329E-03 -.559E-03 0.341E-03
   0.576E+02 0.268E+02 0.176E+02   -.546E+02 -.294E+02 -.116E+02   -.427E+01 0.472E+01 -.692E+01   0.109E-03 0.154E-03 0.682E-03
   -.570E+02 -.813E+02 -.646E+02   0.488E+02 0.727E+02 0.587E+02   0.805E+01 0.839E+01 0.478E+01   -.664E-03 -.128E-03 -.459E-03
   0.658E+02 0.424E+01 -.120E+01   -.554E+02 -.600E+01 -.132E+02   -.149E+02 0.648E+01 0.147E+02   -.529E-03 -.404E-03 0.296E-03
   -.308E+02 0.222E+02 -.870E+02   0.353E+02 -.271E+02 0.849E+02   -.465E+01 0.831E+01 0.474E+01   -.481E-03 0.406E-03 -.829E-05
   0.231E+02 0.131E+02 0.516E+02   -.200E+02 -.835E+01 -.396E+02   -.354E+01 -.654E+01 -.120E+02   -.291E-03 0.160E-03 0.446E-03
   0.249E+02 -.382E+01 0.414E+02   -.287E+02 0.260E+01 -.425E+02   0.455E+01 0.670E-01 0.195E+01   -.190E-03 -.164E-04 0.335E-03
   -.661E+02 0.200E+03 -.375E+02   0.776E+02 -.221E+03 0.227E+02   -.130E+02 0.123E+02 0.108E+02   -.110E-02 -.226E-03 -.548E-03
   0.112E+03 -.146E+02 0.106E+03   -.139E+03 0.285E+02 -.120E+03   0.274E+02 -.137E+02 0.138E+02   0.495E-03 0.524E-04 0.127E-03
   0.648E+02 -.220E+02 0.864E+02   -.746E+02 0.355E+02 -.896E+02   0.105E+02 -.142E+02 0.392E+01   0.187E-03 0.782E-04 0.740E-03
   0.809E+02 -.797E+02 0.406E+02   -.909E+02 0.858E+02 -.617E+02   0.101E+02 -.470E+01 0.224E+02   -.861E-03 -.123E-03 -.743E-03
   -.701E+02 0.433E+02 0.161E+03   0.105E+03 -.571E+02 -.176E+03   -.305E+02 0.101E+02 0.153E+02   -.103E-03 -.513E-03 0.658E-03
   0.337E+02 -.277E+02 0.117E+03   -.385E+02 0.924E+01 -.127E+03   0.496E+01 0.212E+02 0.987E+01   0.686E-03 -.480E-03 0.243E-03
[...]
   0.539E+02 -.449E+01 -.319E+02   -.451E+02 -.941E+01 0.240E+02   -.102E+02 0.154E+02 0.989E+01   -.443E-04 0.272E-03 -.101E-03
   -.201E+02 -.130E+03 -.450E+02   0.158E+02 0.153E+03 0.492E+02   0.799E+01 -.237E+02 -.442E+01   0.997E-03 -.957E-03 -.155E-03
   -.713E+02 -.121E+03 0.128E+02   0.846E+02 0.146E+03 -.136E+02   -.148E+02 -.214E+02 -.869E+00   -.589E-03 -.462E-03 -.422E-03
   -.403E+02 -.527E+02 -.189E+02   0.188E+02 0.516E+02 0.243E+02   0.248E+02 0.260E+01 -.600E+01   -.112E-03 0.266E-03 0.295E-03
   -.586E+02 -.492E+02 -.663E+02   0.428E+02 0.608E+02 0.860E+02   0.163E+02 -.128E+02 -.185E+02   0.474E-03 0.254E-03 0.334E-03
   -.509E+02 0.215E+02 -.276E+02   0.499E+02 -.401E+02 0.324E+02   0.126E+01 0.197E+02 -.608E+01   0.977E-04 -.628E-03 -.519E-03
   -.233E+02 -.457E+02 0.485E+02   0.218E+02 0.478E+02 -.417E+02   0.581E+01 -.119E+01 -.482E+01   0.540E-03 -.407E-03 0.495E-03
   0.121E+02 -.644E+02 0.369E+02   -.247E+02 0.726E+02 -.287E+02   0.143E+02 -.987E+01 -.114E+02   -.141E-03 -.740E-03 -.417E-03
   -.618E+02 -.182E+03 -.139E+03   0.474E+02 0.184E+03 0.155E+03   0.142E+02 0.204E+01 -.143E+02   -.994E-03 0.481E-03 0.123E-03
   0.445E+02 -.897E+02 0.128E+03   -.516E+02 0.960E+02 -.148E+03   0.634E+01 -.763E+01 0.191E+02   -.366E-03 0.322E-05 0.491E-03
   0.787E+02 0.817E+02 -.681E+02   -.891E+02 -.895E+02 0.916E+02   0.902E+01 0.681E+01 -.199E+02   -.963E-03 -.843E-03 0.139E-03
   0.433E+02 0.148E+01 0.125E+03   -.623E+02 -.338E+01 -.150E+03   0.196E+02 0.229E+01 0.279E+02   -.119E-02 -.551E-03 0.679E-04
   -.124E+03 -.296E+02 0.105E+03   0.153E+03 0.374E+02 -.104E+03   -.263E+02 -.732E+01 -.320E+01   0.140E-02 0.111E-03 0.132E-03
   0.425E+02 -.718E+02 0.594E+01   -.421E+02 0.899E+02 -.130E+01   0.107E+01 -.174E+02 -.317E+01   0.412E-03 -.275E-03 -.369E-03
   -.128E+02 0.272E+02 0.855E+01   0.369E-12 0.668E-12 0.351E-12   0.128E+02 -.272E+02 -.857E+01   -.838E-03 0.985E-03 -.222E-03

 POSITION                                       TOTAL-FORCE (eV/Angst)
      7.58039      5.33610      5.71504         0.246151      0.094019      1.196612
     10.46739     10.31701      5.15202         0.861260     -0.540579      0.129306
      0.52995      4.60571     12.30840         0.850131     -1.892503      2.757865
      6.70376      8.02199     10.82786        -1.182315      0.109889     -0.833456
      0.28864      7.25562      2.72780         1.206442      0.700729      0.324648
     11.47061      7.39625      6.49480        -0.401923     -3.340832     -0.142132
      2.07306     11.30148     11.70525        -0.140266      0.694605      0.793809
      3.35203      1.55552      4.10706         1.288950     -0.281221      0.312373
      3.75503      1.44563      8.73930        -2.077564     -1.221782      1.464634
      5.70111     10.76564      3.59597        -1.452314     -1.210828      1.464477
     11.41275      7.30992     11.79512        -0.193654     -1.385810     -1.687308
      9.51821      5.38847      8.83067         0.596827      2.304675      1.818750
      2.44102     10.57556      3.36799        -0.876733      0.132640     -2.905929
      7.19062      3.34489      9.35740         0.378868     -0.496857     -1.372622
      4.27428      2.37715     12.28826        -0.204462      0.658086     -0.023293
      3.70298      6.98041      4.87859        -0.334663      0.170738     -0.158747
      4.22644      6.67960      0.84738         0.912133      0.586402      0.564687
     12.24350      1.66775      3.93863         0.948877     -1.795494      1.251677
      7.62229      7.69844      1.64043        -1.344000     -0.306130      0.440705
      7.77206     11.95243      6.82775        -1.983133     -2.749870      3.064261
      6.49670      3.98838      3.32337        -2.860677     -0.458858     -1.005551
     11.24351      9.43389      8.98105         0.368480      1.598783     -1.925787
     10.15382      3.53573      2.40723        -1.424287     -0.249479      0.110512
      1.13764      4.80931      5.08963         3.590224      0.459095     -0.946510
     11.53609     10.99073      1.49681         0.451240     -0.735896     -0.042948
     10.37970      1.75279      9.26413        -0.762826     -0.275109     -0.595743
      5.23416      9.32025      7.65375        -0.306559      0.731281     -3.007890
      3.11801      4.45595      1.85260         1.204679     -2.651557      1.699171
      8.62615      2.17158      4.96932         0.255684     -2.208576     -3.556986
      5.65506      2.80146      6.58090        -4.777897     -3.610181      1.221765
      9.48771      9.19770     12.01492         1.109820     -3.874006     -0.155267
      8.76753     12.23872      3.12805        -0.694613      1.323144     -1.000887
      6.37606      8.04197      5.01683        -0.925622      0.555730     -2.110821
      1.03247      1.20657      6.61599        -1.817048      0.730435      2.086568
      7.00298      4.12549      0.24786        -0.670831     -1.218084     -0.268603
      5.38760      5.48694      9.93360        -1.687664      0.125956      3.638642
      6.85905      0.66186     10.19447         2.038205      0.165379      0.119004
      8.24832      8.83541      7.73133         1.766753     -0.885988     -4.354695
      3.21284      4.84385      7.78163        -1.283453     -3.840378     -4.628810
      0.91943      6.08179      9.19241         0.275868     -0.275246      1.680731
      8.10349     11.46712      0.18284        -2.330515      3.196081     -4.176930
      9.72695      3.99429     11.72862        -1.642657     -3.407522     -0.487170
      4.57743     10.97539     10.21100         0.587593      0.407424      1.388426
     11.79055      1.79887      0.42194         1.925807     -1.439042     -0.660041
      1.64583      0.81956      1.33091         2.685984     -0.851556      1.838635
      3.15099     11.30357      6.34031         5.423437      7.672866     -1.655141
      9.79886      6.47218      4.03955         1.597027      3.642226     -0.507129
      5.27048     10.09998      0.62073        -5.018124      1.386669      2.543773
      1.25338      2.66741      9.61996        -1.322166      2.065885     -0.854746
      0.94215      9.38350      5.70259        -0.138941     -0.259936     -1.081274
     11.47319     11.85795     10.62995        -4.559990      4.721344      0.363000
     10.50194      4.05918      6.02636        -0.074712      3.442865      2.587980
      1.56752      8.42572      0.42465        -0.524947     -1.781181     -0.020539
      3.23301      8.02759     10.17974         0.729552     -1.156523      0.854766
     10.26702      2.83862      5.20897        -1.576283     -9.036826     -3.992326
      3.27615     11.74586      9.73447         0.623676      0.128069      0.113611
      2.21002      8.67922     11.34318         0.713026     -0.628226      0.739429
      0.40033      9.99854      4.23790         0.098856      1.463764      1.266411
      0.23494     11.24308     10.24343         4.389043     -3.701105     -0.112318
      3.77296      3.37404      7.01717         0.173406      2.735750      0.563355
[...]
      2.69294      5.90506      6.68829         0.103168     -0.050498     -0.803417
      9.16277      7.35291      7.43479        -1.412256      1.455225      1.967491
      6.43033     11.21433      0.55000         3.666292     -0.840037     -0.236792
      0.86081      2.15969      0.82388        -1.461939      3.606353     -1.614731
      7.87268      8.86805     12.37110         3.303796      1.564744     -0.555586
      7.09252      9.22226      8.76765         0.515798     -1.207606      1.184353
      3.11506      2.83995      2.36907         0.322225      1.123916     -1.309204
      4.22697      5.19132      8.86690         4.248565      0.943405      1.991636
      4.29071     10.67651      2.02616         1.679329     -1.674095     -3.249662
     12.25854      9.19515      6.75419        -0.168552      3.712045      2.005472
      2.11773      7.42986      9.14647        -0.768909     -1.270166     -0.751666
     11.24972      1.70782      1.88730        -1.406327     -0.983463      3.621591
     10.50744     11.86295      9.30327         0.519494      0.387717      2.352314
      6.82685      6.10458      9.88025         2.241103      0.459028     -2.724409
      8.44734     12.16775      1.50713         1.466388      0.699822      1.470092
    total drift:                                0.000680     -0.033933     -0.026334

  FREE ENERGIE OF THE ION-ELECTRON SYSTEM (eV)
  free  energy   TOTEN  =      -940.96841122 eV

  energy  without entropy=     -940.96841122  energy(sigma->0) =     -940.96841122