 vasp.5.4.4.18Apr17-6-g9f103f2a35 (build Oct 31 2019 15:01:46) complex

 executed on             LinuxIFC date 2024.04.28  22:22:54

 INCAR:
 POTCAR:    PAW_PBE Ca_sv 06Sep2000
 POTCAR:    PAW_PBE Si 05Jan2001
 POTCAR:    PAW_PBE O 08Apr2002
 POTCAR:    PAW_PBE Ca_sv 06Sep2000
   VRHFIN =Ca: 3s3p4s

   TITEL  = PAW_PBE Ca_sv 06Sep2000
   POMASS =   40.078; ZVAL   =   10.000    mass and valenz
   ENMAX  =  266.622; ENMIN  =  199.967 eV

   TITEL  = PAW_PBE Si 05Jan2001
   POMASS =   28.085; ZVAL   =    4.000    mass and valenz
   ENMAX  =  245.345; ENMIN  =  184.009 eV

   TITEL  = PAW_PBE O 08Apr2002
   POMASS =   16.000; ZVAL   =    6.000    mass and valenz
   ENMAX  =  400.000; ENMIN  =  300.000 eV

 Optimization of the real space projectors (new method)

 maximal supplied QI-value         = 16.25
 optimisation between [QCUT,QGAM] = [ 12.51, 25.03] = [ 43.85,175.40] Ry
 Optimized for a Real-space Cutoff    1.47 Angstroem

   l    n(q)    QCUT    max X(q) W(low)/X(q) W(high)/X(q)  e(spline)
   0     11    12.514    11.817    0.25E-04    0.32E-05    0.87E-07
   0     11    12.514     8.461    0.39E-04    0.59E-05    0.18E-06
   1     11    12.514     3.957    0.97E-05    0.57E-05    0.28E-07
   1     11    12.514     4.314    0.42E-04    0.14E-04    0.23E-06
   2     10    12.514    14.565    0.79E-04    0.50E-03    0.16E-05
   2     10    12.514    14.552    0.75E-04    0.48E-03    0.15E-05
 Optimization of the real space projectors (new method)

[...]

   l    n(q)    QCUT    max X(q) W(low)/X(q) W(high)/X(q)  e(spline)
   0      9    12.501   159.560    0.10E-03    0.83E-04    0.71E-07
   0      9    12.501   115.863    0.99E-04    0.81E-04    0.70E-07
   1      8    12.501    88.339    0.20E-03    0.25E-03    0.76E-07
   1      8    12.501    48.592    0.20E-03    0.24E-03    0.75E-07
 Optimization of the real space projectors (new method)

 maximal supplied QI-value         = 24.76
 optimisation between [QCUT,QGAM] = [ 12.38, 25.00] = [ 42.90,175.06] Ry
 Optimized for a Real-space Cutoff    1.16 Angstroem

   l    n(q)    QCUT    max X(q) W(low)/X(q) W(high)/X(q)  e(spline)
   0      9    12.378    20.381    0.16E-03    0.67E-05    0.31E-06
   0      9    12.378    15.268    0.17E-03    0.81E-05    0.33E-06
   1      8    12.378     5.964    0.20E-03    0.16E-03    0.30E-06
   1      8    12.378     5.382    0.18E-03    0.14E-03    0.26E-06
  PAW_PBE Ca_sv 06Sep2000               :
  PAW_PBE Si 05Jan2001                  :
  PAW_PBE O 08Apr2002                   :

 POSCAR: Ca Si  O
  positions in direct lattice
 exchange correlation table for  LEXCH =        8
   RHO(1)=    0.500       N(1)  =     2000
   RHO(2)=  100.500       N(2)  =     4000

 ion  position               nearest neighbor table
   1  0.740  0.228  0.712- 122 2.24  65 2.31  52 3.09  29 3.10
   2  0.243  0.421  0.255-  85 2.17
   3  0.596  0.869  0.375-  67 2.00 115 2.45  30 2.99
   4  0.125  0.846  0.988-  94 2.03 128 2.15  78 2.28 124 2.47  36 2.74
   5  0.326  0.978  0.184- 104 2.09 133 2.37
   6  0.482  0.557  0.986-  95 2.37
   7  0.779  0.575  0.677-  70 2.20  63 2.22 107 2.36
   8  0.034  0.148  0.360- 125 1.86  84 2.16
   9  0.123  0.695  0.344-  87 2.04  32 2.99
  10  0.639  0.115  0.203-  71 2.09  88 2.13  57 2.28  66 2.35  17 3.16
  11  0.514  0.180  0.491-  99 2.21  76 2.57  38 2.89
  12  0.997  0.005  0.554- 127 2.05  82 2.52  64 2.55
  13  0.064  0.129  0.809- 126 1.93  82 2.11  36 2.82
  14  0.222  0.133  0.516- 131 2.34  84 2.39  72 2.54  43 2.91
  15  0.759  0.829  0.921- 103 2.44  69 2.49
  16  0.609  0.593  0.322- 112 2.10 135 2.20  86 2.36
  17  0.613  0.158  0.983-  83 1.87  54 3.06  10 3.16
  18  0.293  0.186  0.004- 111 1.87  60 2.04  36 2.90
  19  0.243  0.680  0.613- 123 2.09 129 2.17  44 2.96  53 3.09  24 3.10
  20  0.091  0.509  0.773-  81 2.23 123 2.37  77 2.48  34 2.93
  21  0.897  0.498  0.243- 118 2.19  80 2.28  93 2.40  46 3.03  39 3.10
  22  0.329  0.259  0.737-  61 2.15  72 2.43
  23  0.465  0.420  0.618-  73 2.17  61 2.34  47 2.72  41 3.13  45 3.13
  24  0.445  0.767  0.641-  90 2.30  97 2.34  49 2.97  19 3.10
  25  0.822  0.312  0.455- 110 2.15
  26  0.872  0.500  0.955- 130 2.28  77 2.43  80 2.47  39 3.14
  27  0.373  0.919  0.829-  75 2.15  78 2.23 113 2.53
  28  0.390  0.679  0.279- 109 1.56 112 1.59  56 1.77  96 1.95  35 2.88  42 3.09
  29  0.899  0.378  0.680-  65 1.52 110 1.58  63 1.63 120 1.80   1 3.10
  30  0.701  0.861  0.189-  57 1.47  67 1.55   3 2.99
  31  0.930  0.916  0.755- 103 1.70  82 1.73  91 1.73  64 1.94  52 2.58
  32  0.124  0.907  0.364-  87 1.46 101 1.60 133 1.63 127 1.70   9 2.99  42 3.14
  33  0.036  0.386  0.387-  85 1.47 125 1.66  93 1.70 116 1.84  43 3.11
  34  0.136  0.510  0.977-  77 1.68 106 1.76 134 1.91  98 2.09  37 2.67  20 2.93
  35  0.267  0.678  0.114-  98 1.61  94 1.66  56 1.72  96 2.04  28 2.88
  36  0.180  0.026  0.937-  78 1.63 126 1.66 111 1.77 124 1.80   4 2.74  13 2.82  18 2.90
  37  0.101  0.329  0.026-  60 1.50  62 1.54 106 1.80 134 2.10  34 2.67
  38  0.551  0.319  0.343- 114 1.55 108 1.64  88 1.72  89 1.77  11 2.89  40 3.03  45 3.11
  39  0.720  0.537  0.116- 130 1.53 135 1.62  80 1.73  74 2.26  21 3.10  26 3.14  40 3.14
  40  0.610  0.343  0.136- 119 1.48  74 1.65  89 1.74  83 1.82  38 3.03  39 3.14
  41  0.494  0.382  0.836-  61 1.61  95 1.64  58 1.93  59 1.97  47 3.11  23 3.13
  42  0.337  0.850  0.408- 115 1.65 121 1.67 109 1.69 101 2.12 133 2.40  28 3.09  32 3.14
  43  0.087  0.279  0.574- 116 1.62  84 1.72  72 1.80 120 1.91  14 2.91  33 3.11
  44  0.115  0.787  0.742- 128 1.61 123 1.87  91 2.00 117 2.34  19 2.96
  45  0.354  0.335  0.444-  92 1.47  99 1.70 114 1.76  79 1.78  38 3.11  23 3.13
  46  0.840  0.551  0.445- 107 1.59 118 1.73  86 1.91  93 1.98  21 3.03
  47  0.392  0.554  0.738- 132 1.54  73 1.55  97 1.74  95 1.94  23 2.72  41 3.11
  48  0.543  0.761  0.907- 100 1.52  69 1.72  55 1.82  68 2.10
  49  0.647  0.767  0.704-  70 1.58  90 1.61  55 1.70 102 2.38  24 2.97
  50  0.246  0.928  0.612- 131 1.61 117 1.66  75 1.70 121 1.97
  51  0.736  0.077  0.446-  66 1.54  76 1.61 105 1.70
  52  0.774  0.011  0.732-  64 1.47 122 1.64 102 1.76 103 2.18  31 2.58   1 3.09
  53  0.199  0.476  0.543-  81 1.53  79 1.61 129 1.80 116 2.16  19 3.09
  54  0.502  0.975  0.030- 113 1.61  68 1.70  71 1.72 104 2.05  17 3.06
  55  0.577  0.811  0.792-  49 1.70  48 1.82
  56  0.381  0.700  0.155-  35 1.72  28 1.77
  57  0.699  0.964  0.208-  30 1.47  10 2.28
  58  0.410  0.387  0.945-  41 1.93
  59  0.632  0.364  0.823-  41 1.97
  60  0.181  0.264  0.057-  37 1.50  18 2.04
[...]
 121  0.331  0.856  0.526-  42 1.67  50 1.97
 122  0.717  0.092  0.794-  52 1.64   1 2.24
 123  0.128  0.659  0.705-  44 1.87  19 2.09  20 2.37
 124  0.055  0.005  0.958-  36 1.80   4 2.47
 125  0.001  0.276  0.363-  33 1.66   8 1.86
 126  0.193  0.105  0.850-  36 1.66  13 1.93
 127  0.095  0.991  0.446-  32 1.70  12 2.05
 128  0.162  0.813  0.843-  44 1.61   4 2.15
 129  0.174  0.595  0.503-  53 1.80  19 2.17
 130  0.741  0.575  0.015-  39 1.53  26 2.28
 131  0.279  0.035  0.639-  50 1.61  14 2.34
 132  0.364  0.645  0.792-  47 1.54
 133  0.221  0.917  0.300-  32 1.63   5 2.37  42 2.40
 134  0.093  0.461  0.096-  34 1.91  37 2.10
 135  0.681  0.621  0.184-  39 1.62  16 2.20

IMPORTANT INFORMATION: All symmetrisations will be switched off!
NOSYMM: (Re-)initialisation of all symmetry stuff for point group C_1.

Automatic generation of k-mesh.
 generate k-points for:    2    2    2
Space group operators:
 irot       det(A)        alpha          n_x          n_y          n_z        tau_x        tau_y        tau_z
    1     1.000000     0.000000     1.000000     0.000000     0.000000     0.000000     0.000000     0.000000

 Subroutine IBZKPT returns following result:

 Found      8 irreducible k-points:

 Following reciprocal coordinates:
            Coordinates               Weight
  0.000000  0.000000  0.000000      1.000000
  0.500000  0.000000  0.000000      1.000000
  0.000000  0.500000  0.000000      1.000000
  0.500000  0.500000  0.000000      1.000000
  0.000000  0.000000  0.500000      1.000000
  0.500000  0.000000  0.500000      1.000000
  0.000000  0.500000  0.500000      1.000000
  0.500000  0.500000  0.500000      1.000000

 Following cartesian coordinates:
            Coordinates               Weight
  0.000000  0.000000  0.000000      1.000000
  0.035682  0.000000  0.000000      1.000000
  0.000000  0.035682  0.000000      1.000000
  0.035682  0.035682  0.000000      1.000000
  0.000000  0.000000  0.035682      1.000000
  0.035682  0.000000  0.035682      1.000000
  0.000000  0.035682  0.035682      1.000000
  0.035682  0.035682  0.035682      1.000000

 SYSTEM =  unknown system
 POSCAR =  Ca Si  O

 Startparameter for this run:
   NWRITE =      2    write-flag & timer
   PREC   = a         normal or accurate (medium, high low for compatibility)
   ISTART =      0    job   : 0-new  1-cont  2-samecut
   ICHARG =      2    charge: 1-file 2-atom 10-const
   ISPIN  =      1    spin polarized calculation?
   LNONCOLLINEAR =      F non collinear calculations
   LSORBIT =      F    spin-orbit coupling
   INIWAV =      1    electr: 0-lowe 1-rand  2-diag
   LASPH  =      F    aspherical Exc in radial PAW
   METAGGA=      F    non-selfconsistent MetaGGA calc.

 Electronic Relaxation 1
   ENCUT  =  600.0 eV  44.10 Ry    6.64 a.u.  27.99 27.99 27.99*2*pi/ulx,y,z
   ENINI  =  600.0     initial cutoff
   ENAUG  =  605.4 eV  augmentation charge cutoff
   NELM   =     60;   NELMIN=  2; NELMDL= -5     # of ELM steps
   EDIFF  = 0.1E-05   stopping-criterion for ELM
   LREAL  =      T    real-space projection
   NLSPLINE    = F    spline interpolate recip. space projectors
   LCOMPAT=      F    compatible to vasp.4.4
   GGA_COMPAT  = T    GGA compatible to vasp.4.4-vasp.4.6
   LMAXPAW     = -100 max onsite density
   LMAXMIX     =    2 max onsite mixed and CHGCAR
   VOSKOWN=      0    Vosko Wilk Nusair interpolation
   ROPT   =   -0.00025  -0.00025  -0.00025
 Ionic relaxation
   EDIFFG = -.1E-01   stopping-criterion for IOM
   NSW    =      1    number of steps for IOM
   NBLOCK =      1;   KBLOCK =      1    inner block; outer block
   IBRION =     -1    ionic relax: 0-MD 1-quasi-New 2-CG
   NFREE  =      0    steps in history (QN), initial steepest desc. (CG)
   ISIF   =      2    stress and relaxation
   IWAVPR =     10    prediction:  0-non 1-charg 2-wave 3-comb
   ISYM   =      0    0-nonsym 1-usesym 2-fastsym
   LCORR  =      T    Harris-Foulkes like correction to forces

   POTIM  = 1.0000    time-step for ionic-motion
   TEIN   =    0.0    initial temperature
   TEBEG  =    0.0;   TEEND  =   0.0 temperature during run
   SMASS  =  -3.00    Nose mass-parameter (am)
   estimated Nose-frequenzy (Omega)   =  0.10E-29 period in steps =****** mass=  -0.449E-26a.u.
   SCALEE = 1.0000    scale energy and forces
   NPACO  =    256;   APACO  = 16.0  distance and # of slots for P.C.
   PSTRESS=    0.0 pullay stress

  Mass of Ions in am
   POMASS =  40.08 28.09 16.00
  Ionic Valenz
   ZVAL   =  10.00  4.00  6.00
  Atomic Wigner-Seitz radii
  virtual crystal weights
   VCA    =   1.00  1.00  1.00
   NELECT =     864.0000    total number of electrons
[...]
     0.000000000  0.000000000 14.012776000     0.000000000  0.000000000  0.071363447

  length of vectors
    14.012776000 14.012776000 14.012776000     0.071363447  0.071363447  0.071363447

 FORCES acting on ions
    electron-ion (+dipol)            ewald-force                    non-local-force                 convergence-correction
   0.129E+03 -.163E+02 -.867E+02   -.126E+03 0.152E+02 0.930E+02   -.332E+01 0.174E+01 -.512E+01   -.982E-02 0.113E-01 0.883E-02
   -.876E+02 0.115E+03 0.225E+03   0.821E+02 -.110E+03 -.225E+03   0.519E+01 -.306E+01 -.127E+01   -.467E-03 0.593E-03 0.195E-04
   -.266E+03 0.136E+02 -.190E+03   0.262E+03 -.115E+02 0.184E+03   0.290E+01 -.465E+00 0.724E+01   0.156E-02 0.444E-04 0.168E-02
   0.507E+03 0.924E+02 -.299E+03   -.500E+03 -.906E+02 0.296E+03   -.715E+01 -.962E+00 0.229E+01   -.234E-02 -.125E-02 -.120E-03
   0.121E+03 -.223E+03 -.104E+03   -.121E+03 0.216E+03 0.101E+03   -.883E+00 0.637E+01 0.262E+01   -.474E-02 0.309E-02 0.269E-02
   -.275E+02 -.379E+02 -.159E+03   0.292E+02 0.330E+02 0.156E+03   -.135E+01 0.377E+01 0.247E+01   0.349E-02 -.541E-02 -.584E-02
   0.150E+03 -.725E+02 -.101E+03   -.142E+03 0.741E+02 0.966E+02   -.599E+01 -.197E+01 0.259E+01   -.382E-02 -.621E-02 0.412E-02
   0.117E+03 0.277E+03 0.602E+03   -.119E+03 -.277E+03 -.596E+03   0.220E+01 -.555E+01 -.636E+01   -.182E-02 -.218E-03 -.198E-03
   0.318E+03 0.111E+03 0.193E+03   -.316E+03 -.106E+03 -.191E+03   -.854E+00 -.572E+01 -.116E+01   -.874E-03 -.579E-03 0.359E-03
   -.362E+03 0.728E+02 0.994E+02   0.358E+03 -.733E+02 -.951E+02   0.500E+01 0.136E+01 -.312E+01   0.395E-02 -.115E-02 -.329E-03
   -.117E+03 0.285E+03 -.114E+03   0.119E+03 -.283E+03 0.110E+03   0.193E-01 -.257E+01 0.233E+01   0.153E-02 0.215E-02 0.549E-02
   0.314E+03 0.163E+03 0.113E+03   -.313E+03 -.163E+03 -.112E+03   -.246E+01 -.155E+00 0.831E+00   -.975E-03 0.992E-03 0.748E-03
   0.313E+03 -.207E+03 -.208E+03   -.313E+03 0.201E+03 0.208E+03   -.355E+01 0.705E+01 -.443E+00   -.160E-02 0.206E-02 -.268E-03
   -.163E+03 0.790E+02 0.246E+03   0.163E+03 -.798E+02 -.238E+03   0.115E+01 0.514E+00 -.651E+01   -.168E-03 0.107E-02 0.231E-02
   -.292E+03 -.693E+01 -.266E+03   0.286E+03 0.840E+01 0.266E+03   0.344E+01 -.118E+01 0.634E+00   0.953E-03 0.863E-03 -.124E-02
   -.122E+03 -.103E+03 -.696E+02   0.123E+03 0.101E+03 0.675E+02   0.279E-01 0.978E+00 0.234E+01   -.632E-03 -.233E-03 0.233E-03
   -.348E+03 0.651E+02 0.225E+03   0.342E+03 -.627E+02 -.223E+03   0.619E+01 -.414E+01 -.455E+01   0.429E-02 0.696E-02 -.108E-01
   -.212E+03 -.167E+03 -.996E+02   0.207E+03 0.167E+03 0.102E+03   0.849E+01 0.283E+01 -.375E+01   -.223E-03 0.283E-02 -.317E-02
   0.102E+02 -.589E+02 0.767E+02   -.152E+02 0.552E+02 -.764E+02   0.574E+01 0.383E+01 -.849E+00   0.107E-02 -.155E-02 0.138E-02
   0.180E+03 -.462E+02 -.236E+03   -.179E+03 0.474E+02 0.230E+03   -.903E+00 -.130E+01 0.406E+01   -.238E-03 -.108E-02 -.245E-03
   -.934E+02 -.631E+02 0.231E+03   0.887E+02 0.659E+02 -.230E+03   0.471E+01 -.259E+01 -.138E+01   0.121E-02 -.164E-03 0.769E-03
   -.397E+02 0.199E+03 -.207E+03   0.397E+02 -.195E+03 0.204E+03   -.170E+01 -.348E+01 0.239E+01   0.672E-02 0.353E-02 0.795E-03
   -.431E+03 -.286E+02 0.145E+03   0.425E+03 0.297E+02 -.141E+03   0.539E+01 -.769E+00 -.474E+01   0.553E-02 -.296E-02 0.951E-02
   -.242E+03 -.834E+02 0.869E+02   0.243E+03 0.819E+02 -.878E+02   -.162E+01 0.160E+01 0.880E+00   0.615E-03 -.186E-02 0.122E-02
   0.118E+03 0.163E+03 0.180E+03   -.121E+03 -.157E+03 -.177E+03   0.171E+01 -.483E+01 -.359E+01   -.239E-03 -.287E-03 0.386E-02
   -.192E+01 0.345E+01 0.209E+02   -.110E+01 -.363E+01 -.164E+02   0.239E+01 -.729E+00 -.376E+01   -.261E-02 -.500E-02 -.643E-02
   -.210E+03 -.140E+03 0.247E+02   0.204E+03 0.139E+03 -.199E+02   0.564E+01 0.110E+01 -.255E+01   0.553E-03 -.190E-03 -.373E-02
   -.510E+02 -.255E+02 0.503E+02   0.527E+02 0.160E+02 -.457E+02   -.416E+01 0.429E+01 -.982E+01   -.369E-04 -.807E-03 0.629E-03
   0.408E+02 -.216E+02 -.643E+02   -.442E+02 0.159E+02 0.669E+02   0.747E+01 0.782E+01 -.252E+01   -.251E-02 -.319E-03 0.143E-02
   -.259E+03 0.101E+03 0.993E+02   0.255E+03 -.922E+02 -.955E+02   0.571E+01 -.139E+02 -.697E+01   0.156E-02 0.173E-03 -.528E-04
   0.546E+02 0.121E+03 -.701E+02   -.497E+02 -.114E+03 0.725E+02   -.240E+01 -.331E+01 -.309E+01   -.523E-03 0.345E-03 0.777E-04
   0.180E+03 -.124E+03 0.149E+03   -.174E+03 0.108E+03 -.147E+03   -.110E+01 0.197E+02 0.262E+01   -.116E-02 0.165E-03 -.108E-03
   0.532E+02 0.122E+02 0.721E+02   -.483E+02 -.892E+01 -.817E+02   -.952E+01 -.564E+01 0.150E+02   -.281E-03 -.912E-04 0.555E-03
   -.202E+02 -.761E+02 -.361E+02   0.949E+01 0.694E+02 0.384E+02   0.973E+01 0.546E+01 0.411E+01   -.137E-04 -.270E-03 -.674E-03
   0.586E+02 0.127E+02 -.102E+02   -.625E+02 -.919E+01 0.574E+01   0.371E+01 -.217E+01 0.634E+01   -.663E-03 -.922E-03 -.502E-03
   0.960E+02 -.230E+02 -.905E+02   -.941E+02 0.200E+02 0.904E+02   -.318E+01 0.315E+01 0.294E+01   -.678E-03 0.809E-03 -.662E-03
   0.998E+02 0.149E+02 -.693E+02   -.104E+03 -.266E+02 0.690E+02   0.222E+01 0.162E+02 0.156E+00   -.630E-03 -.116E-03 -.665E-03
   -.105E+02 -.138E+02 0.549E+02   0.178E+02 0.126E+02 -.553E+02   -.135E+01 -.990E-01 -.695E+01   -.410E-03 0.499E-03 0.102E-02
   -.208E+02 0.197E+01 -.451E+02   0.255E+02 0.826E+01 0.371E+02   -.617E+01 -.120E+02 0.807E+01   -.143E-02 -.956E-03 -.340E-03
   -.152E+02 -.114E+02 0.672E+02   0.234E+02 0.844E+01 -.636E+02   -.154E+02 0.426E+01 -.587E+01   -.154E-03 0.186E-02 -.292E-02
   -.993E+02 0.794E+02 -.109E+03   0.990E+02 -.771E+02 0.106E+03   0.320E+01 -.209E+01 0.747E+01   0.118E-01 -.215E-02 -.352E-02
   -.155E+02 -.403E+02 0.877E+02   0.244E+02 0.442E+02 -.804E+02   -.113E+02 -.214E+01 -.619E+01   0.228E-03 -.477E-03 0.108E-02
   0.594E+02 0.406E+02 -.401E+02   -.575E+02 -.398E+02 0.408E+02   -.235E+01 -.696E+00 0.576E+01   -.281E-03 0.312E-03 0.696E-03
   0.127E+03 0.155E+02 -.542E+01   -.122E+03 -.182E+02 0.187E+02   -.659E+01 0.116E+01 -.141E+02   0.929E-04 -.389E-03 -.301E-04
   0.355E+02 -.903E+02 0.763E+02   -.341E+02 0.713E+02 -.827E+02   0.213E+01 0.208E+02 0.131E+02   0.373E-03 0.477E-03 0.151E-02
   0.312E+02 -.428E+02 0.342E+02   -.326E+02 0.578E+02 -.285E+02   -.141E+01 -.108E+02 -.669E+01   0.525E-03 -.587E-03 0.943E-03
   -.689E+02 -.158E+02 -.766E+02   0.604E+02 0.214E+02 0.755E+02   0.107E+02 -.344E+01 0.160E+01   0.174E-02 -.175E-02 0.297E-03
   -.918E+02 0.575E+02 0.432E+01   0.835E+02 -.578E+02 0.563E+01   0.131E+02 0.317E+01 -.842E+01   0.189E-03 -.149E-02 -.180E-02
   -.577E+02 0.431E+02 -.161E+01   0.624E+02 -.412E+02 -.787E+01   -.372E+01 0.355E+01 0.777E+01   -.169E-03 -.516E-03 0.218E-03
   -.140E+02 -.467E+02 0.561E+02   0.139E+02 0.476E+02 -.446E+02   0.244E+01 -.469E+01 -.964E+01   0.195E-03 -.130E-04 0.512E-03
   -.883E+02 0.108E+03 0.269E+02   0.809E+02 -.104E+03 -.290E+02   0.105E+02 -.313E+01 0.446E+01   0.327E-03 0.323E-03 0.807E-03
   0.560E+02 -.127E+02 -.371E+02   -.599E+02 0.108E+02 0.331E+02   -.724E+01 -.585E+00 0.101E+02   -.957E-03 0.118E-02 0.249E-03
   0.529E+02 -.366E+02 0.126E+03   -.515E+02 0.413E+02 -.110E+03   -.383E+01 -.717E+00 -.175E+02   0.329E-03 -.115E-03 0.866E-03
   -.647E+02 0.129E+02 -.632E+02   0.634E+02 -.903E+01 0.568E+02   -.936E-01 -.673E+01 0.846E+01   0.181E-02 0.159E-02 -.193E-02
   -.677E+02 -.431E+02 0.658E+01   0.605E+02 0.662E+02 -.453E+01   0.651E+01 -.263E+02 -.150E+01   0.577E-03 -.683E-03 -.168E-02
   -.119E+03 -.149E+02 0.708E+02   0.143E+03 0.253E+02 -.867E+02   -.224E+02 -.979E+01 0.164E+02   -.377E-03 -.308E-02 0.371E-04
   -.315E+03 0.116E+02 0.558E+02   0.315E+03 0.219E+02 -.494E+02   0.384E+00 -.271E+02 -.585E+01   0.274E-02 -.237E-03 -.138E-03
   0.595E+02 0.817E+02 -.153E+03   -.714E+02 -.817E+02 0.167E+03   0.143E+02 -.108E+01 -.175E+02   0.504E-02 0.223E-03 -.488E-02
   -.180E+03 0.197E+02 -.582E+02   0.195E+03 -.181E+02 0.591E+02   -.184E+02 -.188E+01 -.659E+00   0.749E-04 0.165E-02 0.950E-03
   0.800E+02 0.387E+02 -.208E+03   -.593E+02 -.593E+02 0.220E+03   -.186E+02 0.191E+02 -.902E+01   -.110E-02 0.508E-03 -.110E-02
[...]
   0.573E+02 -.466E+02 -.180E+03   -.747E+02 0.575E+02 0.198E+03   0.193E+02 -.946E+01 -.191E+02   -.120E-02 0.476E-02 -.524E-03
   0.221E+03 -.197E+02 -.923E+02   -.224E+03 0.339E+01 0.885E+02   0.205E+01 0.204E+02 0.540E+01   0.393E-03 -.869E-03 0.196E-03
   0.334E+03 -.226E+02 -.256E+03   -.358E+03 0.227E+02 0.262E+03   0.273E+02 -.104E+00 -.704E+01   -.185E-02 0.778E-03 0.450E-03
   0.134E+03 0.323E+02 0.289E+03   -.142E+03 -.460E+02 -.295E+03   0.695E+01 0.194E+02 0.590E+01   -.677E-03 -.129E-03 0.318E-03
   -.898E+02 -.836E+02 -.137E+02   0.996E+02 0.957E+02 -.459E+01   -.604E+01 -.119E+02 0.199E+02   -.119E-03 0.151E-02 -.107E-02
   0.102E+03 0.443E+01 0.211E+03   -.101E+03 0.412E+01 -.196E+03   -.418E+00 -.669E+01 -.176E+02   -.107E-02 0.591E-03 0.380E-03
   0.109E+03 0.104E+03 -.761E+02   -.900E+02 -.971E+02 0.977E+02   -.212E+02 -.856E+01 -.246E+02   -.216E-03 -.109E-02 -.616E-03
   0.140E+03 -.522E+02 0.169E+03   -.148E+03 0.689E+02 -.176E+03   0.918E+01 -.207E+02 0.639E+01   0.258E-03 -.543E-03 0.106E-02
   -.761E+02 -.129E+03 0.105E+03   0.756E+02 0.144E+03 -.134E+03   0.238E+01 -.139E+02 0.252E+02   -.985E-03 -.365E-02 -.361E-02
   -.163E+03 -.974E+02 -.556E+02   0.173E+03 0.120E+03 0.704E+02   -.111E+02 -.215E+02 -.175E+02   0.343E-03 0.764E-03 0.716E-03
   0.359E+02 -.754E+02 -.187E+03   -.455E+02 0.105E+03 0.208E+03   0.845E+01 -.282E+02 -.198E+02   0.109E-02 -.193E-02 -.642E-03
   0.533E+02 -.127E+03 0.205E+03   -.373E+02 0.125E+03 -.219E+03   -.135E+02 0.519E+01 0.107E+02   -.155E-02 0.142E-04 0.871E-04
   0.111E+03 -.370E+02 -.122E+03   -.119E+03 0.403E+02 0.140E+03   0.961E+01 -.404E+01 -.208E+02   -.290E-03 -.415E-03 -.950E-03
   -.105E+03 -.187E+03 0.212E+02   0.977E+02 0.213E+03 -.114E+02   0.769E+01 -.282E+02 -.944E+01   -.241E-03 0.599E-04 0.250E-03
   -.319E+02 0.644E+02 0.124E+03   0.284E-13 0.341E-12 -.483E-12   0.319E+02 -.644E+02 -.124E+03   0.285E-01 -.531E-02 0.102E-01

 POSITION                                       TOTAL-FORCE (eV/Angst)
     10.36899      3.18812      9.97081        -0.080107      0.633728      1.167947
      3.40563      5.89875      3.57543        -0.282648      1.255808     -1.200863
      8.34987     12.17071      5.24881        -1.165540      1.665243      1.206357
      1.74576     11.85128     13.84835        -0.638673      0.843406     -0.655128
      4.57514     13.70947      2.57419        -0.458950     -0.493372     -0.415622
      6.75391      7.81114     13.81106         0.330021     -1.133999      0.079561
     10.91998      8.05175      9.47974         1.071244     -0.412869     -2.014151
      0.47882      2.06820      5.04996        -0.045182     -4.936428     -0.586236
      1.72498      9.73264      4.82550         1.080532     -0.592173      0.978462
      8.95899      1.61757      2.84628         0.718850      0.931336      1.115012
      7.19816      2.52536      6.87529         1.357100     -0.722259     -1.274507
     13.97415      0.07479      7.76687        -1.418121     -0.067608      2.044843
      0.89305      1.81022     11.33722        -3.801216      1.269792     -0.519781
      3.11697      1.85825      7.22457         0.886782     -0.330640      1.445210
     10.64118     11.61755     12.89944        -1.784769      0.283473      0.216828
      8.53881      8.31181      4.50594         1.940547     -0.815312      0.265818
      8.58775      2.21574     13.77879         0.254811     -1.731759     -2.556437
      4.10679      2.60363      0.06283         3.333709      2.555244     -1.518877
      3.40780      9.53507      8.58328         0.754033      0.143313     -0.448787
      1.27195      7.13090     10.83637        -0.584187     -0.106070     -1.886448
     12.57020      6.98256      3.40936        -0.003282      0.225676     -0.674656
      4.60563      3.62974     10.32428        -1.622121      0.352407     -0.647430
      6.51615      5.88264      8.66066        -0.002801      0.298886     -0.695032
      6.23239     10.75223      8.97666        -0.192336      0.047151      0.030568
     11.52074      4.36569      6.37913        -1.227989      0.655459     -0.520183
     12.21612      7.00669     13.37989        -0.641484     -0.918178      0.690725
      5.23254     12.87097     11.61710        -0.254458     -0.087729      2.247966
      5.47174      9.51826      3.91275        -2.467028     -5.246224     -5.163127
     12.59937      5.29763      9.52728         4.032885      2.159402      0.052559
      9.81761     12.06306      2.65022         1.555298     -4.687075     -3.157421
     13.03455     12.84252     10.57430         2.484743      4.030730     -0.688219
      1.74351     12.71390      5.09759         5.295701      3.770829      3.789541
      0.49961      5.41467      5.41774        -4.592222     -2.329571      5.416202
      1.91065      7.14028     13.69509        -0.931120     -1.195228      6.405238
      3.74589      9.50229      1.60258        -0.131431      1.298642      1.893732
      2.52240      0.36936     13.13607        -1.263626      0.171907      2.911553
      1.42010      4.60560      0.36649        -1.993694      4.450767     -0.157509
      7.72632      4.47526      4.80455         6.024198     -1.279272     -7.368855
     10.09192      7.52034      1.61938        -1.501161     -1.796466      0.058384
      8.54652      4.80064      1.90493        -7.218046      1.288542     -2.251206
      6.91749      5.35771     11.71664         2.886143      0.200168      4.253922
      4.72056     11.91045      5.71102        -2.346034      1.776203      1.181372
      1.22333      3.90820      8.04242        -0.492445      0.157496      6.449389
      1.60699     11.02554     10.40028        -1.337165     -1.546429     -0.860543
      4.96374      4.69907      6.21559         3.519433      1.761659      6.642009
     11.76444      7.71660      6.24037        -2.796620      4.234999     -0.992639
      5.49587      7.75681     10.34193         2.155145      2.146243      0.521883
      7.61219     10.65798     12.71291         4.787246      2.877313      1.529911
      9.06419     10.75256      9.85812         0.926081      5.403107     -1.703382
      3.45075     13.00610      8.57318         2.328311     -3.787381      1.858370
     10.30720      1.07573      6.24623         3.107825      0.779395      2.364643
     10.84464      0.14846     10.26001       -11.089793     -2.474519      6.095346
      2.79210      6.67070      7.61285        -2.481764      3.927255     -1.112834
      7.03587     13.66881      0.41496        -1.404962     -2.882254      2.051322
      8.07918     11.36623     11.10214        -0.655202     -3.196165      0.550129
      5.33832      9.80929      2.16696         0.590128      0.615678      0.526013
      9.79808     13.51196      2.91014         1.244949      6.311723      0.595177
      5.74651      5.41750     13.24442         2.460277     -1.128426     -3.074112
      8.86212      5.10292     11.53781        -2.880663     -0.285196      0.248312
      2.54202      3.69757      0.79205         2.105269     -1.409213      2.923740
[...]
      4.64147     11.99752      7.37224         0.365471     -0.136408      2.017999
     10.04911      1.28896     11.12257         1.859300      1.474548     -1.015400
      1.79437      9.23783      9.88019        -1.091546      4.087725      1.606848
      0.77157      0.07308     13.42706         3.761963     -0.053143     -1.172127
      0.01064      3.86352      5.08703        -1.688150      5.647218     -0.158213
      2.70030      1.46901     11.90646         3.760535      0.133674      1.588839
      1.33135     13.89313      6.24760        -0.027836      1.861028     -3.344608
      2.27361     11.38715     11.81755        -2.315110     -1.359160     -2.955674
      2.44447      8.33971      7.04475         0.885561     -3.965334     -0.449744
     10.37758      8.05056      0.21006         1.889164      1.195548     -4.278662
      3.90778      0.49232      8.94858        -0.850591      1.309748     -2.681276
      5.09821      9.04149     11.10229        -1.110119      1.552022      1.006333
      3.09811     12.84561      4.20848         2.553209      2.962728     -3.091294
      1.29623      6.45469      1.35058         1.544364     -0.686434     -2.652363
      9.54286      8.70015      2.58390         0.495920     -2.060060      0.350675
    total drift:                               -0.003550      0.005723     -0.006444

  FREE ENERGIE OF THE ION-ELECTRON SYSTEM (eV)
  free  energy   TOTEN  =      -889.46434065 eV

  energy  without entropy=     -889.37753447  energy(sigma->0) =     -889.42093756