 vasp.5.4.4.18Apr17-6-g9f103f2a35 (build Mar 16 2023 09:39:13) complex

 executed on             LinuxIFC date 2024.04.30  10:39:41

 INCAR:
 POTCAR:    PAW_PBE Ca_sv 06Sep2000
 POTCAR:    PAW_PBE Si 05Jan2001
 POTCAR:    PAW_PBE O 08Apr2002
 POTCAR:    PAW_PBE Ca_sv 06Sep2000
   VRHFIN =Ca: 3s3p4s

   TITEL  = PAW_PBE Ca_sv 06Sep2000
   POMASS =   40.078; ZVAL   =   10.000    mass and valenz
   ENMAX  =  266.622; ENMIN  =  199.967 eV

   TITEL  = PAW_PBE Si 05Jan2001
   POMASS =   28.085; ZVAL   =    4.000    mass and valenz
   ENMAX  =  245.345; ENMIN  =  184.009 eV

   TITEL  = PAW_PBE O 08Apr2002
   POMASS =   16.000; ZVAL   =    6.000    mass and valenz
   ENMAX  =  400.000; ENMIN  =  300.000 eV

 Optimization of the real space projectors (new method)

 maximal supplied QI-value         = 16.25
 optimisation between [QCUT,QGAM] = [ 12.51, 25.03] = [ 43.85,175.40] Ry
 Optimized for a Real-space Cutoff    1.47 Angstroem

   l    n(q)    QCUT    max X(q) W(low)/X(q) W(high)/X(q)  e(spline)
   0     11    12.514    11.817    0.25E-04    0.32E-05    0.87E-07
   0     11    12.514     8.461    0.39E-04    0.59E-05    0.18E-06
   1     11    12.514     3.957    0.97E-05    0.57E-05    0.28E-07
   1     11    12.514     4.314    0.42E-04    0.14E-04    0.23E-06
   2     10    12.514    14.565    0.79E-04    0.50E-03    0.16E-05
   2     10    12.514    14.552    0.75E-04    0.48E-03    0.15E-05
 Optimization of the real space projectors (new method)

[...]

   l    n(q)    QCUT    max X(q) W(low)/X(q) W(high)/X(q)  e(spline)
   0      9    12.501   159.560    0.10E-03    0.83E-04    0.71E-07
   0      9    12.501   115.863    0.99E-04    0.81E-04    0.70E-07
   1      8    12.501    88.339    0.20E-03    0.25E-03    0.76E-07
   1      8    12.501    48.592    0.20E-03    0.24E-03    0.75E-07
 Optimization of the real space projectors (new method)

 maximal supplied QI-value         = 24.76
 optimisation between [QCUT,QGAM] = [ 12.38, 25.00] = [ 42.90,175.06] Ry
 Optimized for a Real-space Cutoff    1.16 Angstroem

   l    n(q)    QCUT    max X(q) W(low)/X(q) W(high)/X(q)  e(spline)
   0      9    12.378    20.381    0.16E-03    0.67E-05    0.31E-06
   0      9    12.378    15.268    0.17E-03    0.81E-05    0.33E-06
   1      8    12.378     5.964    0.20E-03    0.16E-03    0.30E-06
   1      8    12.378     5.382    0.18E-03    0.14E-03    0.26E-06
  PAW_PBE Ca_sv 06Sep2000               :
  PAW_PBE Si 05Jan2001                  :
  PAW_PBE O 08Apr2002                   :

 POSCAR: Ca Si  O
  positions in direct lattice
 exchange correlation table for  LEXCH =        8
   RHO(1)=    0.500       N(1)  =     2000
   RHO(2)=  100.500       N(2)  =     4000

 ion  position               nearest neighbor table
   1  0.162  0.977  0.078-  57 2.13 102 2.14  63 2.26 131 2.35  49 3.13
   2  0.541  0.600  0.453-  99 2.28 125 2.50
   3  0.810  0.080  0.166-  62 2.18 123 2.21 115 2.45 128 2.49
   4  0.120  0.039  0.497- 108 2.08 103 2.25  66 2.44  45 2.98
   5  0.402  0.169  0.476- 121 2.18  67 2.42  66 2.55 120 2.55  37 3.14
   6  0.033  0.276  0.295- 115 2.07 130 2.14  36 2.93
   7  0.892  0.576  0.440-  93 2.10  79 2.31  60 2.52 116 2.55  34 3.07
   8  0.024  0.794  0.234-  57 2.14 111 2.16  71 2.40  41 3.00
   9  0.078  0.798  0.856-  64 2.19 102 2.34  82 2.57  43 3.15
  10  0.492  0.904  0.436-  67 2.23  99 2.40
  11  0.203  0.596  0.415-  73 2.21
  12  0.886  0.495  0.020-  92 2.09 109 2.41  78 2.44 129 2.56  35 3.14
  13  0.731  0.879  0.836-  89 1.98 100 2.14 112 2.22  43 3.13
  14  0.310  0.313  0.262-  85 2.13  72 2.23 114 2.52 121 2.56
  15  0.633  0.321  0.029-  69 2.17 109 2.25
  16  0.314  0.601  0.700- 122 2.09 124 2.19 126 2.29  56 2.52  54 2.94
  17  0.356  0.841  0.825-  82 2.13  90 2.15  86 2.33  80 2.42  33 2.60
  18  0.406  0.117  0.852- 119 2.13  61 2.22  86 2.31
  19  0.336  0.342  0.900- 119 2.13 135 2.33  31 3.15
  20  0.187  0.532  0.015-  87 2.14  74 2.49
  21  0.650  0.569  0.149-  69 2.26 129 2.30  35 2.88
  22  0.996  0.293  0.609-  79 2.34  98 2.37  34 2.92
  23  0.998  0.187  0.904-  97 2.28  63 2.30
  24  0.583  0.143  0.658-  65 1.99  95 2.52
  25  0.894  0.594  0.796- 104 2.20  92 2.27  77 2.44  64 2.49
  26  0.593  0.622  0.724- 110 2.19 112 2.50  47 2.94
  27  0.554  0.863  0.048-  89 2.21 107 2.21  90 2.30  94 2.33  59 2.36  50 3.06
  28  0.236  0.344  0.515-  72 1.60  98 1.63 127 1.79 120 1.84  37 3.09
  29  0.073  0.435  0.818-  58 1.60  92 1.74  77 1.95 124 2.15
  30  0.862  0.834  0.466- 113 1.57  71 1.59 116 1.70  96 1.72  47 3.04
  31  0.197  0.218  0.045-  85 1.64  63 1.66 135 1.69  75 1.75  19 3.15
  32  0.424  0.514  0.095- 114 1.63  74 1.68 118 1.80  69 1.90
  33  0.376  0.680  0.933- 126 1.50  90 1.61  74 1.62  80 1.66  17 2.60
  34  0.057  0.502  0.583-  79 1.57  60 1.61  77 1.63 127 1.86  22 2.92   7 3.07
  35  0.717  0.648  0.959- 107 1.60 104 1.62 129 1.80  78 1.98  21 2.88  53 3.09  12 3.14
  36  0.845  0.335  0.197-  81 1.60 105 1.65 115 1.70 109 1.77  46 2.90   6 2.93
  37  0.409  0.308  0.666- 120 1.58 119 1.62  56 1.68  65 1.75  28 3.09   5 3.14
  38  0.028  0.734  0.623-  64 1.61  55 1.74  60 1.77 116 1.83  54 2.80
  39  0.342  0.990  0.622-  67 1.60 108 1.62 106 1.68  86 1.89  54 3.04
  40  0.388  0.093  0.109-  94 1.67  75 1.73 131 1.75 117 2.05
  41  0.250  0.794  0.237-  73 1.59  83 1.65  70 1.67  57 1.70  49 2.89   8 3.00  52 3.09
  42  0.844  0.073  0.727-  95 1.60  97 1.72  84 1.76  91 1.89
  43  0.923  0.948  0.952- 100 1.69  62 1.73 102 1.76  91 1.80 111 2.39  53 2.89  13 3.13   9 3.15

  44  0.017  0.515  0.229- 105 1.72  93 1.73  87 1.80 130 1.82
  45  0.900  0.072  0.475- 103 1.65  96 1.69  84 1.71  76 1.75   4 2.98  51 3.13
  46  0.694  0.358  0.353-  68 1.57 125 1.61  81 1.65  88 1.67  48 2.85  36 2.90  51 2.99
  47  0.682  0.777  0.594- 112 1.58 113 1.63 110 1.88  99 1.93  26 2.94  30 3.04
  48  0.558  0.220  0.261- 121 1.61  88 1.63 117 1.71 128 1.87  51 2.72  46 2.85
  49  0.246  0.003  0.296- 101 1.49  66 1.63  70 1.63 131 1.75  41 2.89   1 3.13
  50  0.627  0.070  0.977- 123 1.52  61 1.57  89 1.74  94 2.55  27 3.06
  51  0.689  0.137  0.393- 132 1.60 128 1.61  76 1.69  68 1.85  48 2.72  46 2.99  45 3.13
  52  0.467  0.714  0.256-  59 1.55 133 1.60 118 1.78  83 1.84  41 3.09
  53  0.837  0.802  0.087- 111 1.73 134 1.78  78 1.83 100 1.97  43 2.89  35 3.09
  54  0.230  0.791  0.626-  82 1.55 122 1.63 106 1.68  55 1.74  38 2.80  16 2.94  39 3.04
  55  0.110  0.830  0.592-  38 1.74  54 1.74
  56  0.384  0.431  0.656-  37 1.68  16 2.52
  57  0.159  0.838  0.158-  41 1.70   1 2.13   8 2.14
  58  0.085  0.320  0.785-  29 1.60
  59  0.552  0.759  0.191-  52 1.55  27 2.36
  60  0.036  0.618  0.557-  34 1.61  38 1.77   7 2.52
  61  0.560  0.140  0.911-  50 1.57  18 2.22
  62  0.883  0.050  0.023-  43 1.73   3 2.18
  63  0.116  0.128  0.015-  31 1.66   1 2.26  23 2.30
  64  0.981  0.747  0.733-  38 1.61   9 2.19  25 2.49
  65  0.519  0.268  0.608-  37 1.75  24 1.99
  66  0.255  0.089  0.383-  49 1.63   4 2.44   5 2.55
  67  0.441  0.010  0.556-  39 1.60  10 2.23   5 2.42
  68  0.662  0.270  0.425-  46 1.57  51 1.85
  69  0.549  0.445  0.092-  32 1.90  15 2.17  21 2.26
  70  0.295  0.891  0.303-  49 1.63  41 1.67
  71  0.889  0.814  0.351-  30 1.59   8 2.40
  72  0.292  0.380  0.415-  28 1.60  14 2.23
  73  0.192  0.702  0.287-  41 1.59  11 2.21
  74  0.363  0.596  0.020-  33 1.62  32 1.68  20 2.49
  75  0.315  0.164  0.028-  40 1.73  31 1.75
  76  0.812  0.103  0.383-  51 1.69  45 1.75
  77  0.026  0.509  0.701-  34 1.63  29 1.95  25 2.44
  78  0.836  0.670  0.047-  53 1.83  35 1.98  12 2.44
  79  0.961  0.450  0.537-  34 1.57   7 2.31  22 2.34
  80  0.260  0.726  0.927-  33 1.66  17 2.42
  81  0.810  0.358  0.310-  36 1.60  46 1.65
  82  0.232  0.782  0.742-  54 1.55  17 2.13   9 2.57
  83  0.361  0.770  0.187-  41 1.65  52 1.84
  84  0.855  0.082  0.595-  45 1.71  42 1.76
  85  0.203  0.247  0.164-  31 1.64  14 2.13
  86  0.316  0.999  0.761-  39 1.89  18 2.31  17 2.33
  87  0.064  0.565  0.112-  44 1.80  20 2.14
  88  0.636  0.314  0.251-  48 1.63  46 1.67
  89  0.652  0.946  0.943-  50 1.74  13 1.98  27 2.21
  90  0.433  0.784  0.955-  33 1.61  17 2.15  27 2.30
  91  0.896  0.985  0.825-  43 1.80  42 1.89
  92  0.982  0.487  0.895-  29 1.74  12 2.09  25 2.27
  93  0.953  0.605  0.297-  44 1.73   7 2.10
  94  0.487  0.017  0.098-  40 1.67  27 2.33  50 2.55
  95  0.729  0.078  0.759-  42 1.60  24 2.52
  96  0.923  0.948  0.466-  45 1.69  30 1.72
  97  0.905  0.182  0.761-  42 1.72  23 2.28
  98  0.137  0.273  0.502-  28 1.63  22 2.37
  99  0.561  0.758  0.517-  47 1.93   2 2.28  10 2.40
 100  0.844  0.850  0.947-  43 1.69  53 1.97  13 2.14
 101  0.135  0.988  0.303-  49 1.49
 102  0.049  0.920  0.979-  43 1.76   1 2.14   9 2.34
 103  0.996  0.150  0.476-  45 1.65   4 2.25
[...]
 121  0.467  0.233  0.340-  48 1.61   5 2.18  14 2.56
 122  0.272  0.688  0.576-  54 1.63  16 2.09
 123  0.697  0.121  0.052-  50 1.52   3 2.21
 124  0.209  0.519  0.796-  29 2.15  16 2.19
 125  0.661  0.463  0.403-  46 1.61   2 2.50
 126  0.413  0.634  0.837-  33 1.50  16 2.29
 127  0.189  0.459  0.566-  28 1.79  34 1.86
 128  0.667  0.132  0.274-  51 1.61  48 1.87   3 2.49
 129  0.698  0.518  0.991-  35 1.80  21 2.30  12 2.56
 130  0.088  0.427  0.305-  44 1.82   6 2.14
 131  0.299  0.025  0.178-  49 1.75  40 1.75   1 2.35
 132  0.639  0.068  0.478-  51 1.60
 133  0.420  0.728  0.366-  52 1.60
 134  0.755  0.842  0.185-  53 1.78
 135  0.174  0.306  0.956-  31 1.69  19 2.33

IMPORTANT INFORMATION: All symmetrisations will be switched off!
NOSYMM: (Re-)initialisation of all symmetry stuff for point group C_1.

Automatic generation of k-mesh.
 generate k-points for:    2    2    2
Space group operators:
 irot       det(A)        alpha          n_x          n_y          n_z        tau_x        tau_y        tau_z
    1     1.000000     0.000001     1.000000     0.000000     0.000000     0.000000     0.000000     0.000000

 Subroutine IBZKPT returns following result:

 Found      8 irreducible k-points:

 Following reciprocal coordinates:
            Coordinates               Weight
  0.000000  0.000000  0.000000      1.000000
  0.500000  0.000000  0.000000      1.000000
  0.000000  0.500000  0.000000      1.000000
  0.500000  0.500000  0.000000      1.000000
  0.000000  0.000000  0.500000      1.000000
  0.500000  0.000000  0.500000      1.000000
  0.000000  0.500000  0.500000      1.000000
  0.500000  0.500000  0.500000      1.000000

 Following cartesian coordinates:
            Coordinates               Weight
  0.000000  0.000000  0.000000      1.000000
  0.037563  0.000000  0.000000      1.000000
  0.000000  0.037563  0.000000      1.000000
  0.037563  0.037563  0.000000      1.000000
  0.000000  0.000000  0.037563      1.000000
  0.037563  0.000000  0.037563      1.000000
  0.000000  0.037563  0.037563      1.000000
  0.037563  0.037563  0.037563      1.000000

 SYSTEM =  unknown system
 POSCAR =  Ca Si  O

 Startparameter for this run:
   NWRITE =      2    write-flag & timer
   PREC   = a         normal or accurate (medium, high low for compatibility)
   ISTART =      0    job   : 0-new  1-cont  2-samecut
[...]
     0.000000000  0.000000000 13.310935620     0.000000000  0.000000000  0.075126199

  length of vectors
    13.310935620 13.310935620 13.310935620     0.075126199  0.075126199  0.075126199

 FORCES acting on ions
    electron-ion (+dipol)            ewald-force                    non-local-force                 convergence-correction
   -.442E+02 -.654E+02 0.136E+03   0.387E+02 0.625E+02 -.134E+03   0.450E+01 0.268E+01 -.124E+01   -.121E-02 -.195E-02 0.234E-02
   -.335E+02 0.201E+03 -.440E+02   0.366E+02 -.196E+03 0.438E+02   -.245E+01 -.436E+01 0.144E+00   0.358E-03 -.979E-03 0.112E-02
   -.518E+02 0.109E+03 -.123E+03   0.525E+02 -.108E+03 0.118E+03   -.389E-03 -.158E+01 0.546E+01   0.771E-03 -.218E-02 -.627E-03
   0.152E+03 0.886E+02 -.140E+03   -.147E+03 -.841E+02 0.136E+03   -.423E+01 -.451E+01 0.169E+01   -.734E-03 0.149E-02 -.229E-02
   -.110E+03 -.458E+02 -.110E+02   0.108E+03 0.451E+02 0.925E+01   0.109E+01 0.355E+00 0.190E+01   -.379E-04 0.115E-02 0.381E-03
   -.539E+02 0.121E+03 -.658E+02   0.541E+02 -.119E+03 0.651E+02   0.183E+01 -.262E+01 0.203E+01   0.525E-03 -.193E-02 0.267E-02
   0.364E+03 0.701E+02 -.274E+02   -.360E+03 -.683E+02 0.257E+02   -.500E+01 -.988E+00 0.225E+01   0.375E-03 -.791E-03 0.169E-02
   0.119E+03 0.739E+02 -.128E+03   -.119E+03 -.709E+02 0.126E+03   -.158E+00 -.327E+01 0.353E+01   0.286E-03 0.156E-02 -.734E-03
   0.895E+01 -.349E+02 -.304E+02   -.614E+01 0.375E+02 0.313E+02   -.730E+00 -.203E+01 0.438E+00   -.145E-02 0.609E-04 0.206E-02
   -.195E+03 0.184E+02 0.111E+03   0.194E+03 -.223E+02 -.105E+03   0.820E+00 0.246E+01 -.498E+01   -.823E-03 0.797E-03 -.100E-02
   -.128E+03 0.515E+02 0.467E+02   0.129E+03 -.480E+02 -.495E+02   -.201E+00 -.316E+01 0.236E+01   -.480E-03 0.122E-03 -.457E-03
   0.189E+02 0.102E+03 0.799E+02   -.194E+02 -.103E+03 -.770E+02   -.273E+00 0.584E+00 -.258E+00   -.160E-02 0.127E-02 -.194E-02
   0.545E+02 -.193E+02 0.271E+03   -.542E+02 0.206E+02 -.270E+03   0.669E+00 -.148E+01 -.360E+01   0.109E-02 0.507E-03 0.140E-02
   -.879E+02 -.121E+03 -.223E+02   0.862E+02 0.122E+03 0.222E+02   0.246E+01 -.219E+00 0.192E+00   -.379E-03 -.133E-02 0.223E-02
   0.223E+02 0.359E+02 0.368E+03   -.197E+02 -.331E+02 -.362E+03   -.204E+01 -.327E+01 -.521E+01   0.134E-02 -.224E-03 -.278E-02
   -.232E+03 0.126E+03 0.864E+02   0.229E+03 -.130E+03 -.834E+02   0.294E+01 0.129E+01 -.142E+01   0.687E-03 -.213E-02 -.153E-03
   -.169E+03 -.215E+03 0.592E+02   0.164E+03 0.214E+03 -.570E+02   0.420E+01 0.201E+01 -.225E+01   0.282E-03 -.155E-02 0.170E-02
   -.794E+01 0.717E+02 0.237E+02   0.776E+01 -.714E+02 -.262E+02   -.802E+00 -.160E+01 0.284E+01   0.234E-02 0.206E-02 -.611E-03
   -.176E+03 -.117E+03 0.268E+02   0.169E+03 0.116E+03 -.295E+02   0.438E+01 0.221E+01 0.308E+01   0.120E-02 0.738E-03 -.221E-02
   0.362E+02 0.383E+02 0.453E+01   -.367E+02 -.357E+02 -.167E+01   0.123E+01 -.200E+01 -.282E+01   0.262E-03 0.174E-02 -.189E-04
   -.797E+02 -.514E+02 -.274E+03   0.748E+02 0.507E+02 0.268E+03   0.390E+01 0.144E+01 0.578E+01   0.107E-03 0.169E-02 -.169E-02
   0.275E+03 0.772E+02 -.141E+03   -.271E+03 -.797E+02 0.139E+03   -.298E+01 0.594E+00 0.226E+01   -.242E-02 -.356E-03 -.724E-05
   0.107E+03 -.866E+02 0.773E+02   -.107E+03 0.838E+02 -.794E+02   -.661E+00 0.233E+01 0.186E+01   -.335E-02 -.736E-03 -.161E-02
   -.220E+03 -.379E+02 -.129E+03   0.224E+03 0.389E+02 0.125E+03   -.131E+01 -.369E+01 0.397E+01   0.289E-02 0.358E-02 0.569E-03
   0.182E+03 0.147E+03 0.125E+03   -.181E+03 -.146E+03 -.126E+03   -.311E+00 -.997E+00 -.404E+00   -.281E-02 -.135E-02 -.319E-03
   0.748E+02 0.333E+03 0.191E+02   -.684E+02 -.328E+03 -.201E+02   -.550E+01 -.430E+01 0.194E+01   0.215E-02 -.350E-02 0.101E-02
   0.310E+02 -.809E+02 -.106E+03   -.313E+02 0.758E+02 0.106E+03   -.381E+00 0.333E+01 0.113E+01   0.157E-02 -.751E-03 0.237E-03
   -.440E+02 -.138E+02 -.382E+02   0.374E+02 0.107E+02 0.282E+02   0.487E+01 0.270E+01 0.118E+02   -.175E-03 -.226E-03 0.137E-03
   0.750E+01 0.131E+02 -.338E+02   -.756E+01 -.223E+02 0.294E+02   0.195E+01 0.124E+02 0.123E+01   -.589E-03 -.187E-03 -.687E-03
   0.961E+02 -.128E+02 0.228E+02   -.900E+02 0.103E+02 -.309E+02   -.434E+00 0.329E+01 0.503E+01   0.388E-03 0.409E-03 -.577E-03
   0.247E+02 -.335E+02 0.233E+02   -.322E+02 0.332E+02 -.207E+02   0.507E+01 0.191E+00 -.208E+01   -.113E-03 -.435E-03 0.437E-03
   -.644E+02 0.297E+02 0.147E+02   0.569E+02 -.340E+02 -.113E+02   0.922E+01 0.427E+01 0.341E+00   0.262E-03 0.731E-03 -.294E-03
   -.455E+02 0.550E+02 -.377E+02   0.445E+02 -.499E+02 0.311E+02   -.252E+01 -.156E+01 0.111E+02   0.326E-03 -.182E-03 0.443E-03
   -.405E+02 0.578E+02 0.145E+02   0.287E+02 -.567E+02 -.117E+02   0.149E+02 -.227E+01 -.101E+01   -.255E-03 -.664E-03 -.953E-04
   0.804E+01 0.616E+02 0.324E+02   -.155E+02 -.584E+02 -.348E+02   0.750E+01 -.488E+01 0.414E+01   -.145E-04 0.203E-03 -.613E-03
   0.530E+02 0.131E+02 0.570E+02   -.469E+02 -.147E+02 -.542E+02   -.411E+01 -.357E+00 -.624E+01   -.617E-04 -.477E-03 -.775E-04
   -.141E+03 -.671E+02 -.341E+02   0.134E+03 0.711E+02 0.308E+02   0.833E+01 0.587E-01 0.128E+01   0.101E-02 0.435E-03 -.101E-03
   0.814E+01 -.250E+02 -.310E+01   -.142E+02 0.296E+02 0.531E+01   0.304E+01 -.333E+01 -.736E+01   -.377E-03 -.480E-03 -.120E-03
   -.410E+02 -.406E+01 -.101E+03   0.349E+02 0.768E+01 0.917E+02   0.151E+01 -.324E+01 0.111E+02   0.889E-04 0.866E-03 -.921E-03
   -.257E+02 -.188E+02 0.296E+01   0.297E+02 0.106E+02 -.258E+01   -.166E+01 0.755E+01 0.215E+01   -.407E-04 -.511E-03 0.565E-03
   -.151E+02 0.428E+02 -.823E+01   0.154E+02 -.456E+02 0.609E+01   0.873E+00 0.380E+01 -.436E+00   -.452E-03 0.150E-03 -.138E-03
   -.297E+02 -.496E+01 0.479E+02   0.209E+02 0.160E+02 -.432E+02   0.104E+02 -.786E+01 -.363E+01   -.691E-03 0.106E-02 0.697E-04
   -.357E+02 -.504E+02 0.456E+02   0.342E+02 0.532E+02 -.410E+02   0.216E+01 -.143E+00 -.218E+01   -.598E-03 -.689E-04 0.454E-03
   -.406E+02 -.336E+02 0.301E+01   0.395E+02 0.341E+02 -.146E+00   0.205E+01 -.739E+00 -.220E+01   0.221E-03 0.680E-03 0.245E-03
   0.507E+02 -.993E+01 -.609E+01   -.462E+02 0.109E+02 0.889E+01   -.609E+01 -.146E+01 -.184E+01   0.705E-04 0.588E-03 0.107E-03
   -.450E+01 -.103E+03 -.100E+03   0.101E+01 0.102E+03 0.105E+03   0.277E+01 0.247E+01 -.447E+01   0.110E-04 -.348E-03 0.120E-02
   0.244E+02 -.158E+02 0.792E+02   -.252E+02 0.136E+02 -.709E+02   -.174E+01 -.258E+01 -.101E+02   0.364E-03 -.455E-03 0.443E-03
   0.176E+02 0.324E+02 -.602E+01   -.241E+02 -.279E+02 0.751E+01   0.558E+01 -.618E+01 -.328E+01   -.181E-03 -.351E-03 0.478E-03
   -.766E+02 -.449E+02 -.605E+01   0.617E+02 0.419E+02 0.145E+02   0.178E+02 0.400E+01 -.749E+01   -.477E-03 -.600E-04 0.561E-04
   0.131E+02 -.629E+01 0.548E+02   -.685E+01 0.144E+02 -.527E+02   -.595E+01 -.122E+02 -.332E+01   0.918E-03 -.638E-04 -.385E-03
   -.441E+01 0.984E+01 -.850E+02   0.274E+01 -.177E+02 0.864E+02   0.328E+01 0.836E+01 0.159E+01   0.414E-03 0.857E-04 0.843E-03
   -.660E+02 0.391E+02 -.815E+02   0.668E+02 -.312E+02 0.779E+02   -.720E+01 -.773E+01 -.573E+00   -.287E-03 0.344E-03 -.411E-03
   0.426E+02 0.409E+02 -.507E+02   -.407E+02 -.337E+02 0.605E+02   -.189E+01 -.443E+01 -.740E+01   0.124E-03 0.513E-03 -.235E-03
   0.241E+02 -.456E+02 0.668E+02   -.185E+02 0.409E+02 -.604E+02   -.447E+01 0.574E+01 -.993E+01   -.282E-03 -.446E-03 -.427E-03
   0.658E+02 -.147E+03 0.499E+02   -.729E+02 0.173E+03 -.624E+02   0.749E+01 -.277E+02 0.132E+02   -.416E-03 -.489E-03 -.108E-02
   -.201E+03 -.986E+02 0.103E+02   0.192E+03 0.119E+03 -.152E+02   0.106E+02 -.204E+02 0.630E+01   0.113E-02 -.324E-03 -.298E-04
   -.110E+02 0.840E+02 0.100E+03   -.231E+01 -.805E+02 -.116E+03   0.157E+02 -.426E+01 0.157E+02   -.471E-03 0.252E-04 -.227E-03
   0.156E+02 0.129E+03 0.337E+02   -.710E+01 -.159E+03 -.414E+02   -.991E+01 0.305E+02 0.761E+01   -.108E-02 0.631E-05 -.155E-02
   -.151E+03 -.454E+02 -.129E+03   0.176E+03 0.590E+02 0.110E+03   -.220E+02 -.136E+02 0.192E+02   0.680E-03 0.389E-03 -.117E-02
   0.131E+01 -.348E+02 0.376E+02   -.989E+01 0.457E+02 -.536E+02   0.113E+02 -.880E+01 0.160E+02   0.165E-03 -.442E-03 0.976E-04
[...]
   -.109E+03 0.455E+02 0.161E+03   0.120E+03 -.631E+02 -.176E+03   -.124E+02 0.176E+02 0.129E+02   -.586E-03 -.855E-03 -.136E-02
   -.273E+02 -.901E+02 0.542E+02   0.487E+02 0.106E+03 -.343E+02   -.208E+02 -.136E+02 -.183E+02   0.115E-02 -.460E-03 -.631E-03
   0.694E+01 0.695E+02 -.508E+02   -.206E+00 -.649E+02 0.475E+02   -.101E+02 -.727E+01 0.627E+01   -.225E-03 -.928E-03 -.136E-03
   0.215E+02 -.114E+03 -.154E+03   -.278E+02 0.135E+03 0.169E+03   0.628E+01 -.204E+02 -.155E+02   0.590E-04 -.784E-03 0.244E-02
   -.205E+03 0.158E+03 0.998E+02   0.217E+03 -.174E+03 -.124E+03   -.869E+01 0.129E+02 0.183E+02   0.147E-02 -.131E-02 -.265E-03
   -.671E+02 -.918E+01 -.247E+02   0.811E+02 0.194E+02 0.338E+02   -.171E+02 -.898E+01 -.933E+01   -.256E-03 -.779E-03 -.265E-04
   0.357E+02 0.155E+03 0.252E+02   -.283E+02 -.166E+03 -.520E+02   -.109E+02 0.122E+02 0.258E+02   0.514E-03 -.302E-03 -.185E-03
   0.608E+02 0.141E+03 0.204E+03   -.672E+02 -.161E+03 -.204E+03   0.812E+01 0.233E+02 -.764E+00   0.169E-04 0.837E-04 -.200E-02
   -.904E+02 -.566E+02 -.330E+02   0.102E+03 0.476E+02 0.454E+02   -.127E+02 0.128E+02 -.140E+02   0.474E-03 0.330E-03 0.135E-02
   -.960E+02 -.239E+02 0.155E+02   0.920E+02 0.118E+02 -.195E+02   0.591E+01 0.150E+02 0.255E+01   -.185E-03 -.412E-03 0.689E-03
   -.185E+02 0.107E+03 -.874E+02   0.972E+01 -.126E+03 0.109E+03   0.751E+01 0.196E+02 -.216E+02   0.507E-03 0.110E-02 0.139E-02
   -.186E+02 0.561E+02 -.132E+03   0.873E+00 -.500E+02 0.156E+03   0.200E+02 -.745E+01 -.231E+02   -.107E-02 0.425E-03 -.385E-03
   0.886E+02 -.117E+02 -.187E+03   -.101E+03 0.169E+02 0.208E+03   0.146E+02 -.650E+01 -.253E+02   0.609E-03 0.672E-03 -.102E-02
   0.834E+02 -.494E+02 0.508E+02   -.941E+02 0.629E+02 -.689E+02   0.127E+02 -.134E+02 0.195E+02   -.445E-04 0.517E-03 -.805E-03
   -.163E+03 0.775E+02 -.214E+01   0.441E-12 0.185E-12 -.142E-12   0.163E+03 -.776E+02 0.217E+01   -.238E-02 0.239E-02 0.278E-02

 POSITION                                       TOTAL-FORCE (eV/Angst)
      2.15427     13.00414      1.04394        -0.997819     -0.208918      0.405866
      7.20761      7.98883      6.03463         0.750439      0.478977     -0.001059
     10.77648      1.05890      2.21066         0.657100     -0.695355      0.207725
      1.60194      0.51567      6.61388         0.675205      0.011473     -1.744798
      5.35133      2.24313      6.34009        -1.272440     -0.335836      0.143969
      0.43960      3.67450      3.92283         1.960986     -0.756982      1.354202
     11.87746      7.67274      5.86029        -0.633778      0.752227      0.550475
      0.32554     10.57150      3.11405        -0.758873     -0.332652      1.332440
      1.03398     10.61612     11.40080         2.079118      0.573257      1.315921
      6.54666     12.03170      5.80977        -0.145178     -1.499114      0.254799
      2.70333      7.93285      5.52226         0.472194      0.280401     -0.382731
     11.79983      6.59415      0.26266        -0.801674     -0.158838      2.658114
      9.73090     11.69440     11.12519         0.952286     -0.233975     -2.267690
      4.13259      4.16757      3.49164         0.722190      0.654319      0.012189
      8.42964      4.26624      0.38987         0.573231     -0.545450      0.723103
      4.17665      8.00562      9.32203        -0.293729     -2.700861      1.548874
      4.73707     11.19688     10.98229        -0.290124      0.793167     -0.065535
      5.39942      1.56360     11.33828        -0.979122     -1.312473      0.344609
      4.47516      4.55725     11.97882        -1.741570      1.598413      0.315548
      2.49235      7.08108      0.20124         0.772904      0.605361      0.036986
      8.64751      7.57192      1.98382        -1.017744      0.774128     -0.072774
     13.25435      3.90215      8.10569         0.488951     -1.925594     -0.049022
     13.28501      2.49396     12.03736        -0.093156     -0.448897     -0.215525
      7.75757      1.89953      8.76013         2.746899     -2.598800     -0.294184
     11.89560      7.90886     10.59750         0.325850      0.755834     -1.556161
      7.89739      8.27388      9.63391         0.945131      1.001481      0.915240
      7.37790     11.48952      0.64029        -0.715065     -1.735847      1.740149
      3.14674      4.57329      6.85398        -1.717585     -0.447811      1.886865
      0.97327      5.78372     10.88238         1.893256      3.247607     -3.139449
     11.47775     11.09774      6.20875         5.653047      0.763466     -3.014498
      2.62271      2.90028      0.59978        -2.425750     -0.074660      0.503602
      5.64447      6.83869      1.26725         1.769992     -0.020846      3.750788
      5.00123      9.04573     12.41532        -3.486595      3.593052      4.494819
      0.76343      6.67817      7.75489         3.088765     -1.170117      1.745408
      9.54914      8.62631     12.77092         0.063181     -1.607855      1.699248
     11.24385      4.46043      2.62627         2.005822     -1.960231     -3.455839
      5.43871      4.09839      8.87039         1.923703      4.062987     -1.996378
      0.36658      9.76418      8.29114        -3.074207      1.306421     -5.157200
      4.55314     13.18102      8.27420        -4.568723      0.376218      1.497139
      5.16458      1.23727      1.45258         2.296410     -0.580777      2.517619
      3.32320     10.57043      3.15547         1.238002      0.994267     -2.582388
     11.23848      0.97258      9.67182         1.573031      3.168614      1.104892
     12.28333     12.62457     12.67539         0.732228      2.638972      2.438031
      0.21971      6.85217      3.04248         0.883822     -0.241448      0.662787
     11.97720      0.95826      6.32061        -1.620984     -0.513638      0.962185
      9.23259      4.76705      4.69961        -0.719574      1.949946      0.026695
      9.08241     10.33990      7.91180        -2.515387     -4.759808     -1.821482
      7.42694      2.92893      3.47143        -0.859855     -1.623217     -1.789966
      3.27513      0.04310      3.94275         2.946257      1.048516      0.967262
      8.34173      0.92672     13.01087         0.254668     -4.019891     -1.230351
      9.17743      1.82378      5.23196         1.613363      0.496956      2.947570
      6.21380      9.49797      3.40561        -6.395548      0.234333     -4.174525
     11.13635     10.67115      1.15337        -0.043352      2.731407      2.386974
      3.05699     10.53430      8.33324         1.122514      1.041107     -3.572443
      1.46028     11.04720      7.87577         0.329894     -2.426796      0.676579
      5.11758      5.73866      8.72990         2.064262      0.307703      1.313391
      2.12246     11.15680      2.10404         2.417948     -0.792977      0.582691
      1.12749      4.25541     10.45124        -1.394054      0.672043     -0.044519
      7.34676     10.09930      2.54411         2.575955      0.024252      0.644638
      0.47569      8.22470      7.41507         2.765398      2.142381      0.011185
[...]
      6.21952      3.09601      4.52700         0.370320     -0.331278     -0.336847
      3.61977      9.15719      7.67163        -1.549931     -0.027840     -1.780786
      9.27429      1.60481      0.68556         0.638969      1.884327      1.574706
      2.78240      6.90196     10.59968        -3.367041     -2.701428      2.944347
      8.79206      6.16862      5.36551        -0.076436      1.004124     -0.911895
      5.49707      8.44063     11.13695         3.000576     -2.458548     -6.099981
      2.52076      6.10359      7.54024        -3.140223      1.204473     -0.238389
      8.87488      1.75584      3.65250        -3.450286      0.686530     -0.931719
      9.28836      6.89143     13.18960         1.687201      3.264033     -0.669677
      1.17071      5.68571      4.06556        -0.712332      3.860921     -1.707877
      3.97867      0.33924      2.37086         1.929658      2.907286     -1.469800
      8.50465      0.90667      6.36065        -1.276003      0.421694     -0.194637
      5.59038      9.68669      4.87210         2.222806     -1.388101      1.343369
     10.05079     11.20592      2.46035         1.981280     -1.325614     -4.593714
      2.32217      4.06704     12.72924         2.008064      0.020222      1.452406
    total drift:                               -0.032784     -0.000892      0.031760

  FREE ENERGIE OF THE ION-ELECTRON SYSTEM (eV)
  free  energy   TOTEN  =      -936.19366842 eV

  energy  without entropy=     -936.19366806  energy(sigma->0) =     -936.19366824