 vasp.5.4.4.18Apr17-6-g9f103f2a35 (build Mar 16 2023 09:39:13) complex

 executed on             LinuxIFC date 2024.04.30  01:54:12

 INCAR:
 POTCAR:    PAW_PBE Ca_sv 06Sep2000
 POTCAR:    PAW_PBE Si 05Jan2001
 POTCAR:    PAW_PBE O 08Apr2002
 POTCAR:    PAW_PBE Ca_sv 06Sep2000
   VRHFIN =Ca: 3s3p4s

   TITEL  = PAW_PBE Ca_sv 06Sep2000
   POMASS =   40.078; ZVAL   =   10.000    mass and valenz
   ENMAX  =  266.622; ENMIN  =  199.967 eV

   TITEL  = PAW_PBE Si 05Jan2001
   POMASS =   28.085; ZVAL   =    4.000    mass and valenz
   ENMAX  =  245.345; ENMIN  =  184.009 eV

   TITEL  = PAW_PBE O 08Apr2002
   POMASS =   16.000; ZVAL   =    6.000    mass and valenz
   ENMAX  =  400.000; ENMIN  =  300.000 eV

 Optimization of the real space projectors (new method)

 maximal supplied QI-value         = 16.25
 optimisation between [QCUT,QGAM] = [ 12.51, 25.03] = [ 43.85,175.40] Ry
 Optimized for a Real-space Cutoff    1.47 Angstroem

   l    n(q)    QCUT    max X(q) W(low)/X(q) W(high)/X(q)  e(spline)
   0     11    12.514    11.817    0.25E-04    0.32E-05    0.87E-07
   0     11    12.514     8.461    0.39E-04    0.59E-05    0.18E-06
   1     11    12.514     3.957    0.97E-05    0.57E-05    0.28E-07
   1     11    12.514     4.314    0.42E-04    0.14E-04    0.23E-06
   2     10    12.514    14.565    0.79E-04    0.50E-03    0.16E-05
   2     10    12.514    14.552    0.75E-04    0.48E-03    0.15E-05
 Optimization of the real space projectors (new method)

[...]

   l    n(q)    QCUT    max X(q) W(low)/X(q) W(high)/X(q)  e(spline)
   0      9    12.501   159.560    0.10E-03    0.83E-04    0.71E-07
   0      9    12.501   115.863    0.99E-04    0.81E-04    0.70E-07
   1      8    12.501    88.339    0.20E-03    0.25E-03    0.76E-07
   1      8    12.501    48.592    0.20E-03    0.24E-03    0.75E-07
 Optimization of the real space projectors (new method)

 maximal supplied QI-value         = 24.76
 optimisation between [QCUT,QGAM] = [ 12.38, 25.00] = [ 42.90,175.06] Ry
 Optimized for a Real-space Cutoff    1.16 Angstroem

   l    n(q)    QCUT    max X(q) W(low)/X(q) W(high)/X(q)  e(spline)
   0      9    12.378    20.381    0.16E-03    0.67E-05    0.31E-06
   0      9    12.378    15.268    0.17E-03    0.81E-05    0.33E-06
   1      8    12.378     5.964    0.20E-03    0.16E-03    0.30E-06
   1      8    12.378     5.382    0.18E-03    0.14E-03    0.26E-06
  PAW_PBE Ca_sv 06Sep2000               :
  PAW_PBE Si 05Jan2001                  :
  PAW_PBE O 08Apr2002                   :

 POSCAR: Ca Si  O
  positions in direct lattice
 exchange correlation table for  LEXCH =        8
   RHO(1)=    0.500       N(1)  =     2000
   RHO(2)=  100.500       N(2)  =     4000

 ion  position               nearest neighbor table
   1  0.736  0.810  0.080- 118 2.36  69 2.38  93 2.38
   2  0.422  0.627  0.179- 112 2.10 127 2.43  49 2.85
   3  0.284  0.661  0.429-  86 2.29 104 2.33  79 2.39 127 2.43
   4  0.814  0.813  0.476- 123 2.14  56 2.21  61 2.25  55 2.29  66 2.36  41 2.86
   5  0.928  0.568  0.643-  77 2.29  73 2.40  61 2.45  33 2.83
   6  0.050  0.654  0.346-  86 2.05  66 2.34  59 2.39  88 2.49  98 2.54  28 3.05
   7  0.695  0.067  0.142- 105 1.94  85 2.05 116 2.37 111 2.39  53 2.60  36 2.82  16 3.09
   8  0.933  0.048  0.779- 107 2.10 130 2.39 102 2.48  48 2.76  29 3.00
   9  0.317  0.161  0.716-  90 2.09 108 2.18 128 2.32  58 2.53 120 2.55  48 3.03  54 3.07
  10  0.671  0.365  0.950-  63 2.09  94 2.29 100 2.47  80 2.48  45 2.89  43 3.05
  11  0.497  0.959  0.704-  58 2.23 129 2.36 110 2.43  32 3.00
  12  0.041  0.832  0.109-  92 2.05  71 2.08  98 2.32  49 2.95  35 3.13
  13  0.744  0.271  0.602-  82 2.16  97 2.16  95 2.49
  14  0.906  0.552  0.075-  71 2.11 121 2.27  59 2.37  35 2.77  38 2.87
  15  0.129  0.217  0.549- 125 2.25 122 2.41  62 2.45  46 3.12
  16  0.719  0.268  0.268- 126 2.02 100 2.13  85 2.24  96 2.43   7 3.09  36 3.12
  17  0.170  0.531  0.919- 131 2.23  74 2.34
  18  0.955  0.162  0.005- 116 2.08 102 2.10 117 2.33 130 2.39
  19  0.995  0.203  0.247- 101 2.21 126 2.29 117 2.30 115 2.56  40 3.05  39 3.09  53 3.12
  20  0.416  0.891  0.225- 112 1.98  65 2.45
  21  0.646  0.608  0.651-  60 2.02  73 2.08  68 2.40  43 2.94  32 3.04
  22  0.368  0.732  0.764- 114 2.09 119 2.19 129 2.22  79 2.30  30 2.71
  23  0.252  0.959  0.002-  92 1.82  81 2.08  83 2.13  49 3.14
  24  0.721  0.855  0.805- 107 2.13  29 3.07
  25  0.056  0.979  0.385-  88 2.02 103 2.03  91 2.32  53 3.16
  26  0.382  0.347  0.997- 106 1.98  80 2.21  89 2.37  67 2.40  36 3.04
  27  0.426  0.183  0.352-  65 2.17 133 2.40  47 2.96
  28  0.070  0.782  0.543- 104 1.70 124 1.77  61 1.77  88 1.80   6 3.05
  29  0.736  0.073  0.899-  72 1.54 116 1.73  78 1.74 107 1.86   8 3.00  24 3.07  45 3.13
  30  0.231  0.609  0.664- 131 1.66  79 1.68 132 1.83 104 2.25  22 2.71
  31  0.962  0.302  0.721- 125 1.55  77 1.56 130 1.75  95 2.05  48 2.46
  32  0.574  0.806  0.547-  56 1.63  64 1.65 109 1.71 129 1.79  11 3.00  44 3.04  21 3.04  51 3.13

  33  0.838  0.554  0.444- 135 1.57  66 1.57  73 1.67  75 1.74  40 2.63   5 2.83
  34  0.480  0.517  0.830- 106 1.60 119 1.61  68 1.68 134 1.77  52 2.88
  35  0.931  0.710  0.933-  57 1.63  71 1.66 113 1.72  69 2.20  14 2.77  12 3.13
  36  0.542  0.219  0.112-  89 1.54 100 1.63 105 1.64  80 2.25   7 2.82  26 3.04  16 3.12
  37  0.540  0.410  0.457-  96 1.51  87 1.54  70 1.74  97 2.22  51 3.00
  38  0.724  0.582  0.198- 121 1.44 118 1.51  84 1.66  75 2.30  14 2.87  51 3.09
  39  0.188  0.298  0.142-  99 1.58 117 1.65  67 1.65  76 1.75  50 2.87  19 3.09
  40  0.925  0.415  0.324- 126 1.64  59 1.78 135 1.91 101 1.94  75 2.09  33 2.63  50 3.03  19 3.05

[...]

  54  0.197  0.967  0.651- 110 1.58 124 1.62 120 1.81  62 1.86   9 3.07
  55  0.863  0.956  0.568-  41 1.53   4 2.29
  56  0.691  0.794  0.593-  32 1.63   4 2.21
  57  0.953  0.599  0.876-  35 1.63
  58  0.503  0.121  0.763-  45 1.66  11 2.23   9 2.53
  59  0.956  0.527  0.250-  40 1.78  14 2.37   6 2.39
  60  0.758  0.638  0.756-  43 1.56  21 2.02
  61  0.942  0.743  0.572-  28 1.77   4 2.25   5 2.45
  62  0.208  0.045  0.532-  54 1.86  15 2.45
  63  0.783  0.465  0.889-  43 1.52  10 2.09
  64  0.602  0.750  0.435-  32 1.65  51 1.75
  65  0.342  0.047  0.304-  47 1.46  27 2.17  20 2.45
  66  0.877  0.660  0.399-  33 1.57   6 2.34   4 2.36
  67  0.203  0.371  0.038-  39 1.65  26 2.40
  68  0.598  0.571  0.827-  34 1.68  43 1.88  21 2.40
  69  0.761  0.695  0.938-  43 1.99  35 2.20   1 2.38
  70  0.554  0.541  0.480-  51 1.67  37 1.74
  71  0.954  0.707  0.059-  35 1.66  12 2.08  14 2.11
  72  0.694  0.176  0.857-  29 1.54  45 1.93
  73  0.768  0.581  0.550-  33 1.67  21 2.08   5 2.40
  74  0.261  0.647  0.024-  49 1.54  17 2.34
  75  0.783  0.490  0.339-  33 1.74  40 2.09  38 2.30
  76  0.214  0.400  0.227-  50 1.49  39 1.75
  77  0.911  0.392  0.660-  31 1.56   5 2.29
  78  0.663  0.975  0.957-  29 1.74
  79  0.338  0.655  0.606-  30 1.68  22 2.30   3 2.39
  80  0.514  0.253  0.943-  45 1.58  26 2.21  36 2.25  10 2.48
  81  0.213  0.001  0.152-  47 1.67  23 2.08
  82  0.731  0.126  0.522-  41 1.68  44 1.96  13 2.16
  83  0.406  0.902  0.994-  42 1.71  23 2.13
  84  0.614  0.609  0.258-  38 1.66  51 1.71
  85  0.809  0.123  0.237-  53 1.60   7 2.05  16 2.24
  86  0.164  0.546  0.369-  50 1.74   6 2.05   3 2.29
  87  0.422  0.401  0.445-  37 1.54  46 1.91
  88  0.091  0.829  0.414-  28 1.80  25 2.02   6 2.49
  89  0.454  0.287  0.154-  36 1.54  26 2.37
  90  0.206  0.230  0.812-  48 1.56   9 2.09
  91  0.898  0.063  0.400-  41 1.62  53 2.11  25 2.32
  92  0.190  0.845  0.056-  49 1.68  23 1.82  12 2.05
  93  0.567  0.741  0.056-  42 1.63   1 2.38
  94  0.620  0.320  0.786-  52 1.64  45 1.71  10 2.29
  95  0.925  0.203  0.603-  31 2.05  13 2.49
  96  0.615  0.333  0.411-  37 1.51  16 2.43
  97  0.583  0.314  0.593-  52 1.62  13 2.16  37 2.22
  98  0.140  0.699  0.178-  49 1.79  12 2.32   6 2.54
  99  0.250  0.218  0.210-  39 1.58  47 1.83
 100  0.657  0.270  0.115-  36 1.63  16 2.13  10 2.47
 101  0.059  0.354  0.298-  50 1.59  40 1.94  19 2.21
 102  0.068  0.103  0.904-  48 1.86  18 2.10   8 2.48
 103  0.143  0.099  0.331-  47 1.79  25 2.03
 104  0.135  0.668  0.532-  28 1.70  30 2.25   3 2.33
 105  0.548  0.099  0.152-  36 1.64   7 1.94
 106  0.479  0.445  0.930-  34 1.60  26 1.98
 107  0.776  0.008  0.777-  29 1.86   8 2.10  24 2.13
 108  0.422  0.284  0.763-  52 1.73  45 2.11   9 2.18
 109  0.562  0.934  0.515-  44 1.55  32 1.71
 110  0.310  0.953  0.696-  54 1.58  11 2.43
 111  0.761  0.928  0.245-  53 1.59   7 2.39
 112  0.338  0.764  0.194-  49 1.70  20 1.98   2 2.10
 113  0.943  0.837  0.897-  35 1.72
[...]
 121  0.751  0.495  0.133-  38 1.44  14 2.27
 122  0.199  0.349  0.437-  50 1.76  46 1.87  15 2.41
 123  0.720  0.941  0.430-  44 1.64  41 1.91   4 2.14
 124  0.168  0.856  0.603-  54 1.62  28 1.77
 125  0.080  0.289  0.699-  31 1.55  48 1.80  15 2.25
 126  0.864  0.304  0.310-  40 1.64  16 2.02  19 2.29
 127  0.455  0.621  0.363-  51 1.69   3 2.43   2 2.43
 128  0.319  0.289  0.591-  46 1.47   9 2.32
 129  0.481  0.786  0.647-  32 1.79  22 2.22  11 2.36
 130  0.945  0.225  0.831-  31 1.75  48 2.09  18 2.39   8 2.39
 131  0.174  0.630  0.778-  30 1.66  17 2.23
 132  0.247  0.475  0.619-  46 1.79  30 1.83
 133  0.587  0.104  0.401-  44 1.53  27 2.40
 134  0.479  0.459  0.707-  52 1.65  34 1.77
 135  0.916  0.463  0.463-  33 1.57  40 1.91

IMPORTANT INFORMATION: All symmetrisations will be switched off!
NOSYMM: (Re-)initialisation of all symmetry stuff for point group C_1.

Automatic generation of k-mesh.
 generate k-points for:    2    2    2
Space group operators:
 irot       det(A)        alpha          n_x          n_y          n_z        tau_x        tau_y        tau_z
    1     1.000000     0.000000     1.000000     0.000000     0.000000     0.000000     0.000000     0.000000

 Subroutine IBZKPT returns following result:

 Found      8 irreducible k-points:

 Following reciprocal coordinates:
            Coordinates               Weight
  0.000000  0.000000  0.000000      1.000000
  0.500000  0.000000  0.000000      1.000000
  0.000000  0.500000  0.000000      1.000000
  0.500000  0.500000  0.000000      1.000000
  0.000000  0.000000  0.500000      1.000000
  0.500000  0.000000  0.500000      1.000000
  0.000000  0.500000  0.500000      1.000000
  0.500000  0.500000  0.500000      1.000000

 Following cartesian coordinates:
            Coordinates               Weight
  0.000000  0.000000  0.000000      1.000000
  0.038669  0.000000  0.000000      1.000000
  0.000000  0.038669  0.000000      1.000000
  0.038669  0.038669  0.000000      1.000000
  0.000000  0.000000  0.038669      1.000000
  0.038669  0.000000  0.038669      1.000000
  0.000000  0.038669  0.038669      1.000000
  0.038669  0.038669  0.038669      1.000000

 SYSTEM =  unknown system
 POSCAR =  Ca Si  O

 Startparameter for this run:
   NWRITE =      2    write-flag & timer
   PREC   = a         normal or accurate (medium, high low for compatibility)
   ISTART =      0    job   : 0-new  1-cont  2-samecut
   ICHARG =      2    charge: 1-file 2-atom 10-const
   ISPIN  =      1    spin polarized calculation?
   LNONCOLLINEAR =      F non collinear calculations
[...]
     0.000000000  0.000000000 12.930412990     0.000000000  0.000000000  0.077337050

  length of vectors
    12.930412990 12.930412990 12.930412990     0.077337050  0.077337050  0.077337050

 FORCES acting on ions
    electron-ion (+dipol)            ewald-force                    non-local-force                 convergence-correction
   0.215E+02 -.779E+02 -.739E+01   -.220E+02 0.716E+02 0.924E+01   0.973E+00 0.525E+01 -.121E+01   -.338E-03 -.580E-03 -.195E-03
   -.222E+02 0.222E+03 0.109E+03   0.229E+02 -.218E+03 -.105E+03   0.870E+00 -.491E+01 -.415E+01   -.669E-03 0.172E-02 -.297E-03
   -.145E+03 -.158E+03 0.890E+02   0.144E+03 0.153E+03 -.851E+02   0.115E+01 0.425E+01 -.327E+01   0.420E-03 0.165E-02 -.939E-03
   -.896E+02 0.144E+02 0.941E+02   0.903E+02 -.173E+02 -.889E+02   0.251E+00 0.594E+00 -.498E+01   -.645E-03 -.564E-03 0.296E-03
   -.264E+03 0.190E+01 -.245E+03   0.259E+03 -.168E+01 0.244E+03   0.396E+01 0.522E+00 0.161E+01   -.108E-02 0.920E-03 0.592E-03
   -.561E+02 -.119E+03 0.107E+03   0.547E+02 0.116E+03 -.109E+03   -.377E+00 0.357E+01 0.848E+00   0.465E-03 0.465E-03 -.127E-02
   0.153E+03 0.155E+03 0.916E+02   -.151E+03 -.155E+03 -.933E+02   -.910E-01 -.193E+01 -.111E+01   -.270E-03 0.370E-04 0.311E-03
   -.128E+03 0.221E+03 0.611E+02   0.126E+03 -.221E+03 -.619E+02   0.279E+01 -.102E+01 -.525E+00   0.263E-05 -.456E-03 0.709E-03
   -.514E+02 0.183E+03 -.124E+02   0.514E+02 -.177E+03 0.150E+02   0.717E+00 -.602E+01 -.291E+01   -.147E-03 -.933E-03 0.219E-03
   -.144E+03 -.712E+02 -.184E+03   0.143E+03 0.719E+02 0.183E+03   0.345E-01 -.116E+01 0.235E+01   0.284E-03 0.751E-03 0.549E-03
   0.473E+02 -.777E+02 -.266E+02   -.533E+02 0.780E+02 0.271E+02   0.425E+01 -.492E+00 -.137E+00   -.548E-03 -.127E-02 -.214E-03
   0.820E+02 -.136E+03 0.288E+02   -.780E+02 0.132E+03 -.293E+02   -.435E+01 0.576E+01 0.187E+01   0.158E-02 -.348E-03 -.305E-03
   -.725E+02 -.496E+02 -.541E+02   0.747E+02 0.466E+02 0.515E+02   0.157E+00 0.322E+01 0.249E+01   -.906E-04 -.160E-03 -.229E-03
   -.159E+03 0.212E+03 0.150E+03   0.158E+03 -.210E+03 -.145E+03   0.105E+01 -.400E+01 -.429E+01   0.965E-04 0.681E-03 -.163E-03
   0.249E+02 0.237E+02 0.972E+02   -.245E+02 -.258E+02 -.976E+02   -.672E+00 0.972E+00 -.835E+00   0.307E-03 -.143E-02 -.463E-03
   0.177E+03 -.130E+03 -.294E+02   -.173E+03 0.132E+03 0.315E+02   -.468E+01 -.687E+00 0.168E+00   0.298E-03 -.262E-03 -.504E-03
   0.128E+03 0.112E+03 -.793E+01   -.123E+03 -.108E+03 0.826E+01   -.347E+01 -.374E+01 0.318E+00   -.106E-03 0.117E-02 0.132E-02
   -.617E+02 -.125E+03 -.373E+02   0.668E+02 0.123E+03 0.339E+02   -.291E+01 0.322E+01 0.405E+01   0.718E-03 -.305E-03 0.397E-03
   -.661E+02 0.146E+02 0.532E+02   0.680E+02 -.136E+02 -.522E+02   -.168E+01 -.246E+01 -.171E+00   0.407E-03 -.702E-03 -.454E-03
   -.155E+03 -.777E+02 -.122E+03   0.149E+03 0.794E+02 0.120E+03   0.623E+01 0.143E+01 0.235E+01   -.110E-02 -.133E-03 0.260E-03
   0.172E+03 0.421E+02 0.668E+01   -.167E+03 -.407E+02 -.676E+01   -.734E+01 -.115E+01 -.105E+01   0.245E-03 0.116E-02 0.307E-03
   0.239E+03 -.138E+03 -.102E+03   -.234E+03 0.135E+03 0.101E+03   -.518E+01 0.325E+01 0.936E+00   0.733E-03 0.552E-03 0.480E-03
   -.384E+02 -.227E+03 0.322E+03   0.395E+02 0.228E+03 -.318E+03   0.388E+00 0.521E+01 -.792E+01   0.405E-04 -.130E-02 0.153E-02
   -.958E+01 0.570E+02 -.890E+01   0.139E+02 -.557E+02 0.944E+01   -.338E+01 -.309E+01 -.535E+00   -.391E-03 -.716E-03 0.246E-03
   -.105E+03 0.877E+02 -.654E+02   0.109E+03 -.851E+02 0.656E+02   -.383E+01 -.110E+01 0.416E+00   0.151E-02 0.153E-03 -.894E-03
   0.260E+03 0.358E+01 -.114E+03   -.260E+03 -.292E+01 0.113E+03   -.319E+01 -.192E+01 0.125E+01   0.783E-04 0.321E-03 0.301E-03
   0.369E+02 -.425E+02 -.775E+02   -.345E+02 0.383E+02 0.759E+02   -.120E+01 0.482E+01 0.163E+01   -.149E-03 -.213E-02 -.100E-02
   -.218E+01 -.671E+02 -.113E+03   0.230E+01 0.612E+02 0.109E+03   -.278E+00 0.494E+01 0.269E+01   0.157E-03 0.183E-03 -.314E-03
   -.352E+00 0.272E+02 0.130E+02   -.261E+01 -.249E+02 -.114E+02   0.402E+01 -.862E+01 0.162E+00   0.312E-04 -.336E-03 0.172E-03
   0.943E+02 0.848E+01 -.300E+02   -.873E+02 -.612E+01 0.317E+02   -.659E+01 -.503E+01 -.492E+01   0.311E-03 0.567E-03 0.168E-03
   0.377E+02 -.713E+02 -.976E+02   -.357E+02 0.744E+02 0.866E+02   -.688E+01 -.663E+01 0.760E+01   -.217E-03 0.596E-04 0.229E-03
   0.150E+03 -.809E+01 0.227E+02   -.139E+03 0.664E+01 -.173E+02   -.992E+01 0.162E+01 -.240E+01   -.270E-03 -.107E-03 0.114E-03
   0.456E+02 0.220E+02 -.193E+02   -.417E+02 -.185E+02 0.160E+02   -.832E+01 -.209E+01 0.819E+00   -.265E-03 0.443E-03 -.139E-03
   0.356E+02 -.478E+02 -.277E+02   -.413E+02 0.471E+02 0.344E+02   0.513E+01 0.392E+00 -.754E+01   -.280E-04 0.399E-03 0.346E-03
   -.621E+02 -.348E+02 0.926E+02   0.661E+02 0.350E+02 -.919E+02   -.557E+01 0.297E+01 -.220E+01   0.164E-03 -.151E-03 0.176E-03
   0.828E+02 0.281E+02 0.461E+02   -.840E+02 -.238E+02 -.342E+02   0.230E+01 -.539E+01 -.130E+02   -.453E-04 -.204E-03 0.151E-03
   0.126E+02 -.192E+02 0.190E+02   -.118E+02 0.107E+02 -.275E+02   0.131E+01 0.106E+02 0.115E+02   0.364E-03 0.158E-03 -.172E-03
   0.788E+02 0.255E+02 0.319E+02   -.720E+02 -.215E+02 -.362E+02   -.822E+01 -.878E+00 0.124E+02   0.216E-03 0.193E-03 -.155E-03
   -.482E+02 -.431E+01 0.725E+02   0.450E+02 0.517E+01 -.773E+02   0.825E+00 0.301E+01 0.227E+01   -.261E-03 -.223E-03 -.305E-03
   -.364E+02 0.108E+02 0.551E+01   0.327E+02 -.115E+02 -.100E+02   0.341E+01 0.390E+01 0.433E+01   -.165E-03 0.103E-03 -.497E-03
   -.149E+02 -.592E+02 -.405E+02   0.223E+02 0.526E+02 0.456E+02   -.690E+01 0.760E+01 -.589E+01   -.701E-04 -.181E-03 -.124E-03
   -.580E+01 -.247E+02 -.471E+02   0.996E-01 0.222E+02 0.421E+02   0.271E+01 0.432E+01 0.400E+01   -.340E-03 -.153E-04 0.125E-03
   -.193E+02 0.345E+01 -.778E+02   0.250E+02 -.540E+01 0.708E+02   -.837E+01 0.825E+01 0.812E+01   0.204E-03 0.137E-03 0.585E-04
   0.919E+02 -.447E+02 -.557E+02   -.952E+02 0.440E+02 0.423E+02   0.645E+01 0.275E+01 0.113E+02   -.348E-03 -.147E-03 -.334E-03
   0.180E+02 0.119E+03 -.865E+01   -.236E+02 -.119E+03 0.104E+02   0.495E+01 -.254E+01 -.314E+01   -.156E-03 -.182E-03 0.219E-03
   -.102E+02 -.917E+02 0.604E+02   0.745E+01 0.761E+02 -.488E+02   -.829E-01 0.215E+02 -.147E+02   0.739E-04 -.586E-04 0.550E-04
   -.127E+02 -.933E+01 0.445E+02   0.137E+02 0.103E+01 -.409E+02   -.129E+02 0.114E+02 -.729E+01   -.163E-04 -.793E-03 -.111E-03
   0.336E+02 -.102E+02 -.562E+02   -.159E+02 0.118E+02 0.630E+02   -.155E+02 -.429E+01 -.266E+01   0.131E-03 -.231E-03 0.448E-03
   -.391E+02 0.156E+02 0.236E+02   0.306E+02 -.227E+02 -.264E+02   0.179E+01 0.838E+01 0.661E+01   -.315E-04 0.390E-03 0.112E-03
   -.604E+02 -.565E+02 -.413E+02   0.612E+02 0.534E+02 0.322E+02   -.133E+01 0.671E+01 0.158E+02   -.224E-03 0.283E-03 -.379E-03
   -.287E+02 -.138E+02 0.401E+02   0.139E+02 0.129E+02 -.420E+02   0.103E+02 0.211E+01 0.529E+00   -.127E-03 0.364E-03 -.535E-04
   0.328E+02 0.157E+02 0.663E+02   -.339E+02 -.132E+02 -.656E+02   -.358E+01 -.747E+00 -.117E+01   -.108E-04 0.794E-04 0.120E-03
   -.429E+02 0.108E+03 -.166E+02   0.400E+02 -.105E+03 0.761E+01   0.462E+01 -.195E+01 0.110E+02   0.343E-04 0.800E-04 -.123E-03
   0.621E+02 0.474E+02 -.451E+02   -.507E+02 -.478E+02 0.386E+02   -.107E+02 0.534E+01 0.207E+01   0.472E-03 -.195E-03 -.252E-03
   -.147E+03 0.544E+01 -.202E+03   0.162E+03 -.264E+02 0.228E+03   -.131E+02 0.200E+02 -.239E+02   -.166E-03 -.282E-03 -.941E-04
   -.232E+02 -.452E+02 -.137E+03   0.481E+02 0.430E+02 0.147E+03   -.265E+02 0.226E+01 -.750E+01   -.307E-03 -.341E-03 0.949E-04
   -.150E+03 0.864E+02 0.879E+02   0.154E+03 -.111E+03 -.104E+03   -.255E+01 0.252E+02 0.168E+02   -.243E-03 0.892E-04 0.393E-03
   0.225E+02 0.131E+03 0.454E+01   -.324E+02 -.144E+03 -.167E+02   0.117E+02 0.115E+02 0.129E+02   -.211E-03 -.525E-03 0.127E-03
   -.775E+02 0.188E+01 0.140E+03   0.807E+02 0.146E+02 -.148E+03   -.320E+01 -.195E+02 0.846E+01   0.149E-04 0.458E-03 -.472E-03
   -.160E+03 -.823E+02 -.398E+02   0.169E+03 0.104E+03 0.202E+02   -.609E+01 -.216E+02 0.183E+02   -.170E-04 0.334E-03 0.863E-04
[...]
   -.366E+02 0.127E+02 -.805E+01   0.292E+02 -.273E+02 0.114E+02   0.974E+01 0.160E+02 -.244E+01   -.557E-04 -.132E-03 -.636E-03
   0.889E+02 0.220E+02 0.121E+03   -.841E+02 -.452E+02 -.139E+03   -.346E+01 0.268E+02 0.182E+02   -.368E-03 -.176E-03 -.111E-03
   -.247E+02 0.252E+02 -.933E+02   0.394E+02 -.405E+02 0.879E+02   -.179E+02 0.136E+02 0.608E+01   0.492E-03 0.255E-03 -.497E-03
   -.712E+02 -.194E+03 -.424E+02   0.102E+03 0.207E+03 0.290E+02   -.283E+02 -.141E+02 0.140E+02   -.621E-04 -.530E-03 0.431E-03
   -.156E+02 -.145E+02 -.497E+02   0.578E+01 -.602E+01 0.523E+02   0.125E+02 0.222E+02 -.252E+01   -.133E-03 -.202E-03 -.458E-03
   0.117E+03 -.161E+02 0.550E+02   -.136E+03 0.115E+02 -.534E+02   0.174E+02 0.643E+01 -.365E+01   -.117E-04 0.100E-02 -.240E-03
   -.411E+02 0.653E+02 0.262E+02   0.495E+02 -.949E+02 -.389E+01   -.784E+01 0.239E+02 -.202E+02   0.419E-04 -.459E-03 0.259E-03
   0.794E+02 -.156E+02 0.602E+02   -.934E+02 0.927E+01 -.483E+02   0.177E+02 0.748E+01 -.157E+02   0.177E-04 0.565E-04 -.521E-04
   0.577E+02 -.162E+03 -.802E+02   -.671E+02 0.155E+03 0.983E+02   0.102E+02 0.924E+01 -.204E+02   0.101E-03 -.963E-04 0.518E-03
   0.139E+03 -.829E+02 -.440E+02   -.153E+03 0.916E+02 0.651E+02   0.149E+02 -.896E+01 -.243E+02   0.113E-03 0.532E-03 0.805E-03
   0.854E+02 0.837E+01 -.769E+02   -.921E+02 -.169E+02 0.885E+02   0.678E+01 0.908E+01 -.127E+02   0.474E-03 0.613E-03 0.555E-04
   0.147E+03 -.184E+02 0.425E+02   -.153E+03 0.432E+02 -.627E+02   0.327E+01 -.232E+02 0.179E+02   -.362E-03 -.446E-03 -.577E-03
   0.104E+03 -.740E+02 0.931E+02   -.120E+03 0.896E+02 -.111E+03   0.173E+02 -.143E+02 0.186E+02   0.328E-03 0.600E-03 0.441E-03
   -.128E+03 0.138E+03 -.113E+03   0.145E+03 -.160E+03 0.132E+03   -.138E+02 0.187E+02 -.203E+02   -.434E-03 0.479E-03 -.629E-03
   0.103E+03 -.953E+02 -.726E+02   0.568E-13 -.114E-12 -.568E-13   -.103E+03 0.953E+02 0.726E+02   0.224E-02 -.667E-05 -.126E-02

 POSITION                                       TOTAL-FORCE (eV/Angst)
      9.52296     10.47293      1.02807         0.550480     -1.049804      0.643362
      5.45826      8.10154      2.30939         1.551712     -1.732702      0.596906
      3.66768      8.55323      5.55126         0.537486     -0.477951      0.624589
     10.52769     10.51100      6.15485         0.880985     -2.346349      0.223240
     11.99938      7.34235      8.31522        -0.452052      0.744146      0.574644
      0.64248      8.45484      4.47117        -1.762216      0.838283     -1.520805
      8.98327      0.86052      1.84228         1.566675     -1.979538     -2.725454
     12.06906      0.61612     10.07491         1.020890     -1.162885     -1.334008
      4.09955      2.08298      9.25653         0.769514     -0.270956     -0.266727
      8.67296      4.71816     12.28584        -1.069798     -0.539388      1.436422
      6.43266     12.39913      9.10517        -1.766233     -0.131021      0.385808
      0.53445     10.76343      1.41374        -0.360665      1.187185      1.403830
      9.62403      3.50771      7.78832         2.336986      0.222973     -0.126222
     11.71959      7.13569      0.97294         0.373104     -1.471997      1.199454
      1.66909      2.80632      7.09332        -0.266005     -1.170524     -1.222107
      9.29315      3.46655      3.46742        -1.139887      0.876292      2.223460
      2.19843      6.86485     11.88222         1.037943      0.168910      0.654768
     12.34354      2.09161      0.06284         2.219009      1.169203      0.649105
     12.87051      2.63120      3.18987         0.250428     -1.446273      0.836229
      5.38449     11.52706      2.91045         0.488558      3.100330     -0.020523
      8.34771      7.86464      8.41714        -2.143608      0.236656     -1.138643
      4.75731      9.45987      9.88275        -0.777008      0.382392     -0.367662
      3.25365     12.40425      0.02884         1.488743      5.818108     -3.624487
      9.31727     11.05760     10.40854         0.962054     -1.845444      0.002710
      0.72639     12.66145      4.97469        -0.117103      1.462390      0.577977
      4.94236      4.49192     12.88628        -2.597373     -1.261697      0.566637
      5.51427      2.36553      4.55622         1.197551      0.620504      0.112075
      0.90698     10.11052      7.01640        -0.160724     -0.965562     -1.503825
      9.51969      0.93981     11.62656         1.064449     -6.297394      1.839415
      2.98812      7.87154      8.58591         0.422907     -2.666589     -3.219663
     12.44490      3.90722      9.32731        -4.920623     -3.528939     -3.434578
      7.42230     10.42664      7.06685         0.322119      0.178158      2.974121
     10.83300      7.16294      5.74208        -4.489021      1.416112     -2.460872
      6.20366      6.68419     10.73258        -0.594451     -0.332286     -0.859541
     12.03242      9.17444     12.06142        -1.574682      3.215849     -1.493641
      7.00470      2.82734      1.44238         1.099279     -1.062326     -1.070796
      6.97786      5.29842      5.91361         2.067206      2.084827      2.999512
      9.35853      7.52194      2.55919        -1.428515      3.113765      8.207140
      2.43389      3.85923      1.83521        -2.284560      3.864820     -2.559004
     11.96218      5.36670      4.19031        -0.283361      3.251160     -0.183680
     10.56487      0.43606      6.34876         0.588435      1.064772     -0.705159
      6.51090     10.54178     12.64043        -2.988049      1.851681     -1.008750
      9.57849      7.34974     11.03267        -2.703319      6.298824      1.082702
      8.17032      0.28058      6.11847         3.182213      1.948316     -2.175762
      7.14691      2.79037     10.76984        -0.663336     -2.769627     -1.435098
      3.91252      4.96625      6.86292        -2.815691      5.845085     -3.103058
      3.24226      1.05095      3.18733       -11.935931      3.121111     -3.678908
      1.24259      2.39614     10.22200         2.124510     -2.662682      4.152173
      3.21383      9.53707      1.30133        -6.675805      1.270581      3.779543
      2.06181      5.41565      4.22252        -0.567828      3.609066      6.725180
      7.54633      8.09088      4.99052        -4.483440      1.194831     -1.425393
      6.82051      4.40179      9.08124        -4.637666      1.690111     -0.427896
     11.02669      0.11435      3.26499         1.767418      1.777065      2.067972
      2.54304     12.50656      8.42326         0.751612      4.935812     -4.451976
     11.16287     12.36579      7.34716         1.393817     -0.940127      2.007461
      8.93409     10.26394      7.66588        -1.559038      0.019177      2.310776
     12.32023      7.74242     11.32805         0.761673      0.769470      1.034604
      6.49838      1.56350      9.86162         1.773397     -1.300288      0.713023
     12.35969      6.81489      3.22979        -0.028443     -3.090427      0.260290
      9.79520      8.24921      9.77265         2.965626      0.225228     -1.313327
[...]
      9.71252      6.40240      1.72557         1.031823     -5.978078     -5.883321
      2.56718      4.51504      5.64744         2.317976      1.426831      0.894844
      9.30882     12.16910      5.56132         1.296058      3.618835      0.541704
      2.17305     11.06417      7.79356        -3.289510     -1.717923      0.741855
      1.03145      3.73910      9.04021         2.291393     -0.591476      0.670954
     11.17710      3.93339      4.01092         2.747751      1.655654      0.116026
      5.87786      8.03617      4.69719        -1.286306      1.913251     -2.079732
      4.11882      3.73972      7.63944         0.500499     -5.715495      2.059925
      6.22565     10.16558      8.36926         3.764615      1.185293     -3.769130
     12.22105      2.90867     10.74961         0.793059      2.159594     -2.438911
      2.25296      8.13979     10.05493         1.029758     -0.271828     -3.165404
      3.19719      6.14772      8.00237         0.092472      0.563139     -1.136972
      7.59493      1.34374      5.18752        -3.408036      1.618308     -2.246094
      6.19865      5.92888      9.13675         1.557507      1.247253      0.643096
     11.84307      5.99178      5.99134         3.637521     -2.861869     -0.708444
    total drift:                                0.011875     -0.003718      0.009902

  FREE ENERGIE OF THE ION-ELECTRON SYSTEM (eV)
  free  energy   TOTEN  =      -922.03454957 eV

  energy  without entropy=     -922.03454957  energy(sigma->0) =     -922.03454957