 vasp.5.4.4.18Apr17-6-g9f103f2a35 (build Oct 31 2019 15:01:46) complex

 executed on             LinuxIFC date 2024.05.02  00:40:41

 INCAR:
 POTCAR:    PAW_PBE Ca_sv 06Sep2000
 POTCAR:    PAW_PBE Si 05Jan2001
 POTCAR:    PAW_PBE O 08Apr2002
 POTCAR:    PAW_PBE Ca_sv 06Sep2000
   VRHFIN =Ca: 3s3p4s

   TITEL  = PAW_PBE Ca_sv 06Sep2000
   POMASS =   40.078; ZVAL   =   10.000    mass and valenz
   ENMAX  =  266.622; ENMIN  =  199.967 eV

 POTCAR:    PAW_PBE Si 05Jan2001
   VRHFIN =Si: s2p2

   TITEL  = PAW_PBE Si 05Jan2001
   POMASS =   28.085; ZVAL   =    4.000    mass and valenz
   ENMAX  =  245.345; ENMIN  =  184.009 eV

 POTCAR:    PAW_PBE O 08Apr2002
   VRHFIN =O: s2p4

   TITEL  = PAW_PBE O 08Apr2002
   POMASS =   16.000; ZVAL   =    6.000    mass and valenz
   ENMAX  =  400.000; ENMIN  =  300.000 eV

 Optimization of the real space projectors (new method)

 maximal supplied QI-value         = 16.25
 optimisation between [QCUT,QGAM] = [ 12.51, 25.03] = [ 43.85,175.40] Ry
 Optimized for a Real-space Cutoff    1.47 Angstroem

   l    n(q)    QCUT    max X(q) W(low)/X(q) W(high)/X(q)  e(spline)
   0     11    12.514    11.817    0.25E-04    0.32E-05    0.87E-07
   0     11    12.514     8.461    0.39E-04    0.59E-05    0.18E-06
   1     11    12.514     3.957    0.97E-05    0.57E-05    0.28E-07
   1     11    12.514     4.314    0.42E-04    0.14E-04    0.23E-06
   2     10    12.514    14.565    0.79E-04    0.50E-03    0.16E-05
   2     10    12.514    14.552    0.75E-04    0.48E-03    0.15E-05
 Optimization of the real space projectors (new method)

[...]

   l    n(q)    QCUT    max X(q) W(low)/X(q) W(high)/X(q)  e(spline)
   0      9    12.501   159.560    0.10E-03    0.83E-04    0.71E-07
   0      9    12.501   115.863    0.99E-04    0.81E-04    0.70E-07
   1      8    12.501    88.339    0.20E-03    0.25E-03    0.76E-07
   1      8    12.501    48.592    0.20E-03    0.24E-03    0.75E-07
 Optimization of the real space projectors (new method)

 maximal supplied QI-value         = 24.76
 optimisation between [QCUT,QGAM] = [ 12.38, 25.00] = [ 42.90,175.06] Ry
 Optimized for a Real-space Cutoff    1.16 Angstroem

   l    n(q)    QCUT    max X(q) W(low)/X(q) W(high)/X(q)  e(spline)
   0      9    12.378    20.381    0.16E-03    0.67E-05    0.31E-06
   0      9    12.378    15.268    0.17E-03    0.81E-05    0.33E-06
   1      8    12.378     5.964    0.20E-03    0.16E-03    0.30E-06
   1      8    12.378     5.382    0.18E-03    0.14E-03    0.26E-06
  PAW_PBE Ca_sv 06Sep2000               :
  PAW_PBE Si 05Jan2001                  :
  PAW_PBE O 08Apr2002                   :

 POSCAR: Ca Si  O
  positions in direct lattice
 exchange correlation table for  LEXCH =        8
   RHO(1)=    0.500       N(1)  =     2000
   RHO(2)=  100.500       N(2)  =     4000

 ion  position               nearest neighbor table
   1  0.668  0.027  0.912-  69 2.21  98 2.51  48 3.04
   2  0.283  0.922  0.975-  82 2.07  66 2.14 102 2.36  47 3.10
   3  0.151  0.425  0.603-  64 2.17 135 2.21  55 2.40 131 2.44  29 3.16
   4  0.475  0.210  0.765-  78 2.07  74 2.10 122 2.36
   5  0.566  0.072  0.292-  71 2.20 116 2.33  63 2.47 117 2.50  37 2.92  42 3.14
   6  0.737  0.439  0.469-  93 2.33  90 2.56
   7  0.069  0.086  0.255-  92 2.11  59 2.15 106 2.40 124 2.49  11 3.08
   8  0.956  0.236  0.595-  84 2.46  90 2.50  64 2.51  58 2.54  15 2.80
   9  0.205  0.178  0.665- 105 2.27 135 2.32  58 2.35  89 2.38 128 2.41  10 2.79
  10  0.258  0.097  0.464-  89 2.11 128 2.33 124 2.34  58 2.35  42 2.78   9 2.79
  11  0.846  0.038  0.163- 106 2.15  69 2.25 107 2.39  31 2.54   7 3.08  36 3.09
  12  0.267  0.697  0.786- 118 2.02  57 2.13
  13  0.208  0.754  0.489-  77 2.13 129 2.39 115 2.50
  14  0.765  0.735  0.834-  88 1.88  76 2.40  28 3.12
  15  0.788  0.202  0.738- 121 2.31  84 2.34  96 2.44 122 2.51   8 2.80  40 2.92
  16  0.521  0.559  0.306- 123 2.18  85 2.34
  17  0.732  0.524  0.991-  88 2.04  99 2.34 113 2.43 104 2.48  19 3.17
  18  0.627  0.757  0.174-  85 2.15  97 2.21  99 2.23  62 2.53
  19  0.633  0.487  0.762-  88 2.17 104 2.33 120 2.51  17 3.17
  20  0.063  0.000  0.839- 105 2.19  91 2.51
  21  0.509  0.959  0.560-  94 2.01  63 2.03 109 2.23  80 2.39  47 3.01  52 3.05
  22  0.054  0.357  0.073-  87 2.03 134 2.09  65 2.27  59 2.53  51 2.72  40 2.90  50 3.04
  23  0.472  0.403  0.027- 104 2.33 114 2.42  86 2.47
  24  1.000  0.503  0.401- 115 2.18  83 2.41  53 2.93
  25  0.962  0.823  0.334-  62 2.43 125 2.44
  26  0.307  0.631  0.058- 123 2.16 118 2.18  61 2.46  79 2.56  45 2.96  33 3.11
  27  0.279  0.464  0.263- 123 2.12  61 2.22 131 2.27
  28  0.766  0.931  0.681- 121 1.64  68 1.66  80 1.78  98 1.88  30 2.26  14 3.12
  29  0.929  0.497  0.698-  64 1.64 133 1.74 120 1.78  55 1.83  95 2.41  50 2.59   3 3.16
  30  0.723  0.812  0.552- 111 1.55  68 1.67  80 1.67 125 1.86  28 2.26
  31  0.857  0.854  0.077- 107 1.58 132 1.61  62 1.83  76 2.10  11 2.54  46 2.94
  32  0.424  0.333  0.516- 127 1.62 128 1.66 126 1.68 130 1.92  49 2.84
  33  0.079  0.634  0.157-  61 1.58  81 1.65 110 1.85 101 1.85  72 2.36  46 2.80  44 3.05  26 3.11

  34  0.728  0.329  0.189- 108 1.70  86 1.70  75 1.71  93 1.82  48 2.83  36 3.03
  35  0.517  0.835  0.791-  56 1.61  94 1.73  98 1.80  70 1.81  47 2.73  45 2.83
  36  0.813  0.181  0.361-  90 1.59 106 1.62  71 1.83 108 1.93  54 2.92  34 3.03  11 3.09
  37  0.465  0.121  0.088- 103 1.66 117 1.68 114 1.75 102 2.29   5 2.92
  38  0.960  0.718  0.574- 100 1.62 115 1.71 133 1.76 125 2.00  68 2.33  43 3.12
  39  0.817  0.571  0.232-  83 1.61  99 1.67  81 1.89  75 2.00
  40  0.918  0.322  0.889-  96 1.61 134 1.73  95 1.78 113 1.79  87 1.96  50 2.62  22 2.90  15 2.92
                            48 3.01
  41  0.234  0.340  0.878-  60 1.51  74 1.86 135 1.91  79 2.02  87 2.18  51 2.72  50 2.93
  42  0.356  0.209  0.299- 130 1.55 116 1.62 124 1.86 103 1.99  10 2.78   5 3.14
  43  0.046  0.951  0.560- 119 1.71  77 1.72 100 1.79 105 1.83  38 3.12
  44  0.196  0.836  0.227-  92 1.52  82 1.62 110 1.68 129 2.18 101 2.23  33 3.05
  45  0.498  0.652  0.921- 104 1.60 118 1.60  56 1.64  97 1.77  35 2.83  26 2.96
  46  0.024  0.733  0.965-  91 1.43  76 1.61  72 1.68 101 1.93  33 2.80  31 2.94
  47  0.355  0.973  0.744-  78 1.76  66 1.81  94 1.83  89 1.92  70 2.13  35 2.73  21 3.01   2 3.10

  48  0.703  0.259  0.976- 122 1.69 113 1.70  86 1.73  69 1.98  34 2.83  40 3.01   1 3.04
  49  0.401  0.552  0.569- 127 1.63  57 1.79 112 1.80  73 2.11  32 2.84
  50  0.049  0.483  0.866-  87 1.53  55 1.56  95 1.60  72 2.01  79 2.49  29 2.59  40 2.62  41 2.93
                            22 3.04
  51  0.214  0.212  0.052-  59 1.47  60 1.56 102 1.73  65 1.73  41 2.72  22 2.72
  52  0.433  0.810  0.383- 129 1.68  85 1.68  63 1.70  73 1.94  21 3.05
  53  0.118  0.302  0.382-  67 1.61 131 1.69  58 1.73 124 1.78  24 2.93
  54  0.641  0.200  0.517- 109 1.57  84 1.67  71 1.74 126 1.78  36 2.92
  55  0.066  0.517  0.748-  50 1.56  29 1.83   3 2.40
  56  0.541  0.711  0.813-  35 1.61  45 1.64
  57  0.310  0.573  0.677-  49 1.79  12 2.13
  58  0.136  0.235  0.501-  53 1.73   9 2.35  10 2.35   8 2.54
  59  0.125  0.172  0.118-  51 1.47   7 2.15  22 2.53
  60  0.199  0.237  0.932-  41 1.51  51 1.56
  61  0.161  0.538  0.153-  33 1.58  27 2.22  26 2.46
  62  0.810  0.833  0.214-  31 1.83  25 2.43  18 2.53
  63  0.510  0.920  0.403-  52 1.70  21 2.03   5 2.47
  64  0.979  0.435  0.594-  29 1.64   3 2.17   8 2.51
  65  0.231  0.337  0.108-  51 1.73  22 2.27
  66  0.247  0.903  0.809-  47 1.81   2 2.14
  67  0.031  0.308  0.288-  53 1.61
  68  0.818  0.815  0.646-  28 1.66  30 1.67  38 2.33
  69  0.759  0.121  0.030-  48 1.98   1 2.21  11 2.25
  70  0.468  0.947  0.869-  35 1.81  47 2.13
  71  0.686  0.127  0.408-  54 1.74  36 1.83   5 2.20
  72  0.053  0.602  0.973-  46 1.68  50 2.01  33 2.36
  73  0.407  0.675  0.453-  52 1.94  49 2.11
  74  0.377  0.319  0.846-  41 1.86   4 2.10
  75  0.823  0.426  0.167-  34 1.71  39 2.00
  76  0.896  0.729  0.973-  46 1.61  31 2.10  14 2.40
  77  0.127  0.901  0.462-  43 1.72  13 2.13
  78  0.351  0.105  0.793-  47 1.76   4 2.07
  79  0.240  0.495  0.921-  41 2.02  50 2.49  26 2.56
  80  0.699  0.943  0.555-  30 1.67  28 1.78  21 2.39
  81  0.950  0.623  0.181-  33 1.65  39 1.89
  82  0.275  0.856  0.127-  44 1.62   2 2.07
  83  0.831  0.585  0.358-  39 1.61  24 2.41
  84  0.764  0.234  0.555-  54 1.67  15 2.34   8 2.46
  85  0.498  0.743  0.287-  52 1.68  18 2.15  16 2.34
  86  0.644  0.323  0.083-  34 1.70  48 1.73  23 2.47
  87  0.065  0.371  0.912-  50 1.53  40 1.96  22 2.03  41 2.18
  88  0.751  0.585  0.842-  14 1.88  17 2.04  19 2.17
  89  0.320  0.038  0.609-  47 1.92  10 2.11   9 2.38
  90  0.858  0.280  0.427-  36 1.59   8 2.50   6 2.56
  91  0.062  0.806  0.887-  46 1.43  20 2.51
  92  0.118  0.929  0.219-  44 1.52   7 2.11
  93  0.665  0.390  0.305-  34 1.82   6 2.33
  94  0.444  0.876  0.681-  35 1.73  47 1.83  21 2.01
  95  0.925  0.464  0.888-  50 1.60  40 1.78  29 2.41
  96  0.966  0.236  0.807-  40 1.61  15 2.44
  97  0.524  0.737  0.032-  45 1.77  18 2.21
  98  0.640  0.902  0.759-  35 1.80  28 1.88   1 2.51
  99  0.708  0.600  0.160-  39 1.67  18 2.23  17 2.34
 100  0.010  0.828  0.622-  38 1.62  43 1.79
 101  0.097  0.767  0.097-  33 1.85  46 1.93  44 2.23
 102  0.288  0.095  0.049-  51 1.73  37 2.29   2 2.36
 103  0.463  0.214  0.182-  37 1.66  42 1.99
 104  0.548  0.535  0.920-  45 1.60  19 2.33  23 2.33  17 2.48
 105  0.101  0.029  0.671-  43 1.83  20 2.19   9 2.27
 106  0.890  0.085  0.322-  36 1.62  11 2.15   7 2.40
 107  0.939  0.937  0.030-  31 1.58  11 2.39
 108  0.823  0.237  0.218-  34 1.70  36 1.93
 109  0.583  0.118  0.592-  54 1.57  21 2.23
 110  0.141  0.719  0.261-  44 1.68  33 1.85
[...]
 121  0.847  0.029  0.711-  28 1.64  15 2.31
 122  0.634  0.238  0.862-  48 1.69   4 2.36  15 2.51
 123  0.396  0.558  0.186-  27 2.12  26 2.16  16 2.18
 124  0.209  0.210  0.323-  53 1.78  42 1.86  10 2.34   7 2.49
 125  0.843  0.767  0.477-  30 1.86  38 2.00  25 2.44
 126  0.557  0.315  0.513-  32 1.68  54 1.78
 127  0.352  0.439  0.527-  32 1.62  49 1.63
 128  0.355  0.227  0.556-  32 1.66  10 2.33   9 2.41
 129  0.308  0.852  0.360-  52 1.68  44 2.18  13 2.39
 130  0.420  0.287  0.370-  42 1.55  32 1.92
 131  0.189  0.414  0.412-  53 1.69  27 2.27   3 2.44
 132  0.742  0.869  0.021-  31 1.61
 133  0.904  0.631  0.669-  29 1.74  38 1.76
 134  0.917  0.277  0.021-  40 1.73  22 2.09
 135  0.148  0.331  0.752-  41 1.91   3 2.21   9 2.32

IMPORTANT INFORMATION: All symmetrisations will be switched off!
NOSYMM: (Re-)initialisation of all symmetry stuff for point group C_1.

Automatic generation of k-mesh.
 generate k-points for:    2    2    2
Space group operators:
 irot       det(A)        alpha          n_x          n_y          n_z        tau_x        tau_y        tau_z
    1     1.000000     0.000001     1.000000     0.000000     0.000000     0.000000     0.000000     0.000000

 Subroutine IBZKPT returns following result:

 Found      8 irreducible k-points:

 Following reciprocal coordinates:
            Coordinates               Weight
  0.000000  0.000000  0.000000      1.000000
  0.500000  0.000000  0.000000      1.000000
  0.000000  0.500000  0.000000      1.000000
[...]
     0.000000000  0.000000000 12.526070000     0.000000000  0.000000000  0.079833499

  length of vectors
    12.526070000 12.526070000 12.526070000     0.079833499  0.079833499  0.079833499

 FORCES acting on ions
    electron-ion (+dipol)            ewald-force                    non-local-force                 convergence-correction
   0.841E+01 0.815E+02 -.559E+01   -.865E+01 -.832E+02 0.130E+02   -.785E+00 0.339E+00 -.551E+01   0.269E-02 -.438E-02 -.181E-02
   -.288E+02 0.150E+02 -.479E+02   0.314E+02 -.124E+02 0.520E+02   -.106E+01 -.115E+01 -.254E+01   -.227E-03 -.221E-02 -.186E-02
   -.205E+03 -.216E+03 0.484E+02   0.204E+03 0.214E+03 -.438E+02   0.309E+01 0.244E+01 -.356E+01   -.166E-02 0.819E-04 0.785E-03
   -.170E+03 -.761E+02 0.111E+03   0.163E+03 0.752E+02 -.104E+03   0.690E+01 0.976E+00 -.603E+01   -.205E-02 -.256E-02 -.202E-02
   -.130E+03 0.131E+03 0.681E+02   0.123E+03 -.133E+03 -.685E+02   0.430E+01 0.615E+00 -.471E+00   0.165E-03 -.476E-02 0.346E-02
   0.129E+03 -.192E+03 -.308E+02   -.128E+03 0.189E+03 0.291E+02   -.480E+00 0.250E+01 0.208E+01   0.704E-03 0.326E-02 0.255E-02
   0.350E+02 0.108E+03 -.144E+02   -.313E+02 -.107E+03 0.105E+02   -.306E+01 0.366E-01 0.413E+01   -.110E-02 -.294E-02 0.232E-02
   0.164E+02 0.131E+03 0.556E+01   -.161E+02 -.129E+03 -.117E+02   -.941E-01 -.158E+01 0.421E+01   0.595E-03 -.259E-02 -.358E-03
   0.106E+02 0.280E+02 -.141E+03   -.747E+01 -.283E+02 0.144E+03   -.167E+01 0.287E+00 -.101E+01   -.121E-02 -.218E-02 -.183E-02
   -.281E+02 0.258E+03 0.136E+03   0.311E+02 -.258E+03 -.134E+03   -.253E+01 -.112E+01 -.221E+01   -.265E-02 -.283E-02 0.333E-02
   0.933E+02 0.889E+02 0.105E+02   -.944E+02 -.839E+02 -.125E+02   0.169E+00 -.285E+01 0.695E+00   0.122E-02 -.442E-02 0.112E-02
   0.107E+03 -.687E+02 0.181E+03   -.104E+03 0.655E+02 -.178E+03   -.480E+01 0.342E+01 -.263E+01   -.105E-02 0.261E-02 -.584E-03
   -.144E+03 0.139E+03 -.154E+03   0.142E+03 -.135E+03 0.148E+03   0.183E+01 -.492E+01 0.513E+01   -.638E-03 0.260E-02 0.459E-03
   -.870E+01 -.219E+03 0.313E+02   0.113E+02 0.215E+03 -.297E+02   -.148E+01 0.717E+01 -.168E+01   0.120E-02 0.122E-02 -.277E-02
   0.120E+03 0.925E+02 -.426E+02   -.122E+03 -.925E+02 0.415E+02   -.104E+00 0.511E+00 0.116E+01   0.243E-02 -.180E-02 -.275E-02
   -.101E+03 0.279E+02 -.127E+03   0.978E+02 -.232E+02 0.124E+03   0.389E+01 -.385E+01 0.368E+01   0.263E-03 0.641E-02 0.223E-02
   0.516E+02 -.799E+02 -.161E+03   -.488E+02 0.811E+02 0.158E+03   -.149E+01 -.183E+01 0.387E+01   0.114E-02 0.359E-02 -.140E-02
   -.319E+01 -.162E+03 -.111E+03   0.414E+00 0.162E+03 0.107E+03   0.287E+01 0.237E+01 0.248E+01   0.953E-03 -.409E-03 0.256E-02
   0.232E+03 0.571E+02 0.243E+03   -.226E+03 -.524E+02 -.242E+03   -.565E+01 -.430E+01 -.224E+01   0.265E-02 0.484E-02 -.260E-02
   0.129E+03 0.182E+02 -.138E+03   -.128E+03 -.228E+02 0.133E+03   -.147E+01 0.349E+01 0.500E+01   -.189E-02 -.426E-02 -.464E-02
   0.782E-01 0.110E+03 0.796E+02   0.123E+01 -.106E+03 -.818E+02   -.328E+00 -.108E+01 0.179E+01   0.132E-02 -.289E-02 -.153E-04
   0.656E+02 -.808E+02 -.233E+03   -.664E+02 0.765E+02 0.234E+03   0.462E+00 0.455E+01 0.309E+01   0.956E-03 0.347E-03 -.199E-02
   0.281E+02 -.708E+02 -.794E+02   -.306E+02 0.657E+02 0.763E+02   0.751E+00 0.306E+01 0.271E+01   -.137E-02 0.308E-02 -.837E-03
   0.220E+02 -.573E+02 0.971E+02   -.233E+02 0.595E+02 -.948E+02   0.667E+00 -.248E+01 -.258E+01   -.120E-02 0.270E-02 0.283E-02
   0.108E+03 -.244E+02 -.115E+02   -.111E+03 0.244E+02 0.125E+02   0.237E+01 0.411E-01 -.610E+00   -.175E-02 0.121E-02 0.417E-02
   -.527E+02 -.121E+03 -.236E+02   0.538E+02 0.119E+03 0.249E+02   -.218E+01 0.240E+01 -.473E+00   0.849E-04 0.657E-03 0.287E-03
   -.124E+03 -.516E+02 -.133E+03   0.121E+03 0.527E+02 0.127E+03   0.153E+01 -.211E+01 0.492E+01   -.627E-03 0.295E-02 -.141E-02
   -.640E+01 -.310E+02 -.562E+02   0.141E+02 0.314E+02 0.523E+02   -.793E+01 0.198E+01 0.361E+01   0.380E-03 -.195E-02 -.176E-02
   0.494E+02 -.601E+02 -.396E+02   -.515E+02 0.588E+02 0.256E+02   -.103E+01 0.254E+01 0.112E+02   -.664E-03 0.104E-02 -.561E-03
   0.795E+02 0.468E+01 0.131E+03   -.809E+02 -.181E+02 -.125E+03   0.485E+01 0.891E+01 -.953E+01   0.595E-03 0.348E-04 0.720E-05
   -.127E+02 0.546E+02 -.398E+02   0.709E+01 -.438E+02 0.316E+02   0.341E+01 -.152E+02 0.644E+01   -.198E-03 -.356E-03 -.745E-04
   -.703E+02 -.758E+02 -.292E+02   0.647E+02 0.667E+02 0.307E+02   0.515E+01 0.356E+01 -.458E+01   -.267E-03 0.311E-03 0.902E-03
   0.280E+02 -.596E+01 -.236E+02   -.233E+02 0.308E+01 0.240E+02   -.458E+01 0.732E+01 -.121E+01   0.288E-03 0.124E-02 -.481E-03
   0.850E+02 0.307E+02 -.358E+02   -.773E+02 -.261E+02 0.404E+02   -.519E+01 -.927E+00 -.391E+00   0.941E-03 0.677E-03 0.942E-04
   0.462E+01 0.397E+02 -.105E+02   -.653E+01 -.367E+02 0.119E+02   0.231E+01 0.274E+01 -.118E+01   0.896E-03 -.263E-03 -.139E-02
   0.753E+02 0.454E+02 0.169E+02   -.631E+02 -.419E+02 -.154E+02   -.104E+02 -.276E+01 -.310E+01   0.971E-03 -.132E-02 0.111E-02
   -.641E+01 0.833E+02 0.230E+02   0.107E+02 -.786E+02 -.241E+02   -.720E+01 -.327E+01 -.236E+01   -.388E-03 -.425E-03 -.176E-03
   -.412E+01 0.125E+02 -.105E+02   0.768E+01 -.114E+02 0.925E+01   -.737E+01 -.231E+01 -.159E-02   -.909E-03 0.200E-02 -.459E-04
   0.929E+01 -.334E+02 -.105E+02   -.153E+02 0.327E+02 0.171E+02   0.659E+01 -.189E+01 -.945E+01   -.701E-03 0.155E-02 0.531E-03
   0.525E+02 0.604E+02 0.314E+02   -.493E+02 -.677E+02 -.243E+02   -.225E+01 0.764E+01 -.372E+00   0.547E-03 0.470E-03 -.546E-03
   -.102E+03 -.873E+02 0.394E+02   0.104E+03 0.805E+02 -.399E+02   0.140E+01 0.140E+02 -.540E+01   -.764E-03 0.585E-03 0.102E-04
   0.482E+01 -.331E+02 0.728E+02   0.358E+01 0.246E+02 -.659E+02   -.918E+01 0.527E+01 -.113E+02   -.966E-03 -.808E-03 0.816E-03
   0.921E+01 0.240E+02 -.371E+02   -.122E+02 -.188E+02 0.293E+02   0.210E+01 -.307E+01 0.733E+01   -.650E-03 -.124E-02 -.152E-03
   -.101E+03 0.118E+02 -.706E+02   0.953E+02 -.350E+01 0.576E+02   0.877E+01 -.962E+01 0.109E+02   -.657E-03 -.271E-03 0.932E-03
   -.129E+02 0.132E+01 -.193E+02   0.102E+02 0.130E+01 0.225E+02   0.321E+01 0.117E+01 0.153E+01   0.409E-03 0.862E-03 -.286E-03
   -.123E+02 -.161E+02 0.573E-01   0.114E+02 0.223E+02 -.109E+02   -.283E+00 -.119E+02 0.186E+02   -.802E-03 0.495E-03 -.414E-03
   0.523E+01 0.663E+02 0.731E+01   -.111E+02 -.577E+02 -.501E+01   0.285E+01 -.484E+01 -.181E+01   -.324E-03 -.851E-03 -.108E-02
   0.246E+02 0.756E+02 -.476E+02   -.240E+02 -.741E+02 0.404E+02   0.106E+01 -.422E+01 0.685E+01   0.981E-03 -.226E-04 -.123E-03
   -.366E+02 -.101E+03 -.260E+02   0.404E+02 0.969E+02 0.284E+02   -.351E+00 0.826E+01 -.138E+01   0.118E-02 0.198E-02 -.944E-03
   -.777E+02 -.160E+03 -.248E+01   0.716E+02 0.149E+03 0.721E+00   0.984E+01 0.160E+02 0.629E+01   0.939E-04 0.400E-03 -.416E-03
   -.952E+02 0.531E+02 -.528E+01   0.860E+02 -.574E+02 0.100E+02   0.162E+02 0.345E+01 -.280E+01   -.642E-03 0.672E-03 -.189E-03
   -.275E+02 0.294E+02 -.414E+02   0.285E+02 -.267E+02 0.312E+02   -.524E+00 -.422E+01 0.671E+01   0.577E-03 -.110E-02 0.905E-03
   0.407E+02 -.184E+02 0.538E+01   -.418E+02 0.203E+02 -.109E+02   0.432E+01 -.350E+01 0.514E+01   -.309E-03 -.761E-03 0.889E-03
   0.425E+02 -.373E+02 0.346E+02   -.390E+02 0.288E+02 -.238E+02   -.130E+01 0.894E+01 -.946E+01   0.824E-03 -.126E-02 0.697E-03
   -.106E+03 -.228E+03 0.538E+02   0.126E+03 0.239E+03 -.781E+02   -.212E+02 -.947E+01 0.224E+02   -.724E-03 -.327E-03 0.292E-03
   -.713E+01 0.296E+02 0.137E+03   0.205E+02 -.483E+02 -.154E+03   -.119E+02 0.198E+02 0.152E+02   0.114E-02 0.344E-03 -.682E-03
   -.612E+02 -.250E+02 0.266E+02   0.502E+02 0.201E+02 -.108E+02   0.134E+02 0.491E+01 -.199E+02   -.120E-03 0.210E-02 -.357E-04
   0.692E+02 0.276E+02 0.652E+01   -.644E+02 -.361E+02 0.646E+01   -.745E+01 0.952E+01 -.127E+02   0.323E-03 -.186E-02 0.139E-02
   0.835E+02 0.146E+03 0.252E+02   -.108E+03 -.158E+03 -.703E+01   0.177E+02 0.974E+01 -.155E+02   0.247E-02 0.188E-02 -.164E-03
   -.865E+01 0.171E+03 0.618E+02   -.478E+01 -.196E+03 -.782E+02   0.120E+02 0.213E+02 0.156E+02   0.127E-02 0.422E-02 0.796E-03
[...]
   0.585E+02 0.135E+02 0.610E+02   -.728E+02 -.130E+02 -.770E+02   0.154E+02 -.201E+01 0.164E+02   0.131E-02 -.531E-03 -.102E-03
   -.101E+03 -.408E+02 -.202E+02   0.103E+03 0.465E+02 0.184E+02   -.889E+00 -.716E+01 0.181E+01   -.704E-03 0.253E-02 0.617E-03
   -.420E+02 0.257E+02 0.907E+02   0.362E+02 -.353E+02 -.995E+02   0.876E+01 0.101E+02 0.823E+01   -.186E-02 -.128E-02 0.210E-02
   0.921E+02 0.122E+01 0.124E+03   -.924E+02 -.724E+01 -.139E+03   0.217E+01 0.628E+01 0.157E+02   -.609E-03 0.121E-02 0.573E-03
   -.247E+02 -.100E+03 -.224E+02   0.384E+02 0.114E+03 0.203E+02   -.129E+02 -.144E+02 0.265E+01   0.132E-02 0.676E-03 0.102E-02
   -.429E+02 -.106E+03 -.658E+01   0.141E+02 0.104E+03 0.840E+00   0.289E+02 0.180E+01 0.513E+01   -.227E-03 0.194E-02 0.134E-02
   -.118E+03 -.481E+02 -.413E+02   0.109E+03 0.268E+02 0.486E+02   0.106E+02 0.241E+02 -.662E+01   -.212E-02 -.275E-02 0.801E-03
   -.408E+02 -.178E+02 0.314E+02   0.249E+02 0.333E+02 -.325E+02   0.157E+02 -.167E+02 0.100E+01   0.450E-03 -.122E-02 0.258E-02
   -.121E+03 -.108E+03 0.402E+02   0.144E+03 0.122E+03 -.357E+02   -.218E+02 -.105E+02 -.195E+01   -.170E-02 -.272E-02 -.793E-04
   -.692E+02 -.153E+03 0.255E+01   0.852E+02 0.168E+03 0.497E+01   -.186E+02 -.149E+02 -.795E+01   -.125E-02 -.118E-02 0.528E-03
   0.112E+03 -.191E+02 0.249E+02   -.137E+03 0.206E+02 -.352E+02   0.243E+02 -.101E+01 0.942E+01   0.290E-02 -.128E-02 0.607E-03
   0.243E+02 -.814E+02 -.700E+01   -.423E+02 0.897E+02 0.179E+02   0.197E+02 -.782E+01 -.120E+02   -.213E-02 0.179E-02 -.764E-03
   0.678E+02 0.183E+03 -.821E+02   -.734E+02 -.194E+03 0.103E+03   0.563E+01 0.111E+02 -.241E+02   0.113E-02 0.169E-02 -.124E-02
   -.744E+02 0.863E+01 0.700E+01   0.615E+02 -.872E+01 -.101E+02   0.166E+02 -.743E+00 0.289E+01   -.133E-03 0.156E-03 -.623E-03
   0.159E+02 -.414E+02 -.144E+03   0.639E-13 0.160E-13 0.151E-12   -.160E+02 0.414E+02 0.144E+03   0.191E-03 0.652E-02 0.542E-03

 POSITION                                       TOTAL-FORCE (eV/Angst)
      8.36772      0.34333     11.42668        -1.026989     -1.346556      1.916565
      3.53976     11.54347     12.21895         1.522230      1.486608      1.571002
      1.89213      5.32165      7.55014         1.869517      0.281279      0.995191
      5.95354      2.63026      9.57955        -0.163278      0.016657      0.617779
      7.09441      0.90295      3.65198        -2.124846     -1.298875     -0.904452
      9.23661      5.50069      5.87162         0.077946     -0.531095      0.386347
      0.86813      1.08068      3.19410         0.583402      1.549828      0.162997
     11.97132      2.95895      7.45756         0.187025     -0.181893     -1.976340
      2.56396      2.22931      8.33424         1.441719      0.032690      1.891924
      3.22842      1.22024      5.81717         0.413816     -1.909290     -0.698430
     10.60060      0.47200      2.04525        -0.923179      2.129204     -1.275945
      3.34468      8.73133      9.84497        -2.025250      0.223045      0.092103
      2.60661      9.44904      6.12687         0.397902     -0.109320     -1.065707
      9.58810      9.20291     10.44289         1.101416      2.796037     -0.122103
      9.86632      2.52886      9.24590        -1.330501      0.461899      0.001298
      6.53053      6.99955      3.83749         0.186070      0.867351      0.253453
      9.17200      6.56502     12.41346         1.283781     -0.579341      1.265705
      7.85335      9.48483      2.17486         0.098428      1.849884     -1.523347
      7.92486      6.10591      9.53893         1.256514      0.484714     -1.292810
      0.78890      0.00293     10.50326        -0.260939     -1.174684     -0.050768
      6.37215     12.01665      7.01500         0.978613      2.951216     -0.377912
      0.67952      4.46925      0.91500        -0.357911      0.252351      4.613763
      5.91167      5.04749      0.34001        -1.839695     -2.074434     -0.374618
     12.52542      6.30286      5.01985        -0.642166     -0.318342     -0.260977
     12.05184     10.31417      4.18322        -0.525339     -0.003409      0.373685
      3.83930      7.90612      0.73039        -1.096990      0.182716      0.822615
      3.49120      5.81817      3.29601        -0.918544     -1.080060     -1.119037
      9.58897     11.66305      8.52559        -0.235948      2.379637     -0.287890
     11.64181      6.22945      8.74593        -3.169417      1.243989     -2.803917
      9.05537     10.16863      6.91705         3.419668     -4.481551     -4.025055
     10.72969     10.70258      0.95827        -2.152877     -4.306214     -1.775551
      5.31459      4.16687      6.46878        -0.412502     -5.539781     -3.035931
      0.99138      7.93954      1.97249         0.127146      4.444732     -0.821002
      9.12264      4.12664      2.36443         2.487270      3.662738      4.177141
      6.47768     10.46339      9.90764         0.405807      5.665291      0.192680
     10.17757      2.27297      4.52161         1.809845      0.736579     -1.654461
      5.82012      1.51703      1.09681        -2.950555      1.345150     -3.491271
     12.02120      8.99870      7.19123        -3.812334     -1.254084     -1.297443
     10.23619      7.15709      2.89979         0.623700     -2.678351     -2.862344
     11.50396      4.02719     11.14065         0.970363      0.321578      6.678723
      2.92572      4.25461     10.99880         3.045842      7.158826     -5.850225
      4.46174      2.61445      3.75023        -0.776664     -3.211343     -4.413688
      0.57222     11.91835      7.01676        -0.864322      2.135085     -0.415198
      2.45552     10.47428      2.84272         3.499542     -1.329709     -2.039196
      6.23453      8.17148     11.54152         0.568432      3.791772      4.771243
      0.29741      9.18352     12.09309        -1.147509     -5.631553      7.729650
      4.44643     12.19336      9.32191        -3.052881      3.784002      0.486442
      8.80784      3.23920     12.22601         1.659361     -2.698387     -0.345374
      5.02233      6.91658      7.12116         3.461279      3.861662      0.968273
      0.61480      6.04996     10.85006         3.690646      5.252358      4.532488
      2.68391      2.65287      0.65417         7.032752     -0.904269      1.927300
      5.42443     10.15116      4.79516         0.550960     -1.548356     -3.528628
      1.47994      3.78659      4.77965         3.165106     -1.555278     -0.376782
      8.02330      2.50737      6.47571         2.245506      0.436933      1.293363
      0.82276      6.47900      9.36587        -1.388870      1.744114     -1.834399
      6.77937      8.90657     10.17918         1.506035      1.032752     -2.042663
      3.87916      7.18335      8.47737         2.442853      0.079547     -4.123952
      1.69770      2.94566      6.27436        -2.680637      1.030975      0.246885
      1.56179      2.16007      1.47459        -6.816609     -2.080487      2.715390
      2.49254      2.96687     11.66890        -1.412058     -3.738223     -0.801534
[...]
     10.60525      0.36520      8.91006        -2.301287     -1.178965      1.123860
      7.94401      2.98356     10.79861         1.060340     -1.527149      0.304933
      4.96474      6.98809      2.32643         1.248515     -1.530539     -0.056405
      2.62325      2.62859      4.05171         2.927033      0.521533     -0.536176
     10.55779      9.60943      5.97402         1.849354      0.259676     -0.084506
      6.97512      3.94327      6.42801         0.834481     -0.279151      0.590173
      4.41201      5.50004      6.60723         0.103940     -0.097615     -0.612181
      4.44585      2.84398      6.95913         1.380100      2.772054      0.692661
      3.85724     10.67696      4.50350        -0.209956     -1.197737     -0.164863
      5.26192      3.59778      4.63525         0.365175      3.678933      2.500435
      2.36581      5.18138      5.15572        -2.652453      0.155484     -0.423974
      9.28964     10.88309      0.26761        -1.214706      0.485005     -0.796913
     11.32061      7.90093      8.37462         1.733510      0.463773     -1.095942
     11.48988      3.47220      0.25811        -0.005294     -0.089665     -2.797997
      1.85861      4.15140      9.42214         3.692882     -0.838293     -0.252841
    total drift:                               -0.029918      0.030004      0.003240

  FREE ENERGIE OF THE ION-ELECTRON SYSTEM (eV)
  free  energy   TOTEN  =      -914.31141853 eV

  energy  without entropy=     -914.31141853  energy(sigma->0) =     -914.31141853