 vasp.5.4.4.18Apr17-6-g9f103f2a35 (build Oct 31 2019 15:01:46) complex

 executed on             LinuxIFC date 2024.04.29  23:31:58

 INCAR:
 POTCAR:    PAW_PBE Sc_sv 07Sep2000
 POTCAR:    PAW_PBE Cl 06Sep2000
 POTCAR:    PAW_PBE C 08Apr2002
 POTCAR:    PAW_PBE Sc_sv 07Sep2000
   VRHFIN =Sc: 3p4s3d

   TITEL  = PAW_PBE Sc_sv 07Sep2000
   POMASS =   44.956; ZVAL   =   11.000    mass and valenz
   ENMAX  =  222.660; ENMIN  =  166.995 eV

 POTCAR:    PAW_PBE Cl 06Sep2000
   VRHFIN =Cl: s2p5

   TITEL  = PAW_PBE Cl 06Sep2000
   POMASS =   35.453; ZVAL   =    7.000    mass and valenz
   ENMAX  =  262.472; ENMIN  =  196.854 eV

 POTCAR:    PAW_PBE C 08Apr2002
   VRHFIN =C: s2p2

   TITEL  = PAW_PBE C 08Apr2002
   POMASS =   12.011; ZVAL   =    4.000    mass and valenz
   ENMAX  =  400.000; ENMIN  =  300.000 eV

 Optimization of the real space projectors (new method)

 maximal supplied QI-value         = 15.12
 optimisation between [QCUT,QGAM] = [ 12.55, 25.10] = [ 44.09,176.36] Ry
 Optimized for a Real-space Cutoff    1.56 Angstroem

   l    n(q)    QCUT    max X(q) W(low)/X(q) W(high)/X(q)  e(spline)
   0     12    12.548     2.962    0.12E-05    0.11E-06    0.46E-07
   0     12    12.548    26.414    0.30E-04    0.15E-05    0.76E-07
   1     11    12.548     3.969    0.45E-05    0.12E-05    0.60E-07
   1     11    12.548     5.137    0.15E-04    0.18E-04    0.36E-06
   2     11    12.548   143.970    0.20E-03    0.19E-03    0.76E-06
   2     11    12.548   121.201    0.20E-03    0.19E-03    0.76E-06
 Optimization of the real space projectors (new method)

[...]

   l    n(q)    QCUT    max X(q) W(low)/X(q) W(high)/X(q)  e(spline)
   0      9    12.501   168.010    0.44E-04    0.61E-04    0.77E-07
   0      9    12.501   164.674    0.43E-04    0.60E-04    0.75E-07
   1      8    12.501    69.222    0.11E-03    0.13E-03    0.91E-07
   1      8    12.501    56.786    0.11E-03    0.13E-03    0.90E-07
 Optimization of the real space projectors (new method)

 maximal supplied QI-value         = 25.13
 optimisation between [QCUT,QGAM] = [ 12.32, 24.88] = [ 42.47,173.37] Ry
 Optimized for a Real-space Cutoff    1.16 Angstroem

   l    n(q)    QCUT    max X(q) W(low)/X(q) W(high)/X(q)  e(spline)
   0      9    12.315   115.676    0.19E-03    0.80E-05    0.34E-06
   0      9    12.315    87.132    0.19E-03    0.82E-05    0.34E-06
   1      8    12.315     4.429    0.18E-03    0.13E-03    0.22E-06
   1      8    12.315     2.733    0.14E-03    0.10E-03    0.18E-06
  PAW_PBE Sc_sv 07Sep2000               :
  PAW_PBE Cl 06Sep2000                  :
  PAW_PBE C 08Apr2002                   :

 POSCAR: Sc Cl  C
  positions in cartesian coordinates
 exchange correlation table for  LEXCH =        8
   RHO(1)=    0.500       N(1)  =     2000
   RHO(2)=  100.500       N(2)  =     4000

 ion  position               nearest neighbor table
   1  0.079  0.170  0.547-  65 2.31  70 2.41  66 2.41  61 2.54  49 2.59  50 2.66  17 3.17  18 3.20
                            29 3.22  13 3.33   6 3.34
   2  0.086  0.422  0.542-  67 2.27  66 2.33  71 2.34  51 2.60  50 2.62  62 2.73  19 3.11  18 3.16
                            30 3.19   3 3.30   7 3.36   6 3.37
   3  0.080  0.659  0.544-  67 2.19  72 2.32  63 2.49  68 2.50  51 2.57  52 2.62  19 3.20  31 3.22
                            20 3.28   2 3.30  14 3.35   7 3.38   4 3.39
   4  0.083  0.906  0.546-  68 2.24  69 2.36  65 2.52  52 2.53  49 2.59  64 2.66  32 3.21  20 3.23
                            17 3.25   3 3.39
   5  0.331  0.168  0.543-  74 2.28  69 2.35  70 2.42  54 2.57  49 2.63  53 2.73  17 3.10  21 3.11
                            22 3.14   6 3.39
   6  0.324  0.410  0.546-  70 2.18  71 2.40  75 2.46  55 2.57  50 2.63  54 2.71  18 3.18  22 3.20
                            23 3.26   1 3.34   2 3.37   5 3.39
   7  0.329  0.667  0.543-  71 2.26  72 2.37  76 2.43  51 2.56  55 2.60  56 2.67  19 3.11  23 3.12
                            24 3.16   8 3.31   2 3.36   3 3.38
   8  0.340  0.912  0.542-  73 2.34  72 2.34  69 2.47  52 2.52  53 2.58  56 2.59  21 3.10  24 3.12
                            20 3.22  12 3.30   7 3.31   9 3.41
   9  0.583  0.163  0.544-  73 2.25  78 2.38  74 2.46  53 2.58  57 2.61  58 2.68  26 3.15  21 3.20
                            25 3.24  12 3.30   8 3.41
  10  0.584  0.421  0.547-  74 2.33  75 2.39  79 2.45  59 2.51  58 2.60  54 2.71  22 3.20  26 3.25
                            27 3.29  15 3.36  11 3.37
  11  0.577  0.662  0.546-  75 2.20  80 2.36  76 2.45  59 2.51  55 2.52  60 2.71  23 3.06  27 3.18
                            28 3.20  10 3.37
  12  0.585  0.924  0.542-  73 2.17  77 2.30  76 2.36  57 2.57  56 2.66  60 2.70  25 3.07  24 3.11
                            28 3.22   8 3.30   9 3.30  13 3.35
  13  0.833  0.161  0.543-  66 2.28  77 2.30  78 2.36  57 2.42  62 2.50  61 2.64  25 3.10  30 3.13
                            29 3.21   1 3.33  16 3.34  12 3.35
  14  0.835  0.420  0.548-  67 2.28  78 2.38  63 2.44  79 2.49  58 2.69  62 2.86  30 3.19  31 3.26
                            26 3.27   3 3.35  15 3.39
  15  0.829  0.662  0.544-  79 2.26  68 2.40  80 2.45  64 2.52  63 2.59  59 2.60  31 3.16  27 3.19
                            32 3.24  10 3.36  14 3.39
  16  0.832  0.919  0.544-  65 2.31  77 2.31  80 2.37  61 2.54  60 2.62  64 2.70  28 3.19  32 3.20
                            29 3.21  13 3.34
  17  0.162  0.086  0.458-  65 2.29  69 2.33  70 2.41  36 2.61  37 2.61  33 2.71   5 3.10   1 3.17
                             4 3.25  29 3.29  18 3.38  32 3.39
  18  0.164  0.331  0.455-  70 2.23  66 2.37  71 2.44  33 2.45  38 2.65  34 2.79   2 3.16   6 3.18
                             1 3.20  29 3.37  17 3.38  19 3.40
  19  0.172  0.582  0.454-  71 2.25  72 2.32  34 2.45  67 2.52  39 2.52  35 2.66   7 3.11   2 3.11
                             3 3.20  23 3.40  18 3.40
  20  0.169  0.833  0.452-  72 2.28  69 2.38  68 2.40  40 2.52  35 2.55  36 2.70   8 3.22   4 3.23
                             3 3.28  21 3.37
  21  0.410  0.080  0.457-  69 2.26  73 2.44  74 2.45  37 2.46  40 2.51  41 2.70   8 3.10   5 3.11
                             9 3.20  20 3.37
  22  0.418  0.338  0.456-  74 2.29  70 2.36  75 2.39  37 2.49  38 2.61  42 2.61   5 3.14   6 3.20
                            10 3.20
  23  0.422  0.589  0.458-  75 2.27  76 2.27  71 2.31  39 2.50  38 2.61  43 2.64  11 3.06   7 3.12
                             6 3.26  28 3.31  24 3.33  27 3.35  19 3.40
  24  0.422  0.831  0.455-  76 2.17  73 2.44  72 2.47  39 2.52  44 2.54  40 2.61  12 3.11   8 3.12
                             7 3.16  23 3.33  28 3.39
  25  0.675  0.082  0.455-  77 2.25  73 2.35  78 2.41  45 2.51  44 2.56  41 2.62  12 3.07  13 3.10
                             9 3.24  30 3.33  29 3.41
  26  0.662  0.328  0.456-  78 2.35  74 2.35  79 2.42  42 2.56  46 2.63  41 2.64   9 3.15  10 3.25
                            14 3.27  30 3.38
  27  0.665  0.591  0.454-  80 2.28  79 2.35  75 2.37  43 2.45  42 2.48  47 2.62  11 3.18  15 3.19
                            28 3.24  10 3.29  23 3.35
  28  0.665  0.826  0.455-  80 2.18  76 2.28  77 2.40  48 2.52  43 2.53  44 2.67  16 3.19  11 3.20
                            12 3.22  27 3.24  23 3.31  24 3.39
  29  0.923  0.084  0.453-  65 2.30  77 2.43  66 2.44  45 2.58  48 2.60  33 2.80  13 3.21  16 3.21
                             1 3.22  17 3.29  18 3.37  32 3.38  25 3.41
  30  0.908  0.330  0.457-  78 2.21  66 2.27  67 2.42  46 2.59  45 2.62  34 2.66  13 3.13  14 3.19
                             2 3.19  25 3.33  26 3.38
  31  0.911  0.583  0.454-  79 2.24  68 2.41  67 2.45  46 2.45  47 2.49  35 2.74  15 3.16   3 3.22
                            14 3.26
  32  0.919  0.837  0.455-  68 2.25  65 2.43  80 2.46  36 2.50  48 2.57  47 2.64  16 3.20   4 3.21
                            15 3.24  29 3.38  17 3.39
  33  0.107  0.192  0.391-  18 2.45  17 2.71  29 2.80
  34  0.077  0.432  0.395-  19 2.45  30 2.66  18 2.79
  35  0.090  0.671  0.393-  20 2.55  19 2.66  31 2.74
  36  0.077  0.923  0.395-  32 2.50  17 2.61  20 2.70
  37  0.339  0.172  0.403-  21 2.46  22 2.49  17 2.61
  38  0.338  0.425  0.396-  22 2.61  23 2.61  18 2.65
  39  0.339  0.664  0.399-  23 2.50  24 2.52  19 2.52
  40  0.338  0.921  0.398-  21 2.51  20 2.52  24 2.61
  41  0.583  0.160  0.395-  25 2.62  26 2.64  21 2.70
  42  0.592  0.426  0.400-  27 2.48  26 2.56  22 2.61
  43  0.587  0.666  0.395-  27 2.45  28 2.53  23 2.64
  44  0.583  0.919  0.395-  24 2.54  25 2.56  28 2.67
  45  0.833  0.164  0.395-  25 2.51  29 2.58  30 2.62
  46  0.835  0.424  0.398-  31 2.45  30 2.59  26 2.63
  47  0.836  0.665  0.395-  31 2.49  27 2.62  32 2.64
  48  0.826  0.910  0.397-  28 2.52  32 2.57  29 2.60
  49  0.161  0.078  0.603-   4 2.59   1 2.59   5 2.63
  50  0.159  0.340  0.609-   2 2.62   6 2.63   1 2.66
  51  0.169  0.585  0.604-   7 2.56   3 2.57   2 2.60
  52  0.179  0.833  0.601-   8 2.52   4 2.53   3 2.62
  53  0.417  0.074  0.603-   9 2.58   8 2.58   5 2.73
  54  0.408  0.319  0.608-   5 2.57   6 2.71  10 2.71
  55  0.412  0.581  0.602-  11 2.52   6 2.57   7 2.60
  56  0.421  0.835  0.606-   8 2.59  12 2.66   7 2.67
  57  0.682  0.088  0.601-  13 2.42  12 2.57   9 2.61
  58  0.659  0.331  0.608-  10 2.60   9 2.68  14 2.69
  59  0.661  0.585  0.603-  11 2.51  10 2.51  15 2.60
  60  0.668  0.839  0.606-  16 2.62  12 2.70  11 2.71
  61  0.916  0.077  0.605-  16 2.54   1 2.54  13 2.64
  62  0.917  0.308  0.607-  13 2.50   2 2.73  14 2.86
  63  0.920  0.582  0.601-  14 2.44   3 2.49  15 2.59
  64  0.908  0.819  0.605-  15 2.52   4 2.66  16 2.70
  65  1.000  0.007  0.502-  17 2.29  29 2.30   1 2.31  16 2.31  32 2.43   4 2.52
  66  0.995  0.255  0.500-  30 2.27  13 2.28   2 2.33  18 2.37   1 2.41  29 2.44
  67  0.996  0.500  0.504-   3 2.19   2 2.27  14 2.28  30 2.42  31 2.45  19 2.52
  68  0.999  0.757  0.498-   4 2.24  32 2.25  20 2.40  15 2.40  31 2.41   3 2.50
  69  0.247  1.000  0.499-  21 2.26  17 2.33   5 2.35   4 2.36  20 2.38   8 2.47
  70  0.249  0.262  0.500-   6 2.18  18 2.23  22 2.36   1 2.41  17 2.41   5 2.42
  71  0.254  0.508  0.499-  19 2.25   7 2.26  23 2.31   2 2.34   6 2.40  18 2.44
  72  0.242  0.747  0.498-  20 2.28  19 2.32   3 2.32   8 2.34   7 2.37  24 2.47
  73  0.510  0.005  0.501-  12 2.17   9 2.25   8 2.34  25 2.35  21 2.44  24 2.44
  74  0.497  0.257  0.502-   5 2.28  22 2.29  10 2.33  26 2.35  21 2.45   9 2.46
  75  0.501  0.508  0.502-  11 2.20  23 2.27  27 2.37  22 2.39  10 2.39   6 2.46
  76  0.501  0.757  0.497-  24 2.17  23 2.27  28 2.28  12 2.36   7 2.43  11 2.45
  77  0.750  0.999  0.499-  25 2.25  13 2.30  12 2.30  16 2.31  28 2.40  29 2.43
  78  0.754  0.253  0.500-  30 2.21  26 2.35  13 2.36   9 2.38  14 2.38  25 2.41
  79  0.752  0.508  0.497-  31 2.24  15 2.26  27 2.35  26 2.42  10 2.45  14 2.49
  80  0.741  0.751  0.499-  28 2.18  27 2.28  11 2.36  16 2.37  15 2.45  32 2.46

  LATTYP: Found a hexagonal cell.
 ALAT       =    13.7939866762
 C/A-ratio  =     2.0161119278

  Lattice vectors:

 A1 = (  13.7939866800,   0.0000000000,   0.0000000000)
 A2 = (  -6.8969933400,  11.9459428800,   0.0000000000)
 A3 = (   0.0000000000,   0.0000000000,  27.8102210700)

Analysis of symmetry for initial positions (statically):
 Subroutine PRICEL returns:
[...]
     0.000000000  0.000000000 27.810221070     0.000000000  0.000000000  0.035958003

  length of vectors
    13.793986680 13.793986676 27.810221070     0.083710429  0.083710429  0.035958003

 FORCES acting on ions
    electron-ion (+dipol)            ewald-force                    non-local-force                 convergence-correction
   -.305E+02 0.302E+01 -.112E+04   0.302E+02 -.366E+01 0.112E+04   0.324E+00 0.493E+00 0.405E+01   -.165E-04 0.940E-05 0.671E-04
   0.144E+02 0.169E+02 -.103E+04   -.154E+02 -.176E+02 0.103E+04   0.448E+00 -.482E-01 0.431E+01   -.522E-04 -.124E-04 0.640E-04
   0.299E+02 -.414E+02 -.105E+04   -.293E+02 0.413E+02 0.104E+04   -.444E+00 0.854E+00 0.440E+01   -.109E-04 -.299E-04 0.508E-04
   0.139E+02 -.176E+02 -.111E+04   -.138E+02 0.178E+02 0.111E+04   -.492E+00 0.321E+00 0.444E+01   0.233E-04 0.180E-04 0.538E-04
   -.680E+01 0.205E+02 -.105E+04   0.758E+01 -.203E+02 0.105E+04   -.514E+00 -.476E+00 0.402E+01   -.153E-04 -.327E-04 0.432E-04
   -.276E+02 0.729E+01 -.113E+04   0.276E+02 -.667E+01 0.113E+04   0.331E+00 0.277E+00 0.448E+01   0.303E-04 0.484E-05 0.672E-04
   -.952E+01 -.266E+02 -.108E+04   0.954E+01 0.262E+02 0.108E+04   0.370E+00 0.542E+00 0.441E+01   0.262E-04 0.448E-04 0.753E-04
   0.354E+02 -.198E+02 -.101E+04   -.359E+02 0.199E+02 0.101E+04   -.106E+00 0.128E+00 0.334E+01   -.137E-04 0.153E-04 0.394E-04
   0.328E+02 -.520E+02 -.108E+04   -.325E+02 0.520E+02 0.107E+04   -.256E+00 0.462E+00 0.412E+01   0.299E-04 0.779E-05 0.431E-04
   -.149E+02 0.282E+02 -.112E+04   0.146E+02 -.288E+02 0.111E+04   0.137E+00 0.117E+00 0.423E+01   0.180E-04 0.350E-04 0.359E-04
   -.390E+01 -.361E+02 -.114E+04   0.429E+01 0.365E+02 0.113E+04   -.204E+00 0.656E+00 0.447E+01   0.251E-05 0.194E-04 0.304E-04
   -.980E+01 0.391E+02 -.105E+04   0.106E+02 -.397E+02 0.105E+04   0.171E+00 -.383E+00 0.459E+01   0.278E-04 -.108E-04 0.582E-04
   -.578E+01 -.235E+02 -.102E+04   0.579E+01 0.248E+02 0.101E+04   0.242E+00 -.584E+00 0.374E+01   -.153E-04 -.531E-05 0.477E-04
   0.273E+02 0.395E+02 -.116E+04   -.264E+02 -.400E+02 0.115E+04   -.699E+00 -.374E+00 0.465E+01   -.531E-06 0.869E-06 0.157E-04
   -.615E+01 -.146E+02 -.106E+04   0.586E+01 0.152E+02 0.106E+04   0.155E+00 -.847E-01 0.459E+01   -.314E-04 -.167E-04 0.130E-04
   -.389E+02 0.330E+02 -.107E+04   0.381E+02 -.332E+02 0.106E+04   0.667E+00 -.409E+00 0.432E+01   -.388E-04 -.287E-04 0.419E-04
   -.480E+01 0.998E+01 0.102E+04   0.506E+01 -.107E+02 -.101E+04   0.118E+00 0.450E+00 -.464E+01   0.302E-04 0.263E-05 -.193E-04
   0.237E+02 -.843E+01 0.110E+04   -.234E+02 0.881E+01 -.109E+04   -.493E+00 0.613E+00 -.424E+01   -.722E-05 -.194E-04 -.405E-04
   0.517E+02 0.435E+01 0.111E+04   -.519E+02 -.387E+01 -.110E+04   -.620E+00 -.100E+00 -.394E+01   -.527E-04 -.109E-04 -.438E-04
   0.343E+02 -.107E+02 0.114E+04   -.344E+02 0.999E+01 -.113E+04   -.432E+00 0.485E+00 -.435E+01   -.693E-06 0.296E-04 -.127E-04
   -.235E+02 -.264E+02 0.104E+04   0.234E+02 0.265E+02 -.103E+04   0.722E+00 0.321E+00 -.390E+01   -.138E-05 -.290E-04 -.331E-05
   -.111E+02 0.355E+01 0.106E+04   0.111E+02 -.286E+01 -.105E+04   -.617E-01 -.170E+00 -.430E+01   -.138E-04 0.298E-04 -.303E-04
   -.604E+01 0.458E+02 0.102E+04   0.568E+01 -.465E+02 -.101E+04   0.247E+00 -.343E-01 -.453E+01   0.466E-04 0.290E-04 -.177E-04
   0.523E+02 -.339E+02 0.110E+04   -.513E+02 0.337E+02 -.110E+04   -.121E+01 0.503E+00 -.411E+01   0.177E-04 0.179E-04 -.567E-05
   0.350E+02 -.316E+02 0.111E+04   -.354E+02 0.312E+02 -.111E+04   -.319E+00 0.497E+00 -.424E+01   0.904E-05 0.624E-06 0.269E-05
   0.106E+02 0.167E+02 0.105E+04   -.106E+02 -.161E+02 -.104E+04   0.673E-01 -.186E+00 -.426E+01   0.298E-04 0.245E-04 -.925E-05
   -.358E+02 0.320E+02 0.108E+04   0.364E+02 -.321E+02 -.108E+04   0.596E-01 -.342E+00 -.416E+01   0.513E-05 0.152E-05 0.132E-04
   -.185E+01 -.395E+02 0.108E+04   0.177E+01 0.400E+02 -.108E+04   -.377E+00 0.352E+00 -.469E+01   0.877E-05 -.532E-05 0.253E-04
   -.286E+02 -.154E+02 0.116E+04   0.275E+02 0.152E+02 -.116E+04   0.540E+00 0.302E+00 -.504E+01   -.257E-04 0.226E-05 -.157E-05
   -.774E+01 -.215E+02 0.107E+04   0.824E+01 0.216E+02 -.106E+04   0.114E+00 0.363E+00 -.518E+01   -.179E-04 0.152E-04 0.999E-05
   -.418E+02 -.162E+02 0.109E+04   0.410E+02 0.164E+02 -.108E+04   0.118E+01 0.157E+00 -.403E+01   0.981E-06 -.389E-04 0.175E-04
   -.118E+02 -.738E+01 0.107E+04   0.123E+02 0.673E+01 -.106E+04   -.688E+00 0.206E+00 -.397E+01   -.349E-04 -.170E-04 -.701E-05
   0.961E+00 0.249E+02 0.149E+04   -.693E+00 -.244E+02 -.149E+04   -.726E+00 -.150E+01 0.221E+01   -.609E-06 0.983E-05 0.129E-04
   0.550E+00 0.309E+02 0.146E+04   -.788E+00 -.306E+02 -.146E+04   0.681E+00 -.115E+01 0.191E+01   0.259E-06 0.280E-05 0.229E-04
   0.106E+02 -.371E+00 0.146E+04   -.106E+02 0.252E+00 -.147E+04   -.313E+00 0.202E+00 0.231E+01   0.101E-04 -.921E-05 0.280E-04
   -.205E+02 -.149E+02 0.146E+04   0.203E+02 0.149E+02 -.146E+04   0.552E+00 0.227E+00 0.191E+01   -.759E-06 0.363E-05 0.174E-04
   0.163E+01 0.437E+01 0.141E+04   -.158E+01 -.431E+01 -.142E+04   -.371E+00 -.166E+00 0.103E+01   0.233E-05 0.416E-05 0.934E-05
   -.331E+01 0.107E+02 0.145E+04   0.327E+01 -.107E+02 -.146E+04   0.112E+00 -.131E+00 0.220E+01   0.442E-05 0.578E-05 0.143E-04
   0.118E+02 0.231E+00 0.146E+04   -.117E+02 -.348E+00 -.147E+04   -.364E+00 0.378E+00 0.111E+01   0.958E-05 -.105E-05 0.169E-04
   0.463E+01 -.754E+01 0.145E+04   -.453E+01 0.767E+01 -.145E+04   -.156E+00 -.224E+00 0.149E+01   0.116E-04 0.505E-05 0.200E-04
   0.184E+02 -.133E+02 0.145E+04   -.184E+02 0.131E+02 -.145E+04   -.290E+00 0.623E+00 0.242E+01   0.731E-05 -.872E-05 0.135E-04
   -.248E+01 0.329E+02 0.143E+04   0.253E+01 -.328E+02 -.143E+04   -.371E+00 -.760E+00 0.140E+01   -.545E-05 0.389E-05 0.158E-04
   0.119E+02 0.946E+01 0.149E+04   -.119E+02 -.953E+01 -.149E+04   -.523E+00 0.184E+00 0.131E+01   -.648E-05 -.589E-05 0.187E-04
   0.762E+00 -.715E+01 0.148E+04   -.846E+00 0.728E+01 -.148E+04   0.222E+00 -.292E+00 0.187E+01   -.234E-05 0.592E-05 0.838E-05
   -.120E+02 -.189E+02 0.147E+04   0.118E+02 0.188E+02 -.147E+04   0.399E+00 0.330E+00 0.174E+01   -.101E-04 -.542E-05 0.106E-04
   0.322E+01 0.228E+02 0.145E+04   -.312E+01 -.226E+02 -.145E+04   -.161E+00 -.847E+00 0.149E+01   0.115E-05 -.558E-05 0.233E-04
   -.478E+01 -.957E+01 0.147E+04   0.489E+01 0.946E+01 -.147E+04   -.421E+00 0.557E+00 0.187E+01   -.125E-04 -.443E-05 0.228E-04
   -.122E+02 -.191E+02 0.146E+04   0.121E+02 0.190E+02 -.146E+04   0.401E+00 0.627E+00 0.159E+01   -.876E-05 -.257E-05 0.902E-05
   -.112E+02 0.107E+02 -.143E+04   0.113E+02 -.107E+02 0.143E+04   0.729E-01 0.118E+00 -.204E+01   0.410E-06 -.164E-05 -.146E-04
   -.129E+02 0.485E+01 -.149E+04   0.126E+02 -.473E+01 0.149E+04   0.884E+00 -.319E+00 -.262E+01   -.929E-05 0.426E-05 -.143E-04
   0.923E+01 -.116E+01 -.147E+04   -.911E+01 0.116E+01 0.148E+04   -.257E+00 -.407E-01 -.198E+01   0.259E-05 0.729E-07 -.346E-05
   0.139E+02 -.430E+01 -.143E+04   -.137E+02 0.443E+01 0.144E+04   -.697E+00 -.280E+00 -.159E+01   0.638E-05 -.498E-06 -.497E-05
   0.198E+02 -.116E+02 -.144E+04   -.198E+02 0.115E+02 0.144E+04   -.175E+00 0.417E+00 -.230E+01   0.996E-06 -.860E-05 -.187E-04
   -.516E+01 -.761E+00 -.147E+04   0.520E+01 0.474E+00 0.147E+04   -.175E+00 0.795E+00 -.260E+01   -.465E-05 0.367E-05 -.182E-04
   -.239E+01 -.246E+01 -.145E+04   0.236E+01 0.254E+01 0.145E+04   -.881E-01 0.478E-01 -.168E+01   -.363E-05 0.635E-05 -.129E-04
   -.939E+01 0.205E+01 -.147E+04   0.943E+01 -.200E+01 0.147E+04   0.673E-02 -.149E+00 -.258E+01   0.556E-05 -.571E-05 -.186E-04
   0.308E+02 0.148E-01 -.145E+04   -.306E+02 0.509E-01 0.146E+04   -.137E+01 -.457E+00 -.132E+01   0.152E-04 -.359E-05 -.204E-04
   -.763E+01 0.470E+01 -.146E+04   0.746E+01 -.482E+01 0.146E+04   0.558E+00 0.249E+00 -.255E+01   0.583E-05 0.211E-05 -.154E-04
   -.119E+02 -.216E+01 -.146E+04   0.118E+02 0.227E+01 0.147E+04   0.386E+00 -.167E+00 -.149E+01   -.750E-06 0.693E-05 -.113E-04
   0.330E+01 0.138E+02 -.146E+04   -.334E+01 -.137E+02 0.146E+04   -.312E-02 -.373E+00 -.257E+01   -.354E-05 0.570E-05 -.236E-04
[...]
   0.770E+01 0.531E+01 -.103E+02   -.780E+01 -.535E+01 0.107E+02   0.196E+00 -.162E+00 -.100E+01   0.866E-06 -.259E-05 0.640E-05
   -.122E+02 0.107E+02 0.176E+02   0.120E+02 -.104E+02 -.178E+02   0.382E+00 -.900E+00 0.423E+00   -.202E-05 -.344E-05 0.850E-05
   0.726E+01 0.886E+01 -.605E+00   -.739E+01 -.882E+01 0.507E+00   0.400E+00 0.153E+00 0.197E+00   0.402E-05 -.338E-06 0.898E-05
   -.111E+02 0.228E+02 -.685E+00   0.110E+02 -.224E+02 0.557E+00   0.435E+00 -.158E+01 0.296E+00   0.367E-05 0.186E-05 0.448E-05
   -.967E+01 0.247E+02 0.734E+01   0.971E+01 -.245E+02 -.743E+01   -.332E+00 -.858E+00 0.440E+00   0.322E-05 0.459E-05 0.469E-05
   0.773E+01 -.950E+01 0.221E+02   -.818E+01 0.942E+01 -.221E+02   0.138E+01 0.489E+00 0.272E+00   0.252E-05 0.107E-05 0.764E-05
   0.264E+02 -.124E+02 0.170E+02   -.261E+02 0.126E+02 -.168E+02   -.129E+01 -.417E+00 -.434E+00   0.271E-05 -.207E-05 0.132E-05
   -.172E+02 0.621E+01 -.197E+02   0.169E+02 -.589E+01 0.198E+02   0.764E+00 -.742E+00 -.319E+00   0.159E-05 -.559E-06 0.552E-05
   -.825E+01 0.332E+02 -.206E+02   0.820E+01 -.329E+02 0.206E+02   0.291E+00 -.100E+01 0.411E-01   -.157E-05 0.502E-05 0.242E-05
   -.823E+01 -.567E+00 -.660E+01   0.822E+01 0.810E+00 0.637E+01   -.812E-01 -.811E+00 0.991E+00   0.122E-05 -.253E-05 0.874E-05
   -.191E+02 0.865E+01 0.196E+02   0.189E+02 -.875E+01 -.195E+02   0.619E+00 0.340E+00 -.250E+00   -.203E-05 -.880E-06 0.121E-04
   0.228E+02 -.613E+01 -.153E+02   -.227E+02 0.633E+01 0.154E+02   -.919E+00 -.488E+00 -.107E+00   0.316E-05 -.203E-05 0.934E-05
   0.395E+01 0.282E+02 0.216E+02   -.401E+01 -.278E+02 -.221E+02   0.156E+00 -.111E+01 0.163E+01   -.277E-05 -.396E-06 0.614E-05
   -.309E+02 -.577E+01 -.163E+02   0.305E+02 0.581E+01 0.163E+02   0.133E+01 -.978E-01 0.296E+00   0.530E-06 -.669E-06 0.107E-04
   -.116E+01 0.282E+01 0.537E+01   -.284E-13 -.178E-14 0.250E-11   0.116E+01 -.281E+01 -.537E+01   -.377E-04 0.440E-04 0.787E-03

 POSITION                                       TOTAL-FORCE (eV/Angst)
     -0.08144      2.03389     15.20755         0.073576     -0.153283     -0.315901
     -1.72799      5.04238     15.08589        -0.484644     -0.681638      0.451793
     -3.43688      7.86892     15.11987         0.173387      0.792017     -0.678807
     -5.10054     10.82602     15.18365        -0.404541      0.523659     -0.448915
      3.40842      2.00765     15.08923         0.264387     -0.203231      0.770925
      1.63633      4.89483     15.19582         0.340986      0.888601     -0.013635
     -0.06246      7.96250     15.11107         0.396040      0.225439      0.091259
     -1.60187     10.89799     15.07097        -0.595321      0.205094      0.137580
      6.92528      1.94509     15.14163        -0.036156      0.450218      0.121403
      5.14793      5.02461     15.20932        -0.172725     -0.512365     -0.737731
      3.39279      7.90243     15.17261         0.184113      1.041625     -0.161823
      1.69428     11.04398     15.06028         0.921357     -0.949398      0.713136
     10.38168      1.92838     15.09690         0.249358      0.651309     -0.327558
      8.61857      5.01165     15.22836         0.177445     -0.920223     -0.866971
      6.87057      7.91130     15.12724        -0.137688      0.546333     -0.798883
      5.14402     10.97623     15.12449        -0.152323     -0.560001      0.008438
      1.64105      1.02386     12.74461         0.371166     -0.221499     -0.172351
     -0.02695      3.95917     12.65155        -0.203669      0.992985      0.176987
     -1.64352      6.95393     12.63185        -0.802682      0.376091      0.260690
     -3.41257      9.94891     12.57901        -0.557864     -0.258661      0.664757
      5.10031      0.95452     12.70715         0.604304      0.435908      0.119100
      3.43163      4.04132     12.69322        -0.066064      0.524805      0.409705
      1.74900      7.04162     12.74106        -0.110471     -0.757386     -0.142632
      0.08976      9.92230     12.64154        -0.289318      0.343921     -0.095828
      8.74319      0.97859     12.64058        -0.770822      0.073721      0.059741
      6.87299      3.92074     12.68616         0.078382      0.429855      0.304710
      5.09823      7.05910     12.62144         0.696761     -0.448517      1.168793
      3.47529      9.86153     12.64735        -0.459753      0.928251      0.398482
     12.14946      0.99880     12.58517        -0.554370      0.060924      0.713979
     10.24973      3.94544     12.70062         0.611513      0.524684      0.019519
      8.54394      6.95979     12.62171         0.416173      0.407593      0.751200
      6.91109      9.99486     12.64058        -0.159919     -0.452630      0.686301
      0.14846      2.28910     10.86326        -0.457293     -1.049313      0.196081
     -1.91510      5.15974     10.98238         0.443096     -0.842985     -0.121414
     -3.38215      8.01094     10.92106        -0.245728      0.082326      0.180818
     -5.31006     11.02713     10.99655         0.391620      0.226351     -0.183331
      3.48536      2.05175     11.20267        -0.324202     -0.106551     -1.038846
      1.72680      5.08113     11.01846         0.078666     -0.072201      0.052681
      0.10085      7.93482     11.09454        -0.308814      0.261155     -0.907367
     -1.69030     11.00402     11.06394        -0.057286     -0.095815     -0.546695
      6.94478      1.90697     10.98195        -0.244484      0.448874      0.247577
      5.22666      5.08655     11.11641        -0.313223     -0.657690     -0.709646
      3.50033      7.95193     10.99007        -0.457970      0.105815     -0.609246
      1.70522     10.97480     10.98361         0.138582     -0.167444     -0.211529
     10.36103      1.95830     10.98947         0.231842      0.299094     -0.313618
      8.58994      5.06858     11.06230        -0.062757     -0.655350     -0.516411
      6.94626      7.94139     10.98015        -0.308478      0.439837     -0.246136
      5.11547     10.87164     11.02774         0.286491      0.495102     -0.516539
      1.68343      0.93082     16.75642         0.123051      0.148254      0.166860
     -0.14855      4.05902     16.93518         0.597769     -0.201931     -0.497708
     -1.70675      6.99252     16.80952        -0.132513     -0.041281      0.085085
     -3.27522      9.95209     16.70409        -0.528407     -0.143302      0.494563
      5.23816      0.88695     16.77775        -0.193955      0.338491     -0.132984
      3.42167      3.81120     16.91658        -0.134996      0.508434     -0.417658
      1.67877      6.94009     16.75097        -0.116740      0.133422      0.444985
      0.04185      9.97856     16.85089         0.045534     -0.102125     -0.443594
      8.80414      1.05367     16.71473        -1.093609     -0.391327      0.697545
      6.80048      3.95963     16.90507         0.386044      0.129254     -0.339546
      5.08756      6.98378     16.78021         0.291326     -0.055068      0.528673
      3.43119     10.02526     16.85681        -0.045545     -0.228704     -0.398387
[...]
     11.96360      3.04791     13.89290         1.154818     -0.374849     -0.355171
     10.29474      5.97558     14.02199         0.088906     -0.204725     -0.631411
      8.55610      9.04148     13.84337         0.176315     -0.547798      0.249119
     -3.48589     11.94498     13.86738         0.268407      0.195913      0.098510
      1.62260      3.13199     13.91068         0.300947     -1.154698      0.167722
     -0.00011      6.06375     13.88169        -0.289699     -0.574054      0.351652
     -1.81817      8.92054     13.84108         0.933674      0.402043      0.233027
      7.00987      0.05424     13.92549        -1.038615     -0.206884     -0.285041
      5.08335      3.06781     13.95308         0.538200     -0.424867     -0.174428
      3.40220      6.06896     13.94994         0.242694     -0.758992     -0.000677
      1.69345      9.04054     13.81518        -0.089028     -0.568589      0.756212
      3.45021     11.93194     13.86966         0.440388      0.236503     -0.159538
      8.66025      3.02086     13.91775        -0.747982     -0.283953     -0.030503
      6.86568      6.06719     13.81240         0.093355     -0.712438      1.157690
      5.04447      8.96664     13.87144         0.946988     -0.052898      0.290432
    total drift:                               -0.001871      0.010479      0.000047

  FREE ENERGIE OF THE ION-ELECTRON SYSTEM (eV)
  free  energy   TOTEN  =      -526.91717814 eV

  energy  without entropy=     -526.91717814  energy(sigma->0) =     -526.91717814