 vasp.5.4.4.18Apr17-6-g9f103f2a35 (build Mar 16 2023 09:39:13) complex

 executed on             LinuxIFC date 2024.04.30  14:54:38

 INCAR:
 POTCAR:    PAW_PBE Ca_sv 06Sep2000
 POTCAR:    PAW_PBE Si 05Jan2001
 POTCAR:    PAW_PBE O 08Apr2002
 POTCAR:    PAW_PBE Ca_sv 06Sep2000
   VRHFIN =Ca: 3s3p4s

   TITEL  = PAW_PBE Ca_sv 06Sep2000
   POMASS =   40.078; ZVAL   =   10.000    mass and valenz
   ENMAX  =  266.622; ENMIN  =  199.967 eV

   TITEL  = PAW_PBE Si 05Jan2001
   POMASS =   28.085; ZVAL   =    4.000    mass and valenz
   ENMAX  =  245.345; ENMIN  =  184.009 eV

   TITEL  = PAW_PBE O 08Apr2002
   POMASS =   16.000; ZVAL   =    6.000    mass and valenz
   ENMAX  =  400.000; ENMIN  =  300.000 eV

 Optimization of the real space projectors (new method)

 maximal supplied QI-value         = 16.25
 optimisation between [QCUT,QGAM] = [ 12.51, 25.03] = [ 43.85,175.40] Ry
 Optimized for a Real-space Cutoff    1.47 Angstroem

   l    n(q)    QCUT    max X(q) W(low)/X(q) W(high)/X(q)  e(spline)
   0     11    12.514    11.817    0.25E-04    0.32E-05    0.87E-07
   0     11    12.514     8.461    0.39E-04    0.59E-05    0.18E-06
   1     11    12.514     3.957    0.97E-05    0.57E-05    0.28E-07
   1     11    12.514     4.314    0.42E-04    0.14E-04    0.23E-06
   2     10    12.514    14.565    0.79E-04    0.50E-03    0.16E-05
   2     10    12.514    14.552    0.75E-04    0.48E-03    0.15E-05
 Optimization of the real space projectors (new method)

[...]

   l    n(q)    QCUT    max X(q) W(low)/X(q) W(high)/X(q)  e(spline)
   0      9    12.501   159.560    0.10E-03    0.83E-04    0.71E-07
   0      9    12.501   115.863    0.99E-04    0.81E-04    0.70E-07
   1      8    12.501    88.339    0.20E-03    0.25E-03    0.76E-07
   1      8    12.501    48.592    0.20E-03    0.24E-03    0.75E-07
 Optimization of the real space projectors (new method)

 maximal supplied QI-value         = 24.76
 optimisation between [QCUT,QGAM] = [ 12.38, 25.00] = [ 42.90,175.06] Ry
 Optimized for a Real-space Cutoff    1.16 Angstroem

   l    n(q)    QCUT    max X(q) W(low)/X(q) W(high)/X(q)  e(spline)
   0      9    12.378    20.381    0.16E-03    0.67E-05    0.31E-06
   0      9    12.378    15.268    0.17E-03    0.81E-05    0.33E-06
   1      8    12.378     5.964    0.20E-03    0.16E-03    0.30E-06
   1      8    12.378     5.382    0.18E-03    0.14E-03    0.26E-06
  PAW_PBE Ca_sv 06Sep2000               :
  PAW_PBE Si 05Jan2001                  :
  PAW_PBE O 08Apr2002                   :

 POSCAR: Ca Si  O
  positions in direct lattice
 exchange correlation table for  LEXCH =        8
   RHO(1)=    0.500       N(1)  =     2000
   RHO(2)=  100.500       N(2)  =     4000

 ion  position               nearest neighbor table
   1  0.628  0.037  0.074- 101 2.30  74 2.35  32 3.11  34 3.13
   2  0.313  0.727  0.014- 126 1.97  85 2.32 110 2.34 129 2.38  83 2.48  44 2.80  39 2.93  32 3.13

   3  0.880  0.722  0.194- 114 2.12 107 2.24 121 2.37 130 2.38  52 3.06
   4  0.948  0.766  0.777- 125 2.19  99 2.37 132 2.50  53 3.10
   5  0.060  0.508  0.700-  71 2.36  77 2.44 131 2.52
   6  0.034  0.376  0.358-  92 2.21  98 2.34 100 2.40  36 3.15
   7  0.520  0.864  0.525-  62 2.12 135 2.13  79 2.48
   8  0.777  0.611  0.586-  97 2.23  64 2.35 119 2.35  67 2.38  42 2.82  49 3.11  52 3.16
   9  0.620  0.473  0.167- 109 2.18  94 2.29  75 2.45
  10  0.798  0.334  0.545-  80 2.26  64 2.44  67 2.54
  11  0.212  0.904  0.751-  57 1.94  82 2.36
  12  0.957  0.189  0.762-  80 2.09  89 2.29  68 2.35  36 2.90
  13  0.141  0.779  0.255- 128 1.99  83 2.01 129 2.28 103 2.35  40 2.60
  14  0.981  0.266  0.021- 115 2.07  86 2.18  81 2.39
  15  0.253  0.431  0.457-  93 2.05  77 2.43
  16  0.926  0.006  0.069-  55 1.98 121 2.22  74 2.40  86 2.45 120 2.49  35 2.83
  17  0.361  0.131  0.268- 111 2.03  59 2.54  38 2.85  31 3.10
  18  0.598  0.845  0.801- 133 2.01  65 2.21  84 2.35  42 3.03  32 3.07
  19  0.392  0.382  0.175-  70 2.16 118 2.21  59 2.31  38 2.80  44 2.96
  20  0.522  0.274  0.942-  96 2.29 101 2.36  90 2.44  70 2.46  94 2.48  47 2.84
  21  0.272  0.922  0.457- 127 2.14  91 2.41  43 2.93
  22  0.265  0.208  0.713-  89 2.24  66 2.39  82 2.49  54 3.14
  23  0.584  0.138  0.649- 112 2.22  90 2.45  62 2.54  45 2.85  33 3.13
  24  0.508  0.577  0.454-  97 2.21  63 2.43  75 2.45  93 2.50 135 2.52
  25  0.119  0.488  0.115-  69 1.84 102 2.27  81 2.37  92 2.46  53 2.99
  26  0.202  0.125  0.959-  86 2.52
  27  0.323  0.516  0.690- 131 2.05 104 2.23  93 2.37
  28  0.463  0.343  0.550-  61 1.41  93 1.64  95 1.77  76 1.78  38 3.03
  29  0.785  0.502  0.359- 105 1.60  64 1.62  75 1.73 107 1.79  52 3.07
  30  0.851  0.502  0.071- 109 1.56  81 1.63  88 1.82 114 2.04  47 3.06
  31  0.146  0.206  0.194-  92 1.67 113 1.75 111 1.82  86 1.93  17 3.10
  32  0.446  0.922  0.966- 106 1.50  72 1.68 126 1.69 133 1.74  33 2.56  18 3.07   1 3.11   2 3.13

[...]

  53  0.025  0.632  0.961-  71 1.56  99 1.71  69 1.75 114 1.88  25 2.99  35 3.06   4 3.10
  54  0.202  0.365  0.888-  66 1.58 102 1.63 131 1.69 115 1.78  44 3.09  22 3.14
  55  0.868  0.085  0.952-  46 1.90  16 1.98
  56  0.530  0.539  0.761-  42 1.73  37 1.77
  57  0.111  0.989  0.681-  48 1.59  11 1.94
  58  0.809  0.787  0.489-  49 1.70  52 1.86
  59  0.365  0.315  0.338-  38 1.91  19 2.31  17 2.54
  60  0.693  0.964  0.653-  41 1.54
  61  0.413  0.251  0.579-  28 1.41
  62  0.542  0.023  0.495-  45 1.62   7 2.12  23 2.54
  63  0.420  0.571  0.289-  39 1.53  24 2.43
  64  0.851  0.498  0.466-  29 1.62   8 2.35  10 2.44
  65  0.487  0.960  0.741-  33 1.69  18 2.21
  66  0.300  0.293  0.874-  54 1.58  22 2.39
  67  0.746  0.460  0.687-  37 1.62   8 2.38  10 2.54
  68  0.912  0.048  0.659-  48 1.65  41 1.79  12 2.35
  69  0.140  0.587  0.016-  53 1.75  25 1.84
  70  0.437  0.426  0.020-  44 1.62  19 2.16  20 2.46
  71  0.999  0.586  0.853-  53 1.56   5 2.36
  72  0.426  0.942  0.094-  32 1.68  51 1.72
  73  0.971  0.908  0.542-  48 1.57  49 1.81
  74  0.769  0.961  0.158-  34 1.93   1 2.35  16 2.40
  75  0.652  0.510  0.350-  29 1.73   9 2.45  24 2.45
  76  0.542  0.327  0.438-  38 1.59  28 1.78
  77  0.130  0.374  0.587-  36 1.60  15 2.43   5 2.44
  78  0.792  0.266  0.870-  47 1.68  46 1.74
  79  0.360  0.757  0.527-  43 1.82   7 2.48
  80  0.937  0.297  0.644-  36 1.72  12 2.09  10 2.26
  81  0.947  0.427  0.105-  30 1.63  25 2.37  14 2.39
  82  0.309  0.047  0.808-  33 1.62  11 2.36  22 2.49
  83  0.256  0.693  0.194-  39 1.48  13 2.01   2 2.48
  84  0.509  0.738  0.685-  42 1.66  18 2.35
  85  0.340  0.591  0.901-  44 1.55   2 2.32
  86  0.061  0.136  0.093-  31 1.93  14 2.18  16 2.45  26 2.52
  87  0.549  0.143  0.337-  45 1.64  38 1.89
  88  0.806  0.460  0.944-  47 1.70  30 1.82
  89  0.102  0.191  0.660-  36 1.66  22 2.24  12 2.29
  90  0.469  0.167  0.796-  33 1.57  20 2.44  23 2.45
  91  0.168  0.814  0.567-  43 1.58  21 2.41
  92  0.127  0.331  0.222-  31 1.67   6 2.21  25 2.46
  93  0.391  0.446  0.534-  28 1.64  15 2.05  27 2.37  24 2.50
  94  0.665  0.362  0.036-  47 1.55   9 2.29  20 2.48
  95  0.557  0.372  0.645-  37 1.72  28 1.77
  96  0.628  0.378  0.845-  47 1.70  37 1.79  20 2.29
  97  0.609  0.571  0.593-  42 1.58  24 2.21   8 2.23  37 2.34
  98  0.070  0.536  0.435-  40 1.55   6 2.34
  99  0.042  0.760  0.934-  35 1.69  53 1.71   4 2.37
 100  0.082  0.233  0.465-  36 1.64  50 1.64   6 2.40
 101  0.635  0.132  0.923-  46 1.58   1 2.30  20 2.36
 102  0.229  0.410  0.002-  54 1.63  44 2.13  25 2.27
 103  0.186  0.683  0.403-  40 1.69  43 1.78  13 2.35
 104  0.216  0.616  0.600-  43 1.54  27 2.23
 105  0.837  0.411  0.293-  29 1.60
 106  0.433  0.034  0.940-  32 1.50  33 1.59
 107  0.798  0.633  0.317-  52 1.73  29 1.79   3 2.24
 108  0.456  0.752  0.184-  51 1.69  39 1.98
 109  0.764  0.555  0.134-  30 1.56   9 2.18
 110  0.349  0.576  0.107-  44 1.68  39 1.71   2 2.34
 111  0.276  0.186  0.147-  31 1.82  17 2.03
 112  0.672  0.182  0.507-  45 1.57  23 2.22
[...]
 121  0.978  0.846  0.101-  35 1.69  16 2.22   3 2.37
 122  0.760  0.126  0.754-  46 1.69  41 1.99
 123  0.343  0.912  0.268-  51 1.62
 124  0.568  0.917  0.246-  34 1.65  51 1.68
 125  0.845  0.901  0.775-  41 1.53   4 2.19
 126  0.361  0.835  0.919-  32 1.69   2 1.97
 127  0.247  0.084  0.433-  50 1.82  21 2.14
 128  0.074  0.640  0.263-  40 1.54  13 1.99
 129  0.179  0.829  0.090-  35 1.68  13 2.28   2 2.38
 130  0.772  0.832  0.294-  34 1.65  52 1.75   3 2.38
 131  0.221  0.457  0.796-  54 1.69  27 2.05   5 2.52
 132  0.974  0.706  0.596-  49 1.46   4 2.50
 133  0.575  0.889  0.948-  32 1.74  18 2.01
 134  0.689  0.013  0.374-  34 1.61  45 1.66
 135  0.596  0.750  0.434-  52 1.93   7 2.13  24 2.52

IMPORTANT INFORMATION: All symmetrisations will be switched off!
NOSYMM: (Re-)initialisation of all symmetry stuff for point group C_1.

Automatic generation of k-mesh.
 generate k-points for:    2    2    2
Space group operators:
 irot       det(A)        alpha          n_x          n_y          n_z        tau_x        tau_y        tau_z
    1     1.000000     0.000000     1.000000     0.000000     0.000000     0.000000     0.000000     0.000000

 Subroutine IBZKPT returns following result:

 Found      8 irreducible k-points:

 Following reciprocal coordinates:
            Coordinates               Weight
  0.000000  0.000000  0.000000      1.000000
  0.500000  0.000000  0.000000      1.000000
  0.000000  0.500000  0.000000      1.000000
  0.500000  0.500000  0.000000      1.000000
  0.000000  0.000000  0.500000      1.000000
  0.500000  0.000000  0.500000      1.000000
  0.000000  0.500000  0.500000      1.000000
  0.500000  0.500000  0.500000      1.000000

 Following cartesian coordinates:
            Coordinates               Weight
  0.000000  0.000000  0.000000      1.000000
  0.038669  0.000000  0.000000      1.000000
  0.000000  0.038669  0.000000      1.000000
  0.038669  0.038669  0.000000      1.000000
  0.000000  0.000000  0.038669      1.000000
  0.038669  0.000000  0.038669      1.000000
  0.000000  0.038669  0.038669      1.000000
  0.038669  0.038669  0.038669      1.000000

 SYSTEM =  unknown system
 POSCAR =  Ca Si  O

 Startparameter for this run:
   NWRITE =      2    write-flag & timer
   PREC   = a         normal or accurate (medium, high low for compatibility)
   ISTART =      0    job   : 0-new  1-cont  2-samecut
   ICHARG =      2    charge: 1-file 2-atom 10-const
   ISPIN  =      1    spin polarized calculation?
   LNONCOLLINEAR =      F non collinear calculations
   LSORBIT =      F    spin-orbit coupling
   INIWAV =      1    electr: 0-lowe 1-rand  2-diag
   LASPH  =      F    aspherical Exc in radial PAW
   METAGGA=      F    non-selfconsistent MetaGGA calc.

 Electronic Relaxation 1
   ENCUT  =  600.0 eV  44.10 Ry    6.64 a.u.  25.83 25.83 25.83*2*pi/ulx,y,z
   ENINI  =  600.0     initial cutoff
   ENAUG  =  605.4 eV  augmentation charge cutoff
   NELM   =     60;   NELMIN=  2; NELMDL= -5     # of ELM steps
   EDIFF  = 0.1E-05   stopping-criterion for ELM
   LREAL  =      T    real-space projection
   NLSPLINE    = F    spline interpolate recip. space projectors
   LCOMPAT=      F    compatible to vasp.4.4
   GGA_COMPAT  = T    GGA compatible to vasp.4.4-vasp.4.6
[...]
     0.000000000  0.000000000 12.930412990     0.000000000  0.000000000  0.077337050

  length of vectors
    12.930412990 12.930412990 12.930412990     0.077337050  0.077337050  0.077337050

 FORCES acting on ions
    electron-ion (+dipol)            ewald-force                    non-local-force                 convergence-correction
   -.135E+03 -.488E+02 -.166E+03   0.138E+03 0.430E+02 0.162E+03   -.324E+01 0.404E+01 0.301E+01   0.145E-02 -.685E-03 0.877E-03
   -.123E+03 -.780E+02 0.157E+03   0.120E+03 0.801E+02 -.157E+03   0.664E+00 -.276E+01 0.219E+01   -.459E-03 0.472E-03 0.155E-03
   0.164E+03 -.175E+03 0.113E+03   -.162E+03 0.175E+03 -.117E+03   -.872E+00 0.141E+01 0.319E+01   -.258E-03 0.859E-03 0.452E-03
   0.876E+02 0.290E+02 -.740E+02   -.905E+02 -.271E+02 0.749E+02   0.208E+01 -.192E+01 -.868E+00   -.263E-03 0.849E-03 0.456E-03
   0.191E+03 -.716E+02 -.564E+02   -.186E+03 0.716E+02 0.582E+02   -.374E+01 0.266E+00 -.184E+01   0.473E-03 -.194E-03 -.295E-04
   0.223E+03 0.135E+03 0.635E+02   -.225E+03 -.132E+03 -.657E+02   0.190E-02 -.166E+01 0.178E+01   -.152E-02 -.767E-03 -.138E-02
   0.375E+02 -.415E+02 0.290E+01   -.355E+02 0.399E+02 -.703E+00   -.214E+01 0.551E+00 0.121E+00   0.136E-02 0.488E-03 -.268E-03
   -.147E+03 -.737E+02 -.957E+02   0.143E+03 0.708E+02 0.990E+02   0.383E+01 0.269E+01 -.216E+01   -.569E-03 0.576E-03 -.149E-02
   -.120E+02 -.106E+03 0.776E+02   0.196E+02 0.105E+03 -.772E+02   -.685E+01 0.614E+00 0.225E-01   0.938E-03 -.328E-03 0.108E-02
   0.706E+01 0.170E+03 0.159E+03   -.753E+01 -.167E+03 -.156E+03   -.100E+01 -.252E+01 -.288E+01   -.849E-03 -.103E-02 -.185E-02
   -.768E+02 0.228E+03 -.743E+02   0.777E+02 -.223E+03 0.729E+02   0.171E+01 -.694E+01 0.276E+01   0.490E-03 0.564E-03 0.114E-02
   0.391E+02 0.170E+02 -.170E+03   -.393E+02 -.179E+02 0.164E+03   -.723E-01 -.356E+00 0.645E+01   -.166E-03 -.813E-03 0.386E-03
   0.977E+02 -.459E+03 -.741E+02   -.929E+02 0.455E+03 0.657E+02   -.405E+01 0.847E+01 0.648E+01   -.808E-03 0.433E-03 -.983E-03
   0.279E+03 0.204E+02 -.140E+03   -.276E+03 -.197E+02 0.140E+03   -.476E+01 0.109E+00 0.566E+00   -.618E-04 -.805E-03 0.155E-02
   0.543E+02 0.209E+02 0.135E+03   -.520E+02 -.209E+02 -.131E+03   -.349E+01 0.429E-01 -.457E+01   0.227E-03 -.187E-03 -.149E-03
   0.140E+03 -.215E+02 -.242E+03   -.140E+03 0.183E+02 0.241E+03   0.668E+00 0.186E+01 0.342E+01   -.451E-03 0.452E-03 0.101E-02
   -.540E+02 0.186E+03 -.583E+01   0.508E+02 -.187E+03 0.796E+01   0.369E+01 -.157E+01 0.521E+00   0.192E-03 -.173E-03 0.264E-03
   -.188E+03 0.181E+03 -.149E+03   0.185E+03 -.181E+03 0.145E+03   0.438E+01 -.152E+01 0.217E+00   -.359E-03 0.761E-03 -.479E-03
   0.198E+02 0.324E+02 -.152E+00   -.194E+02 -.329E+02 -.331E-01   -.252E+01 0.107E+01 0.307E+00   -.169E-04 0.142E-03 0.105E-03
   0.465E+02 0.173E+02 -.141E+03   -.459E+02 -.147E+02 0.135E+03   -.215E+01 -.212E+01 0.431E+01   0.822E-04 -.286E-03 -.548E-03
   -.425E+02 -.611E+02 0.262E+02   0.426E+02 0.611E+02 -.259E+02   0.551E+00 -.102E+01 -.224E+00   0.740E-03 0.313E-03 -.380E-03
   -.488E+02 0.475E+02 0.116E+03   0.502E+02 -.491E+02 -.114E+03   0.258E+00 0.112E+01 -.213E+01   0.554E-03 -.280E-03 0.403E-03
   -.286E+02 0.611E+01 -.277E+01   0.282E+02 -.907E+01 0.213E+01   -.188E+00 0.183E+01 0.164E+01   0.422E-03 -.513E-03 -.847E-03
   0.495E+02 -.947E+02 0.100E+03   -.452E+02 0.959E+02 -.101E+03   -.371E+01 -.433E+00 -.186E+00   0.851E-03 0.368E-03 -.275E-03
   0.102E+03 0.104E+03 -.151E+03   -.103E+03 -.104E+03 0.149E+03   0.317E+00 -.239E+01 0.627E+01   -.676E-03 -.744E-04 0.192E-03
   -.189E+02 0.136E+03 -.895E+02   0.180E+02 -.136E+03 0.897E+02   0.114E+01 0.219E+00 -.203E-01   -.668E-03 -.486E-03 0.225E-03
   -.122E+03 -.135E+03 -.103E+03   0.121E+03 0.138E+03 0.105E+03   0.356E+01 -.881E+00 -.115E+01   0.779E-03 -.151E-03 0.168E-03
   -.498E+02 -.178E+02 0.169E+02   0.396E+02 0.551E+01 -.109E+02   0.183E+02 0.210E+02 -.809E+01   0.366E-03 -.631E-04 -.621E-04
   0.279E+02 0.497E+02 0.351E+02   -.250E+02 -.585E+02 -.347E+02   -.490E+01 0.888E+01 -.192E+01   0.317E-04 -.253E-03 -.396E-03
   0.356E+02 0.747E+01 0.600E+02   -.395E+02 -.722E+01 -.534E+02   0.515E+01 0.790E+00 -.991E+01   0.299E-03 -.144E-03 0.668E-03
   0.441E+02 0.848E+02 0.292E+01   -.442E+02 -.793E+02 -.298E+01   -.360E+00 -.700E+01 -.145E+01   -.684E-03 -.518E-04 -.159E-03
   -.291E+02 0.101E+03 -.261E+02   0.287E+02 -.977E+02 0.250E+02   0.184E+01 -.113E+02 0.303E+01   0.356E-04 -.704E-04 -.252E-04
   -.268E+02 0.451E+02 0.381E+02   0.243E+02 -.408E+02 -.406E+02   0.236E+01 -.549E+01 -.203E+01   0.173E-03 -.180E-03 -.153E-03
   -.538E+02 -.364E+02 0.429E+02   0.554E+02 0.395E+02 -.422E+02   0.843E+00 -.117E+01 -.434E+01   0.584E-03 0.365E-03 0.339E-03
   -.346E+01 -.486E+02 0.339E+02   0.425E+01 0.502E+02 -.278E+02   -.616E-01 -.161E+01 -.338E+01   -.103E-03 0.137E-03 0.367E-03
   0.924E+02 -.504E+01 0.514E+02   -.829E+02 0.467E+01 -.443E+02   -.791E+01 -.104E+01 -.298E+01   -.888E-04 -.241E-03 -.387E-03
   -.269E+02 -.139E+02 -.863E+02   0.304E+02 0.133E+02 0.828E+02   -.567E+01 -.111E+01 0.359E+01   -.217E-03 -.204E-03 -.223E-03
   -.701E+02 0.491E+02 -.499E+01   0.722E+02 -.450E+02 0.142E+01   -.473E+01 -.692E+01 0.106E+02   0.577E-03 -.239E-03 0.150E-03
   -.103E+03 -.324E+02 -.768E+02   0.960E+02 0.314E+02 0.766E+02   0.125E+02 0.268E+01 -.246E+01   0.434E-04 0.151E-03 -.250E-04
   0.635E+02 0.178E+01 -.543E+02   -.586E+02 -.893E+01 0.480E+02   -.339E+01 0.616E+01 0.796E+01   -.375E-03 -.628E-04 -.345E-03
   -.103E+02 0.301E+01 0.115E+02   0.303E+01 -.153E+02 -.113E+02   0.807E+01 0.163E+02 -.154E+01   -.289E-03 0.184E-03 -.380E-03
   0.219E+02 -.521E+02 -.118E+03   -.210E+02 0.568E+02 0.114E+03   -.324E+01 -.719E+00 0.566E+01   -.252E-03 0.303E-03 -.285E-03
   -.459E+02 -.204E+02 -.125E+02   0.439E+02 0.232E+02 0.204E+02   0.602E+01 -.382E+00 -.103E+02   0.198E-03 0.546E-04 -.238E-03
   -.727E+02 -.332E+01 0.593E+02   0.780E+02 0.877E+01 -.652E+02   -.641E+01 -.766E+01 0.689E+01   -.205E-03 -.307E-04 0.347E-04
   -.103E+03 -.148E+02 0.710E+02   0.981E+02 0.135E+02 -.652E+02   0.345E+01 -.120E+01 -.597E+01   0.667E-03 -.261E-03 -.238E-03
   -.386E+02 0.723E+02 -.873E+02   0.338E+02 -.695E+02 0.840E+02   0.919E+01 -.221E+01 0.212E+01   0.871E-04 -.391E-03 0.237E-03
   -.638E+02 -.228E+02 -.212E+02   0.604E+02 0.276E+02 0.272E+02   0.565E+01 -.882E+00 -.910E+01   0.812E-05 -.234E-03 0.342E-03
   0.122E+02 -.545E+01 0.239E+02   -.131E+02 -.213E+01 -.217E+02   0.384E+00 0.766E+01 -.222E+01   -.505E-03 0.134E-03 -.316E-03
   0.278E+02 -.109E+03 0.125E+02   -.253E+02 0.992E+02 -.590E+01   -.469E+01 0.179E+02 -.108E+02   -.585E-03 0.357E-03 -.415E-03
   0.529E+01 0.837E+02 0.739E+02   -.841E+01 -.829E+02 -.709E+02   0.116E+02 0.103E+01 -.240E+01   -.583E-03 0.142E-03 -.373E-03
   -.633E+02 -.255E+01 -.252E+02   0.543E+02 -.890E+00 0.245E+02   0.723E+01 0.105E+01 -.117E+01   0.253E-03 0.304E-04 0.894E-04
   0.765E+02 -.300E+02 0.220E+02   -.742E+02 0.320E+02 -.225E+02   -.317E+01 0.860E-01 0.277E+01   -.528E-04 0.352E-03 -.171E-03
   0.678E+02 0.197E+01 0.983E+01   -.655E+02 -.355E+01 -.168E+02   -.900E+00 0.291E+01 0.108E+02   0.138E-03 0.150E-03 0.699E-03
   0.883E+02 -.173E+02 0.345E+02   -.756E+02 0.153E+02 -.319E+02   -.127E+02 0.282E+01 -.234E+01   -.519E-04 -.148E-03 0.271E-03
   0.580E+02 0.333E+02 -.324E+02   -.464E+02 -.394E+02 0.338E+02   -.162E+02 0.964E+01 -.506E+01   0.738E-04 -.750E-04 0.410E-03
   0.611E+02 -.689E+02 -.225E+03   -.856E+02 0.672E+02 0.244E+03   0.267E+02 0.118E+01 -.189E+02   -.405E-03 -.201E-04 -.271E-03
   -.667E+00 -.161E+00 -.324E+02   0.176E+02 0.354E+01 0.479E+02   -.185E+02 -.235E+01 -.164E+02   -.173E-03 0.371E-03 0.432E-03
   0.712E+02 -.163E+03 -.298E+02   -.876E+02 0.180E+03 0.397E+02   0.155E+02 -.194E+02 -.109E+02   -.643E-03 0.515E-03 -.765E-03
   0.757E+02 0.384E+02 -.426E+02   -.903E+02 -.353E+02 0.488E+02   0.168E+02 -.446E+01 -.727E+01   0.764E-04 0.414E-05 0.314E-03
   -.135E+02 0.738E+02 0.907E+02   -.161E+02 -.810E+02 -.108E+03   0.282E+02 0.689E+01 0.163E+02   -.575E-03 0.113E-03 -.917E-03
[...]
   0.114E+02 0.917E+00 0.556E+02   -.125E+02 0.910E+01 -.776E+02   0.164E+01 -.126E+02 0.230E+02   -.468E-03 -.560E-03 -.471E-03
   0.613E+02 -.622E+02 -.438E+02   -.868E+02 0.665E+02 0.506E+02   0.262E+02 -.317E+01 -.469E+01   0.852E-04 -.176E-03 -.141E-03
   -.427E+02 0.155E+02 0.239E+02   0.394E+02 -.119E+02 -.224E+02   0.330E+01 -.347E+01 -.195E+01   0.906E-03 0.938E-04 0.548E-03
   0.329E+02 0.828E+02 -.157E+03   -.226E+02 -.103E+03 0.178E+03   -.921E+01 0.177E+02 -.182E+02   -.216E-03 0.224E-03 0.142E-03
   -.299E+01 0.405E+02 0.140E+03   -.986E+01 -.529E+02 -.155E+03   0.152E+02 0.162E+02 0.134E+02   -.107E-03 0.416E-03 -.379E-03
   -.615E+02 -.184E+02 -.112E+02   0.801E+02 0.211E+02 0.152E+02   -.221E+02 -.188E+01 -.483E+01   0.274E-03 0.393E-03 -.624E-04
   0.103E+03 0.112E+03 0.106E+03   -.993E+02 -.120E+03 -.138E+03   -.615E+01 0.516E+01 0.280E+02   -.808E-03 -.381E-03 -.114E-02
   -.217E+02 -.185E+03 0.168E+02   0.414E+02 0.182E+03 -.286E+01   -.211E+02 0.386E+01 -.164E+02   -.135E-03 0.193E-03 -.109E-03
   -.270E+02 -.115E+03 0.655E+02   0.516E+02 0.115E+03 -.760E+02   -.266E+02 -.183E+01 0.124E+02   0.259E-04 0.684E-03 0.209E-03
   0.534E+02 -.592E+02 -.121E+02   -.483E+02 0.747E+02 0.468E+01   -.854E+01 -.173E+02 0.793E+01   0.112E-03 -.236E-03 0.514E-03
   -.279E+02 0.651E+02 -.140E+03   0.459E+02 -.892E+02 0.165E+03   -.170E+02 0.189E+02 -.177E+02   -.478E-03 -.911E-04 -.113E-03
   -.195E+03 0.168E+03 -.141E+03   0.216E+03 -.175E+03 0.143E+03   -.229E+02 0.893E+01 0.743E+00   0.136E-03 0.449E-03 0.266E-03
   -.224E+03 -.647E+02 0.392E+02   0.239E+03 0.664E+02 -.268E+02   -.128E+02 -.219E+01 -.133E+02   0.104E-02 0.315E-03 0.460E-04
   -.646E+01 -.311E+02 0.106E+03   -.730E+01 0.316E+02 -.102E+03   0.189E+02 -.226E+01 -.657E+01   0.749E-03 0.320E-03 -.202E-03
   0.147E+02 -.232E+02 -.400E+02   -.314E-12 -.483E-12 0.512E-12   -.147E+02 0.232E+02 0.400E+02   -.627E-03 -.223E-02 -.441E-02

 POSITION                                       TOTAL-FORCE (eV/Angst)
      8.12136      0.48289      0.95115         0.282967     -1.818389     -0.280907
      4.04333      9.39400      0.18644        -2.130900     -0.656588      1.753513
     11.37999      9.33338      2.50478         0.725007      0.716864     -0.895345
     12.25521      9.90093     10.04981        -0.801499      0.028432     -0.008877
      0.77852      6.57403      9.04676         0.793804      0.307934     -0.032344
      0.43902      4.86284      4.62659        -2.334189      1.187592     -0.449836
      6.71974     11.16855      6.78357        -0.184416     -1.027451      2.320701
     10.04345      7.89902      7.57970         0.170927     -0.190006      1.062442
      8.02014      6.11104      2.15862         0.808089      0.132732      0.397903
     10.32064      4.32452      7.04550        -1.472004      0.565395      0.442577
      2.73835     11.68343      9.70808         2.599479     -1.212458      1.389390
     12.37063      2.44922      9.85900        -0.267132     -1.257509      1.215592
      1.81912     10.06658      3.29704         0.818523      4.083991     -1.940910
     12.68799      3.43809      0.26851        -2.077019      0.795807      0.603301
      3.27250      5.56913      5.90706        -1.196214      0.027472     -0.640537
     11.97157      0.07944      0.89531         0.593263     -1.284856      2.317189
      4.66386      1.69585      3.46233         0.478098     -2.162436      2.648146
      7.73563     10.93058     10.35385         1.014401     -1.224193     -3.135076
      5.06548      4.94377      2.26552        -2.209226      0.527785      0.122153
      6.74741      3.54063     12.18637        -1.527837      0.471358     -1.243974
      3.51704     11.92619      5.91343         0.582315     -1.029597      0.011021
      3.43047      2.69018      9.21874         1.687772     -0.457741     -0.169275
      7.55297      1.78664      8.38603        -0.605136     -1.132958      1.002506
      6.57475      7.46269      5.87542         0.595923      0.723560     -0.898751
      1.54192      6.30496      1.48415        -0.839589     -2.647549      4.257428
      2.60667      1.61260     12.39450         0.192549     -0.715691      0.235505
      4.17817      6.66648      8.92759         2.088555      1.648371      0.802825
      5.98672      4.43456      7.10958         8.118432      8.692562     -2.127869
     10.15357      6.49114      4.64504        -2.014399      0.039622     -1.516994
     11.00433      6.48745      0.91222         1.306819      1.037128     -3.404922
      1.88262      2.66993      2.51315        -0.469707     -1.431581     -1.508502
      5.76916     11.92470     12.49533         1.448973     -8.477005      1.989846
      5.61246      0.67556     10.57759        -0.138334     -1.129655     -4.533471
      8.92938     12.01835      3.63320         2.438182      1.942491     -3.627369
      0.99336     11.08496      0.20058         0.734329     -0.046259      2.645047
      0.67434      3.59282      7.49690         1.537311     -1.407023      4.094270
      8.11387      5.81410      9.39293        -2.199322     -1.698698      0.020329
      6.57476      3.65758      4.23657        -2.703766     -2.827410      7.017113
      4.59013      8.31267      2.85623         5.351988      1.615849     -2.659033
      0.82671      8.30359      4.92719         1.487574     -0.985412      1.655961
     10.31683     12.73519      9.13442         0.848531      3.979303     -1.370172
      7.61376      8.24680      8.95808        -2.322716      3.983013      2.131059
      2.92868      9.21724      6.86753         3.949935      2.363542     -2.449569
      4.58972      6.66418     12.83064        -1.099477     -2.213123      1.019954
      8.00115      1.30172      5.61336        -1.133372     -2.503341     -0.165665
      9.69867      1.79704     11.42048         4.380379      0.553326     -1.129928
      9.36410      4.62642     12.05607         2.216815      3.886784     -3.055996
      0.22035      0.02985      7.78467        -0.542778      0.082603      0.020790
     12.12632     10.01355      6.64543        -2.235154      8.253520     -4.180397
      1.42270      1.51533      5.43747         8.530209      1.869488      0.577721
      5.81239     11.38985      2.70406        -1.726594     -2.399096     -1.869295
      9.49112      9.48146      4.90311        -0.849514      2.081558      2.270196
      0.32901      8.17777     12.42661         1.387886      1.335458      3.835118
      2.61057      4.71373     11.47681        -0.022291      0.875290      0.197448
     11.22016      1.10448     12.31374        -4.574520      3.545518     -3.724774
      6.85239      6.97273      9.83918         2.255532     -0.514314     -0.047074
      1.43045     12.79173      8.80624        -1.589645      1.033972     -0.953532
     10.46555     10.17704      6.32320        -0.856493     -2.391667     -1.044921
      4.71840      4.06730      4.36974         2.262995     -1.308289     -1.017964
      8.96298     12.46078      8.44363        -1.325400     -0.261563     -0.843560
[...]
     12.64886     10.93912      1.30673         0.453091      0.515316      0.168824
      9.82753      1.63187      9.74681         0.543372     -2.591077      1.060491
      4.44053     11.79670      3.46088         0.676808      1.059634      2.086202
      7.35032     11.85293      3.18559        -0.033410      0.117850     -0.362355
     10.92633     11.64616     10.02193         1.107154     -2.221249      2.123326
      4.66968     10.79659     11.88871         2.349711      3.782804     -1.060767
      3.18920      1.08875      5.60151        -3.511066      0.864122     -0.784132
      0.96325      8.26906      3.39572        -2.783918     -2.479286     -4.060113
      2.31817     10.71615      1.16704        -1.402996      1.026893     -2.488415
      9.97879     10.75694      3.80413        -2.023760     -2.228195      1.845662
      2.85847      5.90587     10.29779        -3.482037     -1.890082      0.521268
     12.59470      9.12721      7.70215         0.987253     -5.153547      6.999617
      7.43524     11.49348     12.26340        -2.446435      1.718119      3.071927
      8.91374      0.16321      4.83099         1.833709     -0.515871     -0.882058
      7.70785      9.70050      5.60622         5.093092     -1.795068     -2.818326
    total drift:                                0.014586     -0.009361     -0.042145

  FREE ENERGIE OF THE ION-ELECTRON SYSTEM (eV)
  free  energy   TOTEN  =      -942.24782300 eV

  energy  without entropy=     -942.24782300  energy(sigma->0) =     -942.24782300