 vasp.5.4.4.18Apr17-6-g9f103f2a35 (build Oct 31 2019 15:01:46) complex

 executed on             LinuxIFC date 2024.04.29  02:06:58

 INCAR:
 POTCAR:    PAW_PBE Ca_sv 06Sep2000
 POTCAR:    PAW_PBE Si 05Jan2001
 POTCAR:    PAW_PBE O 08Apr2002
 POTCAR:    PAW_PBE Ca_sv 06Sep2000
   VRHFIN =Ca: 3s3p4s

   TITEL  = PAW_PBE Ca_sv 06Sep2000
   POMASS =   40.078; ZVAL   =   10.000    mass and valenz
   ENMAX  =  266.622; ENMIN  =  199.967 eV

   TITEL  = PAW_PBE Si 05Jan2001
   POMASS =   28.085; ZVAL   =    4.000    mass and valenz
   ENMAX  =  245.345; ENMIN  =  184.009 eV

   TITEL  = PAW_PBE O 08Apr2002
   POMASS =   16.000; ZVAL   =    6.000    mass and valenz
   ENMAX  =  400.000; ENMIN  =  300.000 eV

 Optimization of the real space projectors (new method)

 maximal supplied QI-value         = 16.25
 optimisation between [QCUT,QGAM] = [ 12.51, 25.03] = [ 43.85,175.40] Ry
 Optimized for a Real-space Cutoff    1.47 Angstroem

   l    n(q)    QCUT    max X(q) W(low)/X(q) W(high)/X(q)  e(spline)
   0     11    12.514    11.817    0.25E-04    0.32E-05    0.87E-07
   0     11    12.514     8.461    0.39E-04    0.59E-05    0.18E-06
   1     11    12.514     3.957    0.97E-05    0.57E-05    0.28E-07
   1     11    12.514     4.314    0.42E-04    0.14E-04    0.23E-06
   2     10    12.514    14.565    0.79E-04    0.50E-03    0.16E-05
   2     10    12.514    14.552    0.75E-04    0.48E-03    0.15E-05
 Optimization of the real space projectors (new method)

[...]

   l    n(q)    QCUT    max X(q) W(low)/X(q) W(high)/X(q)  e(spline)
   0      9    12.501   159.560    0.10E-03    0.83E-04    0.71E-07
   0      9    12.501   115.863    0.99E-04    0.81E-04    0.70E-07
   1      8    12.501    88.339    0.20E-03    0.25E-03    0.76E-07
   1      8    12.501    48.592    0.20E-03    0.24E-03    0.75E-07
 Optimization of the real space projectors (new method)

 maximal supplied QI-value         = 24.76
 optimisation between [QCUT,QGAM] = [ 12.38, 25.00] = [ 42.90,175.06] Ry
 Optimized for a Real-space Cutoff    1.16 Angstroem

   l    n(q)    QCUT    max X(q) W(low)/X(q) W(high)/X(q)  e(spline)
   0      9    12.378    20.381    0.16E-03    0.67E-05    0.31E-06
   0      9    12.378    15.268    0.17E-03    0.81E-05    0.33E-06
   1      8    12.378     5.964    0.20E-03    0.16E-03    0.30E-06
   1      8    12.378     5.382    0.18E-03    0.14E-03    0.26E-06
  PAW_PBE Ca_sv 06Sep2000               :
  PAW_PBE Si 05Jan2001                  :
  PAW_PBE O 08Apr2002                   :

 POSCAR: Ca Si  O
  positions in direct lattice
 exchange correlation table for  LEXCH =        8
   RHO(1)=    0.500       N(1)  =     2000
   RHO(2)=  100.500       N(2)  =     4000

 ion  position               nearest neighbor table
   1  0.254  0.700  0.912- 105 2.21 116 2.27  65 2.27  50 2.74  35 3.16
   2  0.541  0.466  0.071-  74 2.25 122 2.33 115 2.43  68 2.53
   3  0.343  0.434  0.867- 112 2.19  94 2.32 102 2.35 116 2.44  35 2.91
   4  0.679  0.088  0.658- 124 2.10  84 2.19  85 2.19  32 3.07  39 3.13
   5  0.330  0.032  0.381-  73 2.23 131 2.39
   6  0.914  0.120  0.972-  81 2.05 101 2.17 127 2.18
   7  0.772  0.645  0.454- 109 1.78  83 2.30 111 2.42  48 2.66  11 3.17
   8  0.405  0.709  0.260-  72 2.04 104 2.21  82 2.49  92 2.57
   9  0.553  0.117  0.209-  70 2.13 121 2.25  37 2.75  40 3.00
  10  0.493  0.993  0.994-  86 2.11 128 2.35 120 2.40
  11  0.810  0.424  0.395- 109 2.26  93 2.28 130 2.57  28 2.93   7 3.17
  12  0.082  0.075  0.435-  58 1.95 114 2.07  79 2.16  24 2.59
  13  0.417  0.497  0.420- 119 2.05 104 2.48  23 2.91
  14  0.011  0.665  0.266-  89 2.14  75 2.28  91 2.29
  15  0.140  0.073  0.113- 127 2.14  95 2.22  66 2.44  42 2.92  29 3.02
  16  0.183  0.197  0.788- 125 2.22 135 2.23 102 2.40  66 2.40  29 2.93
  17  0.769  0.342  0.008-  64 2.30  68 2.30  74 2.34 118 2.51
  18  0.115  0.468  0.015- 116 2.27  97 2.35  38 3.05
  19  0.236  0.957  0.848-  80 2.14  47 2.60
  20  0.089  0.849  0.622- 133 2.04  80 2.27  47 2.88
  21  0.785  0.538  0.875- 126 2.38  46 2.67
  22  0.598  0.711  0.084- 129 1.89 122 2.20 107 2.37  51 2.88  50 2.96
  23  0.393  0.578  0.616-  67 2.13 119 2.21 123 2.34  94 2.47  13 2.91
  24  0.896  0.080  0.400-  79 2.05  58 2.35  12 2.59  28 2.60  34 3.06
  25  0.048  0.279  0.554-  77 2.19 132 2.23 134 2.31 114 2.49  30 2.85  28 2.99
  26  0.042  0.280  0.182-  97 2.05 127 2.14 100 2.18  90 2.50  28 2.82
  27  0.805  0.932  0.831-  85 2.28  84 2.30  43 3.08
  28  0.944  0.260  0.363-  77 1.64 134 1.66  79 1.69 117 1.71  24 2.60  26 2.82  11 2.93  25 2.99

  29  0.222  0.241  0.995- 100 1.53 102 1.60  66 1.60  63 2.28  16 2.93  40 2.94  15 3.02
  30  0.186  0.302  0.400-  60 1.44  90 1.59 114 1.70  77 1.85  33 2.84  25 2.85
  31  0.001  0.407  0.790-  61 1.56  99 1.61 125 1.68  35 2.95
  32  0.683  0.869  0.610-  98 1.56  78 1.61  84 1.74  87 1.78  44 3.05   4 3.07
  33  0.324  0.276  0.247- 131 1.56  96 1.63  63 1.66  90 1.87 121 2.38  49 2.72  40 2.82  30 2.84

  34  0.920  0.063  0.622- 132 1.60 124 1.69  69 1.78  58 1.95  47 3.01  24 3.06
  35  0.177  0.530  0.775-  94 1.56  61 1.68 116 1.69  65 2.18   3 2.91  31 2.95   1 3.16
  36  0.599  0.977  0.424-  55 1.72  73 1.75  98 1.76  57 2.33  41 2.97
  37  0.615  0.307  0.230-  70 1.45  74 1.65 130 1.79 121 2.10   9 2.75
  38  0.922  0.484  0.124- 113 1.34  97 1.63 118 1.68  91 2.14  46 2.51  18 3.05
  39  0.666  0.167  0.872-  64 1.60  85 1.77 128 1.83  56 1.94  45 2.94   4 3.13
  40  0.422  0.227  0.072- 115 1.55 121 1.65  63 1.72  86 1.74  33 2.82  29 2.94   9 3.00
  41  0.744  0.889  0.288-  83 1.76  57 1.90  55 1.90  62 1.90 108 2.32  48 2.77  36 2.97
  42  0.122  0.886  0.214-  89 1.50 106 1.56  95 1.81  15 2.92
  43  0.817  0.874  0.048- 101 1.63  62 1.65 103 1.71  76 1.90  27 3.08
  44  0.604  0.679  0.697- 110 1.50  78 1.57  67 1.64 111 1.95  51 2.80  32 3.05
  45  0.608  0.371  0.832-  68 1.52  88 1.69 112 1.74  56 1.80  39 2.94
  46  0.905  0.621  0.004- 126 1.50  91 1.80  76 1.87 118 2.24  38 2.51  21 2.67
  47  0.065  0.993  0.773-  69 1.61  81 1.83  80 1.83 135 1.84  19 2.60  20 2.88  34 3.01
  48  0.880  0.800  0.409-  75 1.50 108 1.58  83 1.79  87 2.46   7 2.66  41 2.77
  49  0.257  0.463  0.241-  82 1.45  59 1.54  96 1.64  33 2.72
  50  0.397  0.773  0.032- 120 1.59 105 1.67  72 1.91 107 1.93   1 2.74  22 2.96
  51  0.568  0.629  0.892-  71 1.52 129 1.62 107 1.70 110 1.82  67 2.54  44 2.80  22 2.88
  52  0.629  0.451  0.603-  93 1.58  88 1.73 111 2.27 119 2.54
  53  0.624  0.567  0.279- 104 1.60 122 1.68 109 1.82 130 2.12
  54  0.245  0.716  0.466- 133 1.57 123 1.61  92 1.65
  55  0.618  0.880  0.346-  36 1.72  41 1.90
  56  0.711  0.289  0.816-  45 1.80  39 1.94
  57  0.731  0.022  0.326-  41 1.90  36 2.33
  58  0.993  1.000  0.517-  34 1.95  12 1.95  24 2.35
  59  0.152  0.488  0.208-  49 1.54
  60  0.212  0.393  0.447-  30 1.44
  61  0.061  0.497  0.752-  31 1.56  35 1.68
  62  0.806  0.858  0.167-  43 1.65  41 1.90
  63  0.313  0.233  0.134-  33 1.66  40 1.72  29 2.28
  64  0.693  0.194  0.983-  39 1.60  17 2.30
  65  0.147  0.687  0.786-  35 2.18   1 2.27
  66  0.186  0.137  0.953-  29 1.60  16 2.40  15 2.44
  67  0.499  0.625  0.720-  44 1.64  23 2.13  51 2.54
  68  0.645  0.419  0.925-  45 1.52  17 2.30   2 2.53
  69  0.966  0.978  0.710-  47 1.61  34 1.78
  70  0.620  0.226  0.298-  37 1.45   9 2.13
  71  0.511  0.535  0.874-  51 1.52
  72  0.452  0.805  0.157-  50 1.91   8 2.04
  73  0.492  0.043  0.399-  36 1.75   5 2.23
  74  0.656  0.367  0.134-  37 1.65   2 2.25  17 2.34
  75  0.954  0.719  0.413-  48 1.50  14 2.28
  76  0.877  0.749  0.044-  46 1.87  43 1.90
  77  0.051  0.305  0.397-  28 1.64  30 1.85  25 2.19
  78  0.621  0.770  0.629-  44 1.57  32 1.61
  79  0.001  0.156  0.326-  28 1.69  24 2.05  12 2.16
  80  0.122  0.872  0.783-  47 1.83  19 2.14  20 2.27
  81  0.999  0.037  0.880-  47 1.83   6 2.05
  82  0.308  0.555  0.252-  49 1.45   8 2.49
  83  0.760  0.782  0.358-  41 1.76  48 1.79   7 2.30
  84  0.683  0.939  0.716-  32 1.74   4 2.19  27 2.30
  85  0.739  0.083  0.806-  39 1.77   4 2.19  27 2.28
  86  0.398  0.107  0.036-  40 1.74  10 2.11
  87  0.798  0.826  0.567-  32 1.78  48 2.46
  88  0.640  0.427  0.727-  45 1.69  52 1.73
  89  0.097  0.780  0.202-  42 1.50  14 2.14
  90  0.193  0.280  0.285-  30 1.59  33 1.87  26 2.50
  91  0.990  0.624  0.105-  46 1.80  38 2.14  14 2.29
  92  0.243  0.742  0.348-  54 1.65   8 2.57
  93  0.719  0.434  0.534-  52 1.58  11 2.28
[...]
 121  0.481  0.260  0.172-  40 1.65  37 2.10   9 2.25  33 2.38
 122  0.640  0.574  0.158-  53 1.68  22 2.20   2 2.33
 123  0.278  0.606  0.493-  54 1.61  23 2.34
 124  0.805  0.063  0.575-  34 1.69   4 2.10
 125  0.066  0.307  0.761-  31 1.68  16 2.22
 126  0.947  0.546  0.937-  46 1.50  21 2.38
 127  0.030  0.174  0.067-  15 2.14  26 2.14   6 2.18
 128  0.552  0.098  0.871-  39 1.83  10 2.35
 129  0.636  0.618  0.989-  51 1.62  22 1.89
 130  0.652  0.415  0.295-  37 1.79  53 2.12  11 2.57
 131  0.364  0.176  0.287-  33 1.56   5 2.39
 132  0.961  0.171  0.641-  34 1.60  25 2.23
 133  0.192  0.764  0.556-  54 1.57  20 2.04
 134  0.899  0.263  0.476-  28 1.66  25 2.31
 135  0.150  0.065  0.698-  47 1.84  16 2.23

IMPORTANT INFORMATION: All symmetrisations will be switched off!
NOSYMM: (Re-)initialisation of all symmetry stuff for point group C_1.

Automatic generation of k-mesh.
 generate k-points for:    2    2    2
Space group operators:
 irot       det(A)        alpha          n_x          n_y          n_z        tau_x        tau_y        tau_z
    1     1.000000     0.000000     1.000000     0.000000     0.000000     0.000000     0.000000     0.000000

 Subroutine IBZKPT returns following result:

 Found      8 irreducible k-points:

 Following reciprocal coordinates:
            Coordinates               Weight
  0.000000  0.000000  0.000000      1.000000
  0.500000  0.000000  0.000000      1.000000
  0.000000  0.500000  0.000000      1.000000
  0.500000  0.500000  0.000000      1.000000
  0.000000  0.000000  0.500000      1.000000
  0.500000  0.000000  0.500000      1.000000
  0.000000  0.500000  0.500000      1.000000
  0.500000  0.500000  0.500000      1.000000

 Following cartesian coordinates:
            Coordinates               Weight
  0.000000  0.000000  0.000000      1.000000
  0.036574  0.000000  0.000000      1.000000
  0.000000  0.036574  0.000000      1.000000
  0.036574  0.036574  0.000000      1.000000
  0.000000  0.000000  0.036574      1.000000
  0.036574  0.000000  0.036574      1.000000
  0.000000  0.036574  0.036574      1.000000
  0.036574  0.036574  0.036574      1.000000

 SYSTEM =  unknown system
 POSCAR =  Ca Si  O

 Startparameter for this run:
   NWRITE =      2    write-flag & timer
   PREC   = a         normal or accurate (medium, high low for compatibility)
   ISTART =      0    job   : 0-new  1-cont  2-samecut
   ICHARG =      2    charge: 1-file 2-atom 10-const
   ISPIN  =      1    spin polarized calculation?
   LNONCOLLINEAR =      F non collinear calculations
   LSORBIT =      F    spin-orbit coupling
   INIWAV =      1    electr: 0-lowe 1-rand  2-diag
   LASPH  =      F    aspherical Exc in radial PAW
   METAGGA=      F    non-selfconsistent MetaGGA calc.

[...]
     0.000000000  0.000000000 13.670863650     0.000000000  0.000000000  0.073148268

  length of vectors
    13.670863650 13.670863650 13.670863650     0.073148268  0.073148268  0.073148268

 FORCES acting on ions
    electron-ion (+dipol)            ewald-force                    non-local-force                 convergence-correction
   0.355E+02 -.238E+03 0.154E+03   -.408E+02 0.234E+03 -.156E+03   0.372E+01 0.383E+01 -.156E+00   -.629E-03 0.537E-03 0.109E-02
   0.246E+03 -.668E+02 -.696E+02   -.240E+03 0.621E+02 0.659E+02   -.566E+01 0.371E+01 0.185E+01   0.552E-03 -.109E-02 -.170E-02
   0.387E+02 -.819E+00 0.218E+03   -.325E+02 -.360E+01 -.220E+03   -.342E+01 0.330E+01 0.151E+01   0.404E-02 -.248E-02 -.763E-03
   0.460E+03 -.273E+03 0.181E+03   -.453E+03 0.267E+03 -.175E+03   -.788E+01 0.616E+01 -.440E+01   -.259E-02 -.476E-03 0.132E-02
   -.805E+02 0.260E+03 -.356E+03   0.851E+02 -.253E+03 0.351E+03   -.418E+01 -.497E+01 0.392E+01   -.538E-03 0.308E-02 0.202E-02
   0.194E+03 -.360E+02 0.423E+02   -.187E+03 0.309E+02 -.391E+02   -.680E+01 0.580E+01 -.236E+01   -.283E-02 -.264E-02 -.325E-02
   -.135E+03 -.462E+02 -.322E+03   0.130E+03 0.488E+02 0.326E+03   0.609E+01 0.136E+01 0.243E+01   0.231E-03 0.847E-03 -.131E-02
   0.761E+02 -.257E+03 -.259E+03   -.792E+02 0.254E+03 0.257E+03   0.301E+00 0.144E+01 0.341E+01   -.146E-02 -.222E-02 -.824E-03
   -.970E+02 0.400E+03 -.529E+02   0.961E+02 -.392E+03 0.595E+02   0.500E+00 -.833E+01 -.495E+01   0.316E-03 0.203E-02 -.573E-03
   -.732E+02 0.148E+03 0.906E+02   0.706E+02 -.143E+03 -.974E+02   0.358E+01 -.494E+01 0.449E+01   0.427E-03 0.165E-02 -.400E-02
   -.102E+03 0.105E+02 -.249E+03   0.945E+02 -.142E+02 0.247E+03   0.629E+01 0.176E+01 0.109E+01   -.174E-05 0.353E-04 -.183E-02
   -.389E+03 0.350E+03 -.100E+03   0.391E+03 -.346E+03 0.999E+02   0.195E+01 -.427E+01 -.149E+01   -.558E-03 0.667E-03 0.704E-03
   -.401E+02 0.523E+02 -.139E+03   0.391E+02 -.539E+02 0.140E+03   -.102E+00 0.118E+01 -.296E+01   -.323E-03 -.224E-02 0.679E-03
   -.843E+02 -.248E+02 -.261E+03   0.864E+02 0.252E+02 0.255E+03   -.159E+01 -.186E+01 0.442E+01   0.101E-02 0.300E-02 -.388E-02
   -.111E+03 0.347E+03 -.439E+01   0.106E+03 -.346E+03 0.777E+00   0.475E+01 -.123E+01 0.190E+01   0.140E-02 -.523E-02 0.740E-03
   -.287E+03 0.309E+02 0.330E+03   0.283E+03 -.301E+02 -.327E+03   0.368E+01 0.376E-01 -.243E+01   0.311E-02 -.138E-02 -.162E-02
   -.176E+03 0.208E+03 0.216E+02   0.167E+03 -.208E+03 -.210E+02   0.751E+01 -.114E+00 -.236E+00   -.130E-02 0.139E-02 -.100E-03
   -.112E+03 -.173E+03 0.151E+03   0.110E+03 0.172E+03 -.146E+03   0.151E+01 0.618E+00 -.213E+01   -.852E-03 0.221E-02 0.999E-03
   -.344E+03 0.746E+02 0.118E+03   0.341E+03 -.760E+02 -.119E+03   0.500E+01 0.160E+01 0.189E+01   0.488E-03 0.119E-02 -.139E-02
   -.531E+02 0.188E+03 0.822E+02   0.561E+02 -.190E+03 -.798E+02   -.438E+01 0.228E+01 -.162E+01   -.815E-03 0.205E-02 0.108E-02
   -.174E+03 -.200E+03 0.427E+03   0.170E+03 0.197E+03 -.424E+03   0.116E+01 0.186E+01 -.343E+01   -.387E-03 0.145E-02 0.329E-02
   -.210E+02 -.420E+03 -.186E+03   0.241E+02 0.418E+03 0.184E+03   -.205E+01 0.576E+01 0.469E+01   0.260E-02 -.153E-02 -.146E-02
   0.980E+02 -.199E+03 0.390E+02   -.978E+02 0.194E+03 -.343E+02   -.156E+01 0.376E+01 -.285E+01   0.118E-02 -.201E-02 0.962E-03
   0.339E+03 0.147E+03 0.393E+02   -.344E+03 -.149E+03 -.394E+02   -.208E+00 -.486E-01 0.623E+00   -.305E-03 -.986E-03 0.486E-03
   -.139E+03 -.319E+03 -.334E+03   0.134E+03 0.315E+03 0.333E+03   0.444E+01 0.413E+01 0.281E+01   0.119E-02 -.188E-02 -.529E-03
   0.116E+03 0.538E+02 -.146E+03   -.117E+03 -.540E+02 0.139E+03   0.715E+00 -.140E+00 0.799E+01   -.656E-03 0.347E-02 0.377E-02
   -.384E+02 0.267E+03 0.165E+02   0.320E+02 -.262E+03 -.165E+02   0.537E+01 -.454E+01 0.371E+00   -.537E-03 0.222E-03 -.452E-03
   0.110E+03 -.763E+02 -.132E+02   -.112E+03 0.744E+02 0.151E+02   0.401E+00 0.213E+01 -.325E+01   -.115E-03 0.105E-03 0.794E-04
   -.652E+02 0.154E+02 0.741E+02   0.575E+02 -.149E+02 -.781E+02   0.923E+01 -.146E+01 0.342E+01   0.151E-02 0.126E-03 -.108E-02
   -.125E+03 -.946E+01 -.133E+03   0.127E+03 0.189E+02 0.136E+03   -.720E+01 -.172E+02 -.526E+01   0.477E-03 -.787E-04 0.326E-03
   0.530E+02 -.692E+02 0.119E+03   -.523E+02 0.590E+02 -.117E+03   -.146E+01 0.312E+01 -.138E+01   -.347E-04 -.190E-03 0.659E-03
   0.244E+02 0.165E+02 -.105E+02   -.264E+02 -.161E+02 0.138E+02   0.698E+01 -.165E+01 0.304E+00   -.253E-03 0.702E-03 0.704E-03
   -.428E+02 -.772E+01 -.147E+03   0.449E+02 -.182E+01 0.145E+03   -.416E+01 0.640E+01 0.103E-01   0.191E-03 0.542E-03 0.521E-03
   0.366E+02 0.481E+02 -.469E+02   -.369E+02 -.362E+02 0.439E+02   0.749E+00 -.124E+02 0.821E+00   -.239E-03 -.327E-03 0.231E-03
   0.758E+02 -.624E+02 0.157E+03   -.652E+02 0.646E+02 -.156E+03   -.121E+02 0.494E+01 0.419E+00   0.640E-03 -.316E-03 0.476E-03
   0.798E+02 -.664E+02 -.721E+02   -.840E+02 0.617E+02 0.671E+02   0.349E+01 0.347E+01 0.298E+01   0.556E-03 0.316E-03 0.131E-02
   0.112E+02 0.361E+02 -.777E+02   -.334E+01 -.387E+02 0.834E+02   -.696E+01 0.132E+02 -.102E+02   -.133E-04 0.429E-03 -.308E-03
   0.697E+02 -.513E+02 0.516E+02   -.626E+02 0.468E+02 -.322E+02   -.112E+02 0.336E+01 -.332E+02   -.382E-03 0.117E-02 -.104E-03
   0.845E+02 0.438E+02 0.103E+03   -.823E+02 -.473E+02 -.947E+02   -.268E+01 0.105E+01 -.938E+01   -.951E-03 -.526E-04 -.654E-03
   -.716E+02 0.144E+03 0.115E+03   0.688E+02 -.131E+03 -.112E+03   0.507E+00 -.130E+02 -.228E+01   0.557E-03 0.593E-03 -.106E-02
   0.567E+02 -.450E+02 0.669E+02   -.574E+02 0.459E+02 -.630E+02   0.177E+01 0.164E+00 -.303E+01   0.120E-02 -.217E-03 -.642E-04
   -.846E+02 -.328E+02 -.137E+03   0.777E+02 0.219E+02 0.120E+03   0.903E+01 0.149E+02 0.166E+02   -.192E-02 -.258E-02 -.205E-02
   -.351E+01 -.713E+01 0.279E+02   -.731E+00 0.134E+02 -.299E+02   0.302E+01 -.792E+01 0.800E+00   0.113E-02 -.109E-02 -.607E-04
   0.314E+02 -.655E+02 0.915E+02   -.327E+02 0.641E+02 -.862E+02   -.266E+00 -.299E+01 -.118E+02   -.509E-04 0.347E-03 0.511E-03
   0.664E+02 0.128E+03 0.201E+03   -.666E+02 -.124E+03 -.191E+03   -.353E+01 -.634E+01 -.126E+02   -.186E-02 -.435E-03 0.187E-03
   0.239E+02 -.183E+03 0.879E+02   -.141E+02 0.177E+03 -.890E+02   -.881E+01 0.137E+02 0.109E+02   -.253E-03 0.675E-03 0.733E-03
   -.686E+02 0.432E+02 -.172E+02   0.636E+02 -.425E+02 0.175E+02   0.312E+01 0.113E+01 0.202E+01   0.423E-04 -.997E-04 0.138E-03
   -.200E+02 -.132E+02 -.144E+03   0.298E+02 0.121E+02 0.132E+03   -.143E+02 0.658E+01 0.121E+02   0.275E-03 0.209E-03 -.692E-03
   0.245E+02 0.236E+01 -.556E+02   -.256E+02 0.191E+02 0.519E+02   -.164E+01 -.233E+02 0.336E+01   -.244E-03 0.677E-04 0.714E-04
   0.257E+02 -.726E+02 -.264E+02   -.327E+02 0.750E+02 0.230E+02   0.858E+01 -.382E+01 0.604E+01   -.274E-03 -.208E-03 -.685E-03
   0.239E+01 -.139E+03 0.138E+03   -.866E+01 0.124E+03 -.129E+03   0.618E+01 0.165E+02 -.839E+01   0.142E-03 -.753E-03 -.238E-03
   0.100E+03 0.763E+02 0.370E+02   -.873E+02 -.769E+02 -.400E+02   -.124E+02 0.332E+01 0.546E+01   -.912E-03 -.475E-03 0.557E-03
   -.132E+02 -.563E+02 -.113E+03   0.813E+01 0.562E+02 0.105E+03   0.877E+01 -.513E+01 0.633E+01   0.607E-03 -.374E-03 -.400E-03
   -.283E+02 -.922E+02 -.437E+02   0.264E+02 0.882E+02 0.440E+02   0.161E+01 0.194E+01 -.271E+01   -.433E-03 -.245E-03 -.452E-03
   0.213E+03 0.484E+02 -.648E+01   -.223E+03 -.707E+02 0.381E+00   0.101E+02 0.235E+02 0.564E+01   0.195E-02 0.515E-04 0.676E-03
   -.535E+02 0.956E+02 0.270E+03   0.761E+02 -.935E+02 -.280E+03   -.262E+02 -.496E+01 0.107E+02   -.173E-02 -.541E-03 0.240E-03
   0.855E+02 -.880E+02 0.213E+02   -.837E+02 0.107E+03 -.223E+02   -.215E+01 -.215E+02 0.109E+01   0.138E-02 -.160E-04 0.376E-03
   -.547E+02 0.253E+03 -.882E+02   0.565E+02 -.265E+03 0.852E+02   -.442E+01 0.117E+02 0.631E+01   -.705E-03 -.961E-05 0.376E-03
   0.273E+02 -.163E+03 -.932E+02   -.615E+02 0.174E+03 0.863E+02   0.321E+02 -.131E+02 0.525E+01   -.777E-03 0.119E-02 0.341E-04
   -.840E+02 -.184E+03 -.265E+03   0.932E+02 0.224E+03 0.287E+03   -.598E+01 -.341E+02 -.187E+02   0.105E-02 -.800E-03 -.193E-03
[...]
   -.743E+02 -.917E+02 -.123E+03   0.861E+02 0.882E+02 0.983E+02   -.125E+02 0.423E+01 0.287E+02   0.131E-02 -.434E-03 -.770E-03
   0.106E+03 -.272E+02 -.731E+02   -.107E+03 -.671E+00 0.783E+02   0.220E+01 0.283E+02 -.525E+01   0.275E-03 -.103E-02 -.320E-03
   0.138E+03 -.325E+02 0.568E+02   -.156E+03 0.321E+02 -.693E+02   0.210E+02 -.129E+00 0.130E+02   -.408E-03 -.537E-03 0.676E-03
   -.126E+02 -.325E+02 0.121E+03   0.190E+02 0.117E+02 -.126E+03   -.610E+01 0.227E+02 0.395E+01   0.743E-03 -.904E-03 -.929E-04
   -.104E+03 -.115E+03 0.261E+03   0.121E+03 0.893E+02 -.282E+03   -.162E+02 0.232E+02 0.159E+02   -.128E-02 0.145E-02 0.217E-02
   0.138E+03 0.103E+03 0.699E+02   -.138E+03 -.100E+03 -.747E+02   -.233E+01 -.492E+01 0.557E+01   -.899E-03 -.964E-03 0.501E-04
   0.163E+03 0.741E+02 0.210E+03   -.178E+03 -.812E+02 -.214E+03   0.183E+02 0.871E+01 0.372E+01   -.102E-02 0.450E-03 -.240E-02
   -.141E+03 -.767E+02 0.881E+02   0.159E+03 0.672E+02 -.703E+02   -.151E+02 0.693E+01 -.216E+02   0.107E-02 -.616E-03 -.415E-03
   0.570E+02 0.529E+02 -.217E+03   -.471E+02 -.465E+02 0.225E+03   -.124E+02 -.576E+01 -.690E+01   0.275E-03 0.183E-03 -.510E-03
   -.104E+03 0.169E+03 -.264E+03   0.116E+03 -.193E+03 0.270E+03   -.114E+02 0.220E+02 -.226E+01   -.196E-03 0.107E-02 0.930E-03
   0.586E+02 -.108E+03 -.133E+03   -.530E+02 0.135E+03 0.142E+03   -.507E+01 -.284E+02 -.944E+01   -.385E-05 -.108E-02 0.220E-04
   -.912E+02 -.168E+02 -.452E+02   0.824E+02 0.224E+02 0.698E+02   0.937E+01 -.460E+01 -.252E+02   -.202E-03 0.359E-03 0.498E-03
   0.254E+03 -.117E+03 -.207E+03   -.269E+03 0.116E+03 0.233E+03   0.140E+02 0.220E+00 -.280E+02   -.323E-04 -.769E-03 -.381E-03
   -.264E+03 0.444E+02 0.170E+03   0.272E+03 -.362E+02 -.187E+03   -.841E+01 -.109E+02 0.200E+02   0.160E-02 0.189E-03 0.144E-03
   -.145E+02 -.101E+03 0.465E+02   -.136E-11 -.412E-12 0.568E-13   0.145E+02 0.101E+03 -.465E+02   0.465E-02 -.925E-02 -.154E-01

 POSITION                                       TOTAL-FORCE (eV/Angst)
      3.47295      9.56810     12.47255        -1.526254     -0.628544     -1.607248
      7.39822      6.36700      0.97063         0.766380     -1.020831     -1.909560
      4.69296      5.93657     11.85728         2.845207     -1.120569      0.390290
      9.27578      1.20323      8.99394        -0.423715      0.266844      1.032143
      4.51709      0.44288      5.21085         0.401559      1.933391     -1.489243
     12.48934      1.64601     13.29209        -0.070004      0.676599      0.824299
     10.55268      8.81679      6.21258         0.909311      4.015812      6.784587
      5.54169      9.69051      3.55684        -2.816274     -1.497401      0.973028
      7.56507      1.59825      2.85630        -0.424862     -0.345052      1.673132
      6.74046     13.57193     13.58765         0.914737      0.037272     -2.348311
     11.07990      5.79862      5.40014        -1.560866     -1.895525     -1.300978
      1.12258      1.02097      5.94225         3.948327     -0.053282     -2.057355
      5.70096      6.79459      5.74824        -1.138817     -0.429886     -2.547456
      0.15646      9.09103      3.64269         0.475416     -1.535121     -1.394114
      1.91329      1.00097      1.54639        -0.820307      0.264200     -1.707435
      2.49570      2.69562     10.77438        -0.497268      0.806802      0.564734
     10.51190      4.67487      0.11244        -1.134756     -0.448007      0.349837
      1.57477      6.39816      0.19938        -0.831789     -0.341660      2.105416
      3.22492     13.08465     11.59267         1.304157      0.173904      1.124523
      1.21633     11.60310      8.49843        -1.342238     -0.001762      0.724993
     10.73032      7.35584     11.96168        -2.162118     -1.189933     -0.341677
      8.17371      9.72437      1.14186         0.994403      3.509906      2.008714
      5.37394      7.89868      8.42218        -1.385083     -0.687516      1.795525
     12.24682      1.09363      5.47046        -5.507078     -2.777920      0.525041
      0.65602      3.81361      7.57768        -0.872426     -0.048097      1.787143
      0.57563      3.83255      2.48812        -0.252896     -0.382198      0.792689
     11.00243     12.73866     11.35963        -0.998983      0.873066      0.332454
     12.91063      3.55509      4.95891        -1.077659      0.221258     -1.259572
      3.03785      3.28872     13.59665         1.525073     -0.963470     -0.534724
      2.54499      4.13089      5.46230        -5.833173     -7.688798     -1.667294
      0.01301      5.56229     10.79406        -0.766623     -7.086204      1.221803
      9.33447     11.88019      8.33694         4.968963     -1.273221      3.600447
      4.43561      3.76940      3.37486        -2.015543     -3.144155     -1.997972
     12.57929      0.85794      8.50296         0.454076     -0.583067     -2.184145
      2.42136      7.25232     10.59735        -1.473454      7.066864      1.837615
      8.19475     13.36193      5.79214        -0.635121     -1.252534     -2.044454
      8.40678      4.19783      3.15050         0.893939     10.659897     -4.486427
     12.59836      6.61965      1.70083        -4.108480     -1.142941    -13.817959
      9.10647      2.28632     11.92685        -0.450183     -2.381277     -1.124852
      5.77346      3.10304      0.97900        -2.325209     -0.672321      0.081018
     10.17045     12.14969      3.93248         1.150450      1.068629      0.815777
      1.66444     12.11372      2.92271         2.058065      3.995957     -0.220440
     11.16462     11.94444      0.65572        -1.215473     -1.603908     -1.216786
      8.25336      9.28497      9.52634        -1.546813     -4.393607     -6.547929
      8.31588      5.06794     11.37537        -3.678368     -2.287133     -2.108702
     12.37793      8.49421      0.05286         1.049661      7.802104      9.779967
      0.88319     13.57084     10.56919        -1.817145      1.911517      2.319622
     12.02952     10.93358      5.58804        -4.492090      5.473702     -0.585805
      3.50917      6.32509      3.29757        -2.734851     -1.864935     -0.295788
      5.42744     10.57229      0.44143         1.580986     -1.413435      2.685891
      7.76804      8.59680     12.19617        -0.086597      2.007756      0.725610
      8.59294      6.16481      8.24736         0.751717      2.795169      2.487595
      8.53043      7.75466      3.81468         3.665401     -5.184771     -1.213590
      3.34542      9.78730      6.36486        -0.266664     -2.000617     -2.457566
      8.45012     12.03327      4.73466        -0.232957      1.181792     -0.460941
      9.71512      3.95304     11.15227        -3.616846     -2.821196      0.590677
      9.99984      0.29873      4.45589        -0.357709     -2.654750      0.175636
     13.57638     13.67085      7.06879        -2.599471     -0.368522      3.310957
      2.07892      6.66775      2.84517        -2.007375     -1.946987     -1.663810
      2.90203      5.36729      6.11316         3.195779      6.343533      3.225321
[...]
      6.57103      3.55046      2.35540         3.912712     -1.221877      2.333862
      8.74703      7.85232      2.15489        -0.719043      0.786344      3.935165
      3.80287      8.28410      6.73380         1.853220      0.468504     -0.110213
     11.01105      0.86264      7.85988         2.813936     -0.536689      0.488018
      0.90129      4.19492     10.40629         0.298968      1.929002     -0.346042
     12.95065      7.45894     12.80624         0.991344     -2.335290     -4.800504
      0.40623      2.38008      0.91904        -1.738799     -1.570336      0.795797
      7.54194      1.34163     11.91072         2.396897      1.545752      0.166279
      8.68857      8.44583     13.52284         3.041715     -2.568286     -3.891631
      8.91128      5.67875      4.03037        -2.432508      0.578901      1.309785
      4.97705      2.40851      3.92558         0.499877     -2.244451      3.686233
     13.13560      2.33840      8.75781         0.527910     -1.216390     -0.156334
      2.62966     10.44623      7.59658         0.527073      0.998503     -0.564961
     12.29283      3.59904      6.50089        -0.658578     -0.152455     -1.601730
      2.05203      0.88798      9.54423        -0.868831     -2.611028      2.979343
    total drift:                                0.004882      0.017397     -0.023644

  FREE ENERGIE OF THE ION-ELECTRON SYSTEM (eV)
  free  energy   TOTEN  =      -884.11274023 eV

  energy  without entropy=     -884.08410371  energy(sigma->0) =     -884.09842197