 vasp.5.4.4.18Apr17-6-g9f103f2a35 (build Oct 31 2019 15:01:46) complex

 executed on             LinuxIFC date 2024.04.29  20:49:33

 INCAR:
 POTCAR:    PAW_PBE Ca_sv 06Sep2000
 POTCAR:    PAW_PBE Si 05Jan2001
 POTCAR:    PAW_PBE O 08Apr2002
 POTCAR:    PAW_PBE Ca_sv 06Sep2000
   VRHFIN =Ca: 3s3p4s

   TITEL  = PAW_PBE Ca_sv 06Sep2000
   POMASS =   40.078; ZVAL   =   10.000    mass and valenz
   ENMAX  =  266.622; ENMIN  =  199.967 eV

   TITEL  = PAW_PBE Si 05Jan2001
   POMASS =   28.085; ZVAL   =    4.000    mass and valenz
   ENMAX  =  245.345; ENMIN  =  184.009 eV

   TITEL  = PAW_PBE O 08Apr2002
   POMASS =   16.000; ZVAL   =    6.000    mass and valenz
   ENMAX  =  400.000; ENMIN  =  300.000 eV

 Optimization of the real space projectors (new method)

 maximal supplied QI-value         = 16.25
 optimisation between [QCUT,QGAM] = [ 12.51, 25.03] = [ 43.85,175.40] Ry
 Optimized for a Real-space Cutoff    1.47 Angstroem

   l    n(q)    QCUT    max X(q) W(low)/X(q) W(high)/X(q)  e(spline)
   0     11    12.514    11.817    0.25E-04    0.32E-05    0.87E-07
   0     11    12.514     8.461    0.39E-04    0.59E-05    0.18E-06
   1     11    12.514     3.957    0.97E-05    0.57E-05    0.28E-07
   1     11    12.514     4.314    0.42E-04    0.14E-04    0.23E-06
   2     10    12.514    14.565    0.79E-04    0.50E-03    0.16E-05
   2     10    12.514    14.552    0.75E-04    0.48E-03    0.15E-05
 Optimization of the real space projectors (new method)

[...]

   l    n(q)    QCUT    max X(q) W(low)/X(q) W(high)/X(q)  e(spline)
   0      9    12.501   159.560    0.10E-03    0.83E-04    0.71E-07
   0      9    12.501   115.863    0.99E-04    0.81E-04    0.70E-07
   1      8    12.501    88.339    0.20E-03    0.25E-03    0.76E-07
   1      8    12.501    48.592    0.20E-03    0.24E-03    0.75E-07
 Optimization of the real space projectors (new method)

 maximal supplied QI-value         = 24.76
 optimisation between [QCUT,QGAM] = [ 12.38, 25.00] = [ 42.90,175.06] Ry
 Optimized for a Real-space Cutoff    1.16 Angstroem

   l    n(q)    QCUT    max X(q) W(low)/X(q) W(high)/X(q)  e(spline)
   0      9    12.378    20.381    0.16E-03    0.67E-05    0.31E-06
   0      9    12.378    15.268    0.17E-03    0.81E-05    0.33E-06
   1      8    12.378     5.964    0.20E-03    0.16E-03    0.30E-06
   1      8    12.378     5.382    0.18E-03    0.14E-03    0.26E-06
  PAW_PBE Ca_sv 06Sep2000               :
  PAW_PBE Si 05Jan2001                  :
  PAW_PBE O 08Apr2002                   :

 POSCAR: Ca Si  O
  positions in direct lattice
 exchange correlation table for  LEXCH =        8
   RHO(1)=    0.500       N(1)  =     2000
   RHO(2)=  100.500       N(2)  =     4000

 ion  position               nearest neighbor table
   1  0.650  0.545  0.011-  82 1.87  71 2.16  56 2.28 128 2.34  46 2.90   6 3.12  29 3.14
   2  0.439  0.702  0.075-  68 1.79  84 2.14  86 2.54
   3  0.631  0.303  0.779- 103 1.82  72 2.15 115 2.33  53 3.03  36 3.10
   4  0.488  0.007  0.315-  59 2.18  77 2.19  86 2.41  94 2.49  80 2.51  30 2.94
   5  0.073  0.516  0.913-  61 2.03 125 2.07 135 2.10  62 2.22  83 2.49  31 2.50  15 3.09
   6  0.827  0.670  0.871- 110 2.09 101 2.42 109 2.45  82 2.51  25 2.96   1 3.12
   7  0.283  0.517  0.391- 130 2.21 111 2.27  69 2.36  70 2.51
   8  0.383  0.438  0.669- 104 2.01  70 2.24  69 2.33 102 2.49 107 2.51  33 2.70  38 2.85  32 2.92

   9  0.910  0.295  0.649- 103 2.13 126 2.28  60 2.42  58 2.53  42 2.78  23 3.15
  10  0.738  0.915  0.297- 122 2.15  77 2.16 106 2.35  46 2.92
  11  0.961  0.727  0.160- 106 2.02  88 2.14 129 2.43 133 2.49  61 2.53  46 2.87  14 3.06
  12  0.041  0.466  0.196-  95 2.05  61 2.10  89 2.14  31 2.89
  13  0.626  0.643  0.452-  74 2.06  81 2.22 111 2.31 120 2.45  19 2.83
  14  0.961  0.980  0.169- 116 1.97  92 2.37  88 2.44 106 2.54  11 3.06
  15  0.191  0.294  0.866- 104 2.02  73 2.15 125 2.31  58 2.36 131 2.45  20 2.81  48 2.93   5 3.09

[...]

  49  0.811  0.189  0.033-  91 1.60  55 1.69 115 1.79 117 2.01 121 2.17  36 2.79  21 2.87  53 3.03

  50  0.985  0.199  0.358- 127 1.54  96 1.65  89 1.80 116 1.82  44 2.75  37 2.91
  51  0.329  0.093  0.008- 131 1.57  90 1.71  75 1.75 132 2.30  22 3.00  54 3.09
  52  0.893  0.616  0.401- 100 1.44  63 1.52  64 1.59  81 1.90  42 2.53  24 2.88
  53  0.581  0.288  0.024-  56 1.62 115 1.81 132 1.83  72 1.83 121 2.19  18 2.81   3 3.03  54 3.03
                            49 3.03
  54  0.404  0.248  0.196-  78 1.66  76 1.68  59 1.71 132 1.74  75 2.32  44 2.95  53 3.03  51 3.09
                            34 3.14
  55  0.824  0.321  0.076-  49 1.69  26 2.12  36 2.23
  56  0.585  0.395  0.105-  53 1.62  34 2.04   1 2.28
  57  0.630  0.058  0.864-  40 1.76  17 2.16
  58  0.100  0.231  0.705-  48 1.58  23 2.22  15 2.36   9 2.53
  59  0.496  0.184  0.282-  54 1.71  30 1.82   4 2.18
  60  0.931  0.099  0.678-  37 1.74  21 2.17  48 2.41   9 2.42
  61  0.987  0.548  0.053-   5 2.03  12 2.10  11 2.53
  62  0.971  0.375  0.854-  36 1.63   5 2.22
  63  0.853  0.525  0.324-  52 1.52  26 2.18
  64  0.981  0.616  0.499-  52 1.59  42 1.81  24 1.99
  65  0.117  0.825  0.440-  43 1.52  24 1.89  27 2.13
  66  0.702  0.293  0.341-  30 1.56  26 2.21
  67  0.698  0.992  0.696-  40 1.57  16 2.48
  68  0.334  0.619  0.011-  31 1.73   2 1.79  18 2.37
  69  0.236  0.525  0.580-  33 1.59   8 2.33   7 2.36
  70  0.409  0.388  0.493-  38 1.44  19 2.23   8 2.24   7 2.51
  71  0.524  0.571  0.887-  29 1.81  32 1.85   1 2.16  18 2.57
  72  0.534  0.376  0.910-  53 1.83  18 2.05   3 2.15
  73  0.361  0.248  0.841-  45 1.74  15 2.15
  74  0.584  0.764  0.564-  41 1.49  13 2.06  25 2.56
  75  0.349  0.070  0.149-  51 1.75  35 2.24  54 2.32
  76  0.267  0.262  0.219-  44 1.62  54 1.68
  77  0.656  0.067  0.343-  30 1.63  10 2.16   4 2.19  16 2.34
  78  0.429  0.368  0.256-  54 1.66  34 1.71
  79  0.264  0.062  0.693-  45 1.79  48 1.85
  80  0.295  0.984  0.387-  35 1.71  27 2.27   4 2.51
  81  0.792  0.600  0.520-  52 1.90  42 1.92  13 2.22
  82  0.749  0.482  0.910-  36 1.74   1 1.87   6 2.51
  83  0.111  0.631  0.747-  33 1.52  28 2.08   5 2.49
  84  0.505  0.571  0.172-  34 1.48   2 2.14
  85  0.448  0.744  0.846-  32 1.46  22 2.55
  86  0.478  0.821  0.243-  39 1.72   4 2.41   2 2.54
  87  0.084  0.053  0.571-  37 1.52  48 2.10  27 2.45
  88  0.034  0.839  0.044-  47 1.80  11 2.14  14 2.44
  89  0.978  0.317  0.268-  50 1.80  12 2.14
  90  0.406  0.995  0.940-  51 1.71  22 1.92
  91  0.938  0.160  0.015-  49 1.60  20 2.12  21 2.42
  92  0.112  0.093  0.222-  35 1.73  14 2.37  20 2.50
  93  0.392  0.816  0.504-  41 1.53  39 1.99  27 2.36
  94  0.540  0.976  0.512-  41 1.62   4 2.49
  95  0.180  0.560  0.172-  31 1.40  12 2.05
  96  0.110  0.187  0.411-  50 1.65  44 1.65  23 2.40
  97  0.239  0.824  0.093-  47 1.42
  98  0.917  0.958  0.485-  37 1.45  24 2.56
  99  0.507  0.138  0.716-  40 1.69  45 1.70
 100  0.831  0.706  0.356-  52 1.44
 101  0.946  0.821  0.816-  28 1.60   6 2.42
 102  0.459  0.630  0.672-  32 1.65  29 2.08   8 2.49
 103  0.780  0.314  0.768-   3 1.82  36 1.92   9 2.13
 104  0.240  0.395  0.741-   8 2.01  15 2.02  33 2.35
 105  0.550  0.259  0.513-  38 1.67  19 1.97
 106  0.824  0.822  0.150-  46 1.61  11 2.02  10 2.35  14 2.54
 107  0.340  0.243  0.612-  38 1.57  45 1.74   8 2.51
 108  0.096  0.998  0.840-  48 1.86
 109  0.887  0.594  0.692-  42 1.63   6 2.45
 110  0.675  0.688  0.789-  29 1.57   6 2.09  25 2.26
 111  0.439  0.616  0.423-  39 1.95   7 2.27  13 2.31
 112  0.639  0.502  0.655-  29 1.69  19 2.38
 113  0.487  0.943  0.672-  40 1.61  41 1.77
 114  0.332  0.209  0.395-  44 1.76  38 1.83
[...]
 121  0.684  0.221  0.156-  30 1.70  49 2.17  53 2.19
 122  0.656  0.768  0.240-  46 1.55  10 2.15
 123  0.301  0.595  0.816-  32 1.49  33 1.79
 124  0.120  0.844  0.662-  28 1.70  27 2.08  24 2.19
 125  0.202  0.436  0.992-  31 1.80   5 2.07  15 2.31  18 2.44
 126  0.005  0.425  0.551-  42 1.64  23 2.16   9 2.28
 127  0.919  0.169  0.462-  50 1.54  37 1.82  16 2.57
 128  0.663  0.739  0.010-  46 1.73   1 2.34  17 2.35
 129  0.102  0.684  0.297-  43 1.60  11 2.43
 130  0.180  0.366  0.391-  44 1.54  23 2.07   7 2.21
 131  0.228  0.173  0.024-  51 1.57  20 1.83  15 2.45
 132  0.443  0.237  0.058-  54 1.74  53 1.83  51 2.30  18 2.57
 133  0.790  0.613  0.168-  46 1.70  11 2.49  26 2.54
 134  0.177  0.810  0.859-  28 1.58  47 1.73  22 2.07
 135  0.136  0.652  0.001-  31 1.52  47 1.82   5 2.10

IMPORTANT INFORMATION: All symmetrisations will be switched off!
NOSYMM: (Re-)initialisation of all symmetry stuff for point group C_1.

Automatic generation of k-mesh.
 generate k-points for:    2    2    2
Space group operators:
 irot       det(A)        alpha          n_x          n_y          n_z        tau_x        tau_y        tau_z
    1     1.000000     0.000000     1.000000     0.000000     0.000000     0.000000     0.000000     0.000000

 Subroutine IBZKPT returns following result:

 Found      8 irreducible k-points:

 Following reciprocal coordinates:
            Coordinates               Weight
  0.000000  0.000000  0.000000      1.000000
  0.500000  0.000000  0.000000      1.000000
  0.000000  0.500000  0.000000      1.000000
  0.500000  0.500000  0.000000      1.000000
  0.000000  0.000000  0.500000      1.000000
  0.500000  0.000000  0.500000      1.000000
  0.000000  0.500000  0.500000      1.000000
  0.500000  0.500000  0.500000      1.000000

 Following cartesian coordinates:
            Coordinates               Weight
  0.000000  0.000000  0.000000      1.000000
  0.041344  0.000000  0.000000      1.000000
  0.000000  0.041344  0.000000      1.000000
  0.041344  0.041344  0.000000      1.000000
  0.000000  0.000000  0.041344      1.000000
  0.041344  0.000000  0.041344      1.000000
  0.000000  0.041344  0.041344      1.000000
  0.041344  0.041344  0.041344      1.000000

 SYSTEM =  unknown system
 POSCAR =  Ca Si  O

 Startparameter for this run:
   NWRITE =      2    write-flag & timer
   PREC   = a         normal or accurate (medium, high low for compatibility)
   ISTART =      0    job   : 0-new  1-cont  2-samecut
   ICHARG =      2    charge: 1-file 2-atom 10-const
   ISPIN  =      1    spin polarized calculation?
   LNONCOLLINEAR =      F non collinear calculations
   LSORBIT =      F    spin-orbit coupling
   INIWAV =      1    electr: 0-lowe 1-rand  2-diag
   LASPH  =      F    aspherical Exc in radial PAW
   METAGGA=      F    non-selfconsistent MetaGGA calc.

 Electronic Relaxation 1
   ENCUT  =  600.0 eV  44.10 Ry    6.64 a.u.  24.15 24.15 24.15*2*pi/ulx,y,z
   ENINI  =  600.0     initial cutoff
   ENAUG  =  605.4 eV  augmentation charge cutoff
   NELM   =     60;   NELMIN=  2; NELMDL= -5     # of ELM steps
   EDIFF  = 0.1E-05   stopping-criterion for ELM
   LREAL  =      T    real-space projection
   NLSPLINE    = F    spline interpolate recip. space projectors
   LCOMPAT=      F    compatible to vasp.4.4
   GGA_COMPAT  = T    GGA compatible to vasp.4.4-vasp.4.6
   LMAXPAW     = -100 max onsite density
   LMAXMIX     =    2 max onsite mixed and CHGCAR
   VOSKOWN=      0    Vosko Wilk Nusair interpolation
   ROPT   =   -0.00025  -0.00025  -0.00025
 Ionic relaxation
   EDIFFG = -.1E-01   stopping-criterion for IOM
[...]
     0.000000000  0.000000000 12.093787620     0.000000000  0.000000000  0.082687081

  length of vectors
    12.093787620 12.093787620 12.093787620     0.082687081  0.082687081  0.082687081

 FORCES acting on ions
    electron-ion (+dipol)            ewald-force                    non-local-force                 convergence-correction
   -.931E+02 -.144E+03 -.719E+02   0.928E+02 0.144E+03 0.738E+02   -.187E+01 0.137E+01 0.248E+01   0.551E-03 -.710E-03 -.261E-04
   -.815E+02 -.403E+03 -.758E+02   0.824E+02 0.404E+03 0.789E+02   0.347E+01 0.501E+01 -.659E+00   -.898E-04 -.310E-03 0.193E-03
   0.634E+02 0.150E+03 0.240E+03   -.652E+02 -.150E+03 -.235E+03   -.421E+01 -.111E+01 -.529E+01   0.408E-03 -.985E-03 0.912E-03
   0.709E+01 0.133E+03 0.890E+02   -.981E+01 -.133E+03 -.849E+02   0.251E+00 -.155E+01 -.287E+01   0.976E-03 0.106E-03 0.829E-04
   0.189E+03 -.556E-01 0.238E+03   -.193E+03 0.192E+00 -.235E+03   0.129E+01 0.576E-01 -.669E+01   -.123E-03 -.982E-03 0.764E-03
   -.144E+03 -.144E+03 -.486E+02   0.143E+03 0.142E+03 0.478E+02   0.262E+01 0.125E+01 0.247E+01   -.906E-03 -.224E-03 0.857E-03
   0.831E+02 -.134E+03 0.766E+02   -.821E+02 0.134E+03 -.742E+02   -.102E+01 0.996E+00 -.273E+01   0.689E-03 -.287E-03 -.503E-03
   -.201E+03 -.380E+02 -.388E+02   0.195E+03 0.377E+02 0.363E+02   0.680E+01 0.116E+00 0.233E+01   0.243E-03 -.131E-02 -.136E-03
   0.165E+03 -.157E+02 0.842E+02   -.163E+03 0.138E+02 -.798E+02   -.779E+00 0.254E+00 -.343E+01   -.123E-02 -.272E-04 -.190E-03
   -.250E+02 -.102E+03 -.835E+02   0.257E+02 0.966E+02 0.815E+02   0.126E+01 0.350E+01 0.231E+01   -.590E-03 0.464E-03 -.821E-03
   -.206E+02 -.530E+02 -.269E+02   0.220E+02 0.502E+02 0.250E+02   0.904E+00 -.894E+00 0.262E+01   -.120E-02 0.139E-02 -.470E-03
   0.460E+02 0.120E+03 -.153E+03   -.485E+02 -.116E+03 0.153E+03   0.765E+00 -.353E+01 0.213E+01   -.703E-03 -.393E-03 -.114E-03
   -.309E+02 -.125E+03 0.231E+02   0.311E+02 0.127E+03 -.241E+02   0.569E+00 -.230E+01 -.129E+01   0.302E-03 0.472E-03 -.763E-03
   0.541E+02 0.901E+00 0.115E+03   -.515E+02 0.665E+00 -.115E+03   -.143E+01 -.276E+01 -.227E+01   -.134E-02 -.124E-03 -.804E-03
   0.142E+03 0.178E+03 -.629E+02   -.136E+03 -.173E+03 0.569E+02   -.653E+01 -.447E+01 0.568E+01   0.201E-03 -.537E-03 0.248E-03
   -.875E+01 -.145E+02 -.841E+02   0.435E+01 0.107E+02 0.828E+02   0.266E+01 0.313E+01 0.132E+01   -.739E-03 -.468E-05 -.227E-03
   0.140E+03 0.190E+02 -.426E+02   -.136E+03 -.152E+02 0.381E+02   -.486E+01 -.398E+01 0.405E+01   0.296E-03 0.371E-03 0.864E-03
   0.142E+03 0.678E+02 -.528E+02   -.142E+03 -.660E+02 0.501E+02   -.198E+01 -.880E+00 0.296E+01   0.838E-03 -.620E-03 -.146E-03
   -.238E+03 0.500E+01 -.114E+03   0.238E+03 -.891E+01 0.112E+03   0.263E+01 0.510E+01 0.208E+01   0.874E-03 -.886E-03 -.801E-03
   0.153E+03 0.223E+02 -.293E+02   -.157E+03 -.265E+02 0.350E+02   -.698E+00 0.623E+01 -.135E+01   -.963E-03 -.903E-03 -.169E-04
   0.276E+02 0.128E+03 0.293E+02   -.274E+02 -.131E+03 -.281E+02   -.188E+00 0.993E+00 -.878E+00   -.941E-03 0.359E-03 0.766E-03
   -.826E+02 -.319E+02 0.464E+02   0.852E+02 0.297E+02 -.475E+02   -.205E+01 0.280E+00 -.292E+01   0.606E-03 0.143E-02 0.248E-03
   0.883E+02 0.110E+02 -.317E+02   -.886E+02 -.846E+01 0.325E+02   0.131E+01 -.206E+01 0.120E+01   -.358E-03 -.982E-03 0.138E-03
   0.168E+03 -.508E+02 -.969E+02   -.164E+03 0.523E+02 0.939E+02   -.675E+01 0.375E+00 0.460E+01   -.497E-03 0.147E-02 -.654E-03
   -.400E+02 -.240E+03 0.358E+02   0.336E+02 0.237E+03 -.356E+02   0.494E+01 0.276E+01 -.117E+01   -.111E-02 0.129E-02 -.261E-03
   -.147E+03 0.501E+02 -.748E+02   0.149E+03 -.487E+02 0.787E+02   -.145E+01 -.240E+00 -.277E+01   -.444E-03 -.816E-03 -.549E-04
   -.159E+03 -.330E+02 -.772E+02   0.157E+03 0.347E+02 0.744E+02   0.427E+01 0.731E+00 0.274E+01   0.274E-03 0.138E-02 -.336E-03
   0.611E+02 0.134E+02 0.894E+01   -.620E+02 -.425E+01 -.102E+02   0.138E+01 -.816E+01 -.248E+01   -.203E-04 0.810E-03 0.318E-03
   -.134E+02 0.876E+01 0.512E+02   0.199E+02 -.450E+01 -.542E+02   -.747E+01 -.559E+01 0.472E+00   0.242E-03 -.255E-03 0.149E-03
   -.312E+02 0.817E+02 0.609E+01   0.374E+02 -.752E+02 -.326E+01   -.794E+01 -.562E+01 -.488E+01   0.174E-03 -.300E-03 0.360E-04
   -.761E+02 0.164E+02 -.159E+02   0.699E+02 -.106E+02 0.275E+02   0.134E+02 -.678E+01 -.203E+02   0.410E-03 0.340E-04 -.109E-03
   -.529E+01 -.376E+02 0.539E+02   0.402E+01 0.526E+02 -.528E+02   0.581E+01 -.152E+02 -.190E+01   0.257E-03 0.204E-03 0.507E-03
   0.503E+01 -.844E+02 0.618E+02   -.127E+02 0.822E+02 -.637E+02   0.972E+01 -.212E+01 0.306E+01   0.348E-03 -.463E-03 0.140E-04
   0.618E+02 0.191E+02 -.470E+02   -.551E+02 -.695E+01 0.464E+02   -.825E+01 -.173E+02 -.422E+00   0.476E-03 -.836E-04 -.123E-03
   -.360E+02 0.293E+01 0.390E+02   0.306E+02 -.646E+01 -.348E+02   0.379E+01 0.808E+00 -.529E+01   0.182E-03 -.713E-04 0.110E-04
   -.378E+02 0.257E+02 -.140E+02   0.427E+02 -.199E+02 0.776E+01   -.778E+01 -.467E+01 0.577E+01   -.531E-03 -.256E-03 0.933E-04
   0.774E+02 0.715E+01 -.215E+02   -.710E+02 -.183E+02 0.204E+02   -.562E+01 0.179E+02 0.515E+01   -.336E-03 0.231E-03 -.190E-03
   -.381E+02 0.172E+03 0.211E+02   0.395E+02 -.159E+03 -.193E+02   0.189E+00 -.234E+02 -.638E+01   0.259E-03 -.597E-03 0.233E-03
   -.675E+02 -.487E+02 -.140E+02   0.637E+02 0.459E+02 0.673E+01   0.723E+01 0.961E+00 0.869E+01   0.540E-03 0.417E-03 -.281E-03
   -.218E+01 0.352E+02 -.450E+02   0.876E+01 -.373E+02 0.449E+02   -.627E+01 0.337E+01 0.383E+01   0.162E-04 0.448E-03 -.101E-03
   -.668E+00 -.179E+02 -.379E+02   0.636E+01 0.178E+02 0.321E+02   -.440E+01 0.754E+01 0.834E+01   0.385E-03 0.708E-03 -.106E-03
   0.526E+02 0.900E+02 -.171E+02   -.490E+02 -.837E+02 0.206E+02   -.370E+01 -.228E+00 -.482E+01   -.931E-03 -.925E-03 -.826E-04
   -.324E+02 -.323E+02 -.169E+02   0.218E+02 0.268E+02 0.136E+02   0.522E+01 0.473E+01 -.227E+01   0.163E-03 0.546E-03 -.452E-03
   0.364E+02 0.643E+02 0.646E+02   -.327E+02 -.544E+02 -.564E+02   -.296E-01 -.119E+02 -.728E+01   -.624E-04 -.474E-03 0.277E-04
   -.207E+02 0.999E+02 -.273E+02   0.230E+02 -.944E+02 0.290E+02   -.176E+01 -.361E+01 -.152E+01   0.564E-03 -.282E-03 -.780E-04
   0.370E+02 -.388E+02 0.677E+02   -.352E+02 0.395E+02 -.578E+02   -.314E+00 -.401E+01 -.998E+01   -.792E-04 0.817E-03 0.177E-03
   0.153E+02 -.896E+02 0.641E+02   -.108E+02 0.929E+02 -.456E+02   -.160E+02 -.721E+01 -.223E+02   -.702E-04 0.340E-03 0.444E-03
   0.162E+02 0.792E+02 -.661E+02   -.177E+02 -.738E+02 0.667E+02   0.620E+00 -.119E+02 -.292E+01   0.614E-04 -.209E-03 0.658E-04
   0.241E+02 0.117E+03 -.380E+02   -.154E+02 -.112E+03 0.357E+02   -.122E+02 -.616E+01 0.402E+01   -.438E-04 -.296E-03 0.943E-04
   0.657E+02 -.434E+02 0.647E+02   -.676E+02 0.394E+02 -.623E+02   0.119E+01 0.333E+01 -.105E+02   -.510E-03 -.211E-03 -.131E-03
   -.413E+02 0.918E+02 0.549E+02   0.367E+02 -.930E+02 -.482E+02   0.861E+01 -.551E+00 -.344E+01   0.442E-03 -.121E-04 -.664E-04
   -.907E+02 0.208E+02 -.241E+02   0.773E+02 -.178E+02 0.153E+02   0.135E+02 -.718E+01 0.112E+02   -.740E-03 -.111E-03 -.332E-03
   -.438E+01 0.193E+03 0.188E+02   0.436E+01 -.180E+03 -.192E+02   0.148E+01 -.122E+02 -.140E+01   0.208E-04 -.287E-03 -.728E-04
   0.259E+01 0.734E+02 0.449E+02   -.281E+00 -.693E+02 -.396E+02   -.230E+01 -.595E+01 -.292E+01   0.676E-03 -.537E-03 -.230E-03
   -.144E+03 0.162E+02 0.256E+01   0.146E+03 0.116E+01 0.845E+01   0.133E+01 -.165E+02 -.145E+02   -.381E-03 -.363E-03 -.469E-03
   -.187E+02 0.501E+02 -.697E+02   0.219E+02 -.345E+02 0.786E+02   -.332E+01 -.148E+02 -.697E+01   0.523E-03 -.664E-03 -.321E-03
   0.222E+02 0.133E+02 -.307E+02   -.128E+02 -.208E+01 0.455E+02   -.120E+02 -.124E+02 -.162E+02   0.289E-04 0.352E-03 0.301E-03
   0.781E+02 0.298E+02 -.523E+02   -.837E+02 -.268E+01 0.464E+02   0.558E+01 -.274E+02 0.760E+01   -.308E-03 -.607E-03 -.222E-04
   -.412E+02 0.794E+02 0.257E+00   0.369E+02 -.849E+02 0.171E+02   0.620E+01 0.575E+01 -.194E+02   0.378E-03 -.265E-03 0.311E-04
   0.112E+03 0.640E+02 -.460E+02   -.114E+03 -.604E+02 0.610E+02   0.620E+00 -.336E+01 -.167E+02   -.374E-03 0.588E-03 0.202E-04
[...]
   0.114E+03 -.570E+02 -.644E+02   -.134E+03 0.586E+02 0.885E+02   0.181E+02 -.609E+00 -.221E+02   -.983E-04 0.435E-03 0.287E-03
   0.656E+02 -.695E+02 0.283E+02   -.930E+02 0.605E+02 -.269E+01   0.209E+02 0.605E+01 -.281E+02   0.214E-03 -.223E-03 0.647E-03
   -.534E+01 0.192E+01 -.641E+02   0.128E+02 0.867E+01 0.505E+02   -.893E+01 -.127E+02 0.168E+02   -.431E-04 0.962E-03 -.532E-04
   -.220E+02 0.119E+03 -.731E+02   0.241E+02 -.134E+03 0.695E+02   -.824E+00 0.140E+02 0.517E+01   0.450E-03 -.295E-03 -.178E-03
   0.657E+02 -.352E+02 0.546E+02   -.466E+02 0.276E+02 -.676E+02   -.219E+02 0.690E+01 0.148E+02   -.237E-02 -.608E-03 0.715E-03
   0.148E+03 -.735E+02 -.192E+02   -.168E+03 0.762E+02 0.304E+02   0.171E+02 -.220E+01 -.394E+01   -.420E-03 0.860E-04 -.262E-03
   0.195E+02 -.172E+03 0.760E+02   -.298E+02 0.173E+03 -.958E+02   0.112E+02 -.775E+00 0.213E+02   -.805E-04 0.557E-03 0.434E-03
   0.580E+02 0.592E+02 -.598E+02   -.693E+02 -.817E+02 0.498E+02   0.861E+01 0.215E+02 0.103E+02   0.408E-04 0.299E-03 -.658E-03
   0.975E+02 -.120E+03 0.809E+02   -.107E+03 0.146E+03 -.726E+02   0.969E+01 -.225E+02 -.932E+01   -.156E-03 -.671E-03 0.532E-04
   -.332E+02 0.142E+03 0.486E+02   0.214E+02 -.129E+03 -.411E+02   0.155E+02 -.153E+02 -.118E+02   0.719E-03 -.506E-03 -.170E-03
   -.163E+02 0.185E+03 0.612E+02   0.726E+01 -.192E+03 -.792E+02   0.988E+01 0.670E+01 0.189E+02   0.844E-03 -.313E-03 -.366E-03
   -.200E+02 0.140E+02 0.273E+02   0.330E+02 -.326E+02 -.163E+02   -.153E+02 0.195E+02 -.147E+02   -.185E-03 -.288E-03 -.289E-03
   -.750E+01 -.373E+02 0.103E+02   0.284E+02 0.392E+02 -.156E+02   -.205E+02 -.321E+01 0.840E+01   -.147E-03 0.678E-03 0.817E-03
   0.556E+02 -.168E+03 0.491E+02   -.803E+02 0.179E+03 -.592E+02   0.237E+02 -.398E+01 0.687E+01   0.678E-03 0.631E-03 0.376E-03
   0.821E+01 0.266E+03 0.823E+02   0.412E-12 0.426E-12 -.171E-12   -.821E+01 -.266E+03 -.823E+02   -.717E-03 -.450E-02 -.377E-03

 POSITION                                       TOTAL-FORCE (eV/Angst)
      7.86306      6.59291      0.12928        -2.196099      1.763786      4.338975
      5.30493      8.49147      0.90101         4.359571      6.099338      2.368594
      7.62571      3.66890      9.42518        -6.020326     -1.202723     -0.404569
      5.90660      0.08072      3.81291        -2.471753     -1.181890      1.173171
      0.88345      6.24056     11.04282        -2.664679      0.193382     -3.668786
     10.00441      8.10050     10.52834         1.740183     -0.971084      1.688536
      3.41792      6.25384      4.72628         0.076271      1.015198     -0.378655
      4.63443      5.29533      8.09189         1.533225     -0.252111     -0.133617
     10.99939      3.57320      7.85362         0.979995     -1.682253      0.925333
      8.92347     11.06589      3.59486         1.908553     -2.302265      0.383852
     11.62682      8.78734      1.93354         2.258020     -3.664922      0.658349
      0.49934      5.63970      2.37364        -1.767570      0.564156      1.591175
      7.57486      7.77315      5.46503         0.826456     -0.109321     -2.352677
     11.62166     11.84879      2.04528         1.134380     -1.191455     -2.860574
      2.30587      3.55773     10.47048        -0.477993      1.073301     -0.364652
      8.81301      1.13818      6.29558        -1.739667     -0.699261      0.028018
      7.83723     11.26033     11.95434        -1.082524     -0.195931     -0.430541
      4.88388      5.27952     12.08255        -1.527940      0.930724      0.264473
      7.15373      5.00776      5.87475         1.856539      1.196613     -0.411617
      1.11919      2.72795      0.78215        -5.071316      2.043076      4.326697
     10.72350      0.74584     10.24998        -0.014731     -1.608095      0.348254
      3.82065     10.98965     10.18003         0.554710     -1.926024     -3.972108
      1.81115      3.87023      6.68542         1.048160      0.434287      2.013898
      0.08599      9.35409      6.51748        -2.474173      1.881670      1.626731
      9.34065      9.42971      7.96932        -1.434187      0.098820     -0.927103
      9.27629      4.95201      2.61304         0.779851      1.166354      1.138086
      2.74360     11.02021      6.60468         1.355787      2.389038     -0.096784
      0.85431      9.60372      9.48308         0.517663      0.952577     -3.756321
      7.26132      7.08972      9.18543        -0.935525     -1.331973     -2.539754
      7.81986      2.28762      3.48375        -1.792844      0.896197     -2.052377
      2.53173      6.87601      0.72496         7.216103     -1.013942     -8.682722
      5.02681      7.70196      9.69395         4.539958     -0.184524     -0.879537
      2.59665      7.04090      8.42614         2.054147     -4.334635      1.078704
      6.34260      5.71276      2.93023        -1.548276     -5.174602     -0.986694
      2.66452      0.15864      3.25986        -1.605224     -2.722341     -1.140191
     10.21345      4.52830     10.89102        -2.919056      1.185472     -0.525953
     11.62219      0.62354      6.60029         0.711815      6.714040      4.075064
      4.98423      3.25973      6.13491         1.543537     -9.523396     -4.577587
      4.95989      9.16699      4.24706         3.372417     -1.829519      1.416755
      6.98372      0.23292      8.87414         0.298498      1.284508      3.753367
      6.05760     10.34495      6.71792         1.291056      7.514134      2.531594
     11.00324      6.23990      7.07128        -0.040752      6.141157     -1.297191
      2.15773      9.46775      4.09290        -5.458535     -0.768688     -5.477446
      2.48372      3.05658      4.08575         3.707044     -1.896415      0.990728
      4.46097      1.94075      8.78944         0.595501      1.923389      0.163274
      8.76815      8.87771      1.67079         1.391324     -3.330958     -0.101537
      2.05998      9.65661      0.01193       -11.555132     -3.971892     -3.808266
      1.47533      1.26532      8.85154        -0.861341     -6.532483     -2.329805
      9.80276      2.28657      0.39940        -3.494887     -0.904892      1.751016
     11.91668      2.40721      4.32520        -0.795589     -0.755480     -8.143253
      3.97812      1.12184      0.09099         4.057285     -1.759319      3.243104
     10.80442      7.44395      4.85372         0.023697     -4.181158      2.405283
      7.02221      3.48374      0.29063         1.464679      0.694138     -1.819946
      4.88133      2.99386      2.37559         0.009671     -1.850700      2.335054
      9.97007      3.88668      0.91937         3.122166      0.843769     -3.493012
      7.07296      4.77599      1.26610        -0.088275      0.895173      1.998106
      7.61877      0.70142     10.45126        -2.571222     -1.194847     -1.471054
      1.21282      2.79048      8.52658        -0.080707     -0.198563      1.711909
      6.00178      2.22328      3.41287         1.929919      0.220216     -2.031559
     11.25462      1.19278      8.19893        -1.966230      0.238753     -1.706851
[...]
      8.27708      2.67727      1.89030        -1.232838     -3.204697     -1.246512
      7.92955      9.28662      2.90530        -1.744460      0.950978      1.962783
      3.64012      7.19030      9.86814        -6.481266     -2.927509     -2.480587
      1.44573     10.20595      8.00774        -1.461513     -2.095237      3.133039
      2.44168      5.27855     11.99951         1.330985     -0.208015      1.565771
      0.05973      5.13984      6.66504        -2.790262     -0.681136      1.764947
     11.10908      2.04423      5.58539        -3.145066      0.454757      7.302931
      8.01778      8.93250      0.11543         0.878962      0.051223      1.479057
      1.22994      8.26675      3.59299        -2.773295     -0.961756      0.319041
      2.18126      4.42493      4.72530         0.037519      4.147197     -0.980805
      2.76241      2.09792      0.29451         3.720390     -1.809507     -4.230676
      5.35524      2.86147      0.70505         0.866106      0.201200      0.906072
      9.54989      7.41170      2.03136        -2.288301      0.915844     -3.701479
      2.13730      9.79889     10.38724         0.367489     -1.266036      3.054953
      1.64614      7.88389      0.00736        -1.012051      6.496674     -3.272324
    total drift:                               -0.005085     -0.033232      0.005528

  FREE ENERGIE OF THE ION-ELECTRON SYSTEM (eV)
  free  energy   TOTEN  =      -897.83545966 eV

  energy  without entropy=     -897.83435714  energy(sigma->0) =     -897.83490840