 vasp.5.4.4.18Apr17-6-g9f103f2a35 (build Mar 16 2023 09:39:13) complex

 executed on             LinuxIFC date 2024.04.30  21:52:39

 INCAR:
 POTCAR:    PAW_PBE Ca_sv 06Sep2000
 POTCAR:    PAW_PBE Si 05Jan2001
 POTCAR:    PAW_PBE O 08Apr2002
 POTCAR:    PAW_PBE Ca_sv 06Sep2000
   VRHFIN =Ca: 3s3p4s

   TITEL  = PAW_PBE Ca_sv 06Sep2000
   POMASS =   40.078; ZVAL   =   10.000    mass and valenz
   ENMAX  =  266.622; ENMIN  =  199.967 eV

   TITEL  = PAW_PBE Si 05Jan2001
   POMASS =   28.085; ZVAL   =    4.000    mass and valenz
   ENMAX  =  245.345; ENMIN  =  184.009 eV

   TITEL  = PAW_PBE O 08Apr2002
   POMASS =   16.000; ZVAL   =    6.000    mass and valenz
   ENMAX  =  400.000; ENMIN  =  300.000 eV

 Optimization of the real space projectors (new method)

 maximal supplied QI-value         = 16.25
 optimisation between [QCUT,QGAM] = [ 12.51, 25.03] = [ 43.85,175.40] Ry
 Optimized for a Real-space Cutoff    1.47 Angstroem

   l    n(q)    QCUT    max X(q) W(low)/X(q) W(high)/X(q)  e(spline)
   0     11    12.514    11.817    0.25E-04    0.32E-05    0.87E-07
   0     11    12.514     8.461    0.39E-04    0.59E-05    0.18E-06
   1     11    12.514     3.957    0.97E-05    0.57E-05    0.28E-07
   1     11    12.514     4.314    0.42E-04    0.14E-04    0.23E-06
   2     10    12.514    14.565    0.79E-04    0.50E-03    0.16E-05
   2     10    12.514    14.552    0.75E-04    0.48E-03    0.15E-05
 Optimization of the real space projectors (new method)

[...]

   l    n(q)    QCUT    max X(q) W(low)/X(q) W(high)/X(q)  e(spline)
   0      9    12.501   159.560    0.10E-03    0.83E-04    0.71E-07
   0      9    12.501   115.863    0.99E-04    0.81E-04    0.70E-07
   1      8    12.501    88.339    0.20E-03    0.25E-03    0.76E-07
   1      8    12.501    48.592    0.20E-03    0.24E-03    0.75E-07
 Optimization of the real space projectors (new method)

 maximal supplied QI-value         = 24.76
 optimisation between [QCUT,QGAM] = [ 12.38, 25.00] = [ 42.90,175.06] Ry
 Optimized for a Real-space Cutoff    1.16 Angstroem

   l    n(q)    QCUT    max X(q) W(low)/X(q) W(high)/X(q)  e(spline)
   0      9    12.378    20.381    0.16E-03    0.67E-05    0.31E-06
   0      9    12.378    15.268    0.17E-03    0.81E-05    0.33E-06
   1      8    12.378     5.964    0.20E-03    0.16E-03    0.30E-06
   1      8    12.378     5.382    0.18E-03    0.14E-03    0.26E-06
  PAW_PBE Ca_sv 06Sep2000               :
  PAW_PBE Si 05Jan2001                  :
  PAW_PBE O 08Apr2002                   :

 POSCAR: Ca Si  O
  positions in direct lattice
 exchange correlation table for  LEXCH =        8
   RHO(1)=    0.500       N(1)  =     2000
   RHO(2)=  100.500       N(2)  =     4000

 ion  position               nearest neighbor table
   1  0.569  0.417  0.202-  89 2.03  66 2.12  56 2.34  78 2.43 100 2.50  46 2.70  29 3.11  18 3.11

   2  0.087  0.192  0.414-  74 2.10 129 2.16  99 2.49 119 2.49  31 2.74  39 3.02
   3  0.518  0.907  0.968- 130 2.31 127 2.46  60 2.48  80 2.54  41 3.11
   4  0.231  0.864  0.728-  77 2.18 131 2.25  55 2.40 127 2.41  87 2.45  76 2.53  47 2.79  28 2.95

[...]

  39  0.153  0.969  0.324-  62 1.55  90 1.60 129 1.71  81 1.87  43 2.74  14 2.89   2 3.02  53 3.08
                             7 3.11
  40  0.381  0.116  0.803- 130 1.60 132 1.64 107 1.64 131 1.65  28 2.89  36 3.04  11 3.08
  41  0.715  0.854  0.125- 110 1.59 106 1.61 112 1.72  80 1.73  25 2.95   3 3.11  49 3.12
  42  0.796  0.782  0.855-  73 1.59 101 1.64 108 1.64 124 1.85 106 2.25  35 2.82
  43  0.058  0.785  0.233-  94 1.50 113 1.64 116 1.68  62 1.69  39 2.74  12 2.96
  44  0.845  0.229  0.636- 104 1.63  75 1.64 134 1.65 103 1.68  50 2.86   8 3.05  32 3.07
  45  0.829  0.779  0.378-  91 1.63  85 1.69 115 1.81 112 1.81 116 2.11  15 2.90   9 3.01  29 3.06

[...]

  48  0.812  0.470  0.759-  64 1.59 118 1.63  86 1.63  93 1.89 104 2.28  35 2.81  38 3.00  34 3.09
                             9 3.16
  49  0.830  0.036  0.984-  61 1.63  88 1.63 110 1.64 108 1.92  16 2.94  17 2.99  41 3.12
  50  0.744  0.134  0.445-  71 1.61 103 1.64  63 1.75  70 1.76  44 2.86   5 3.03  10 3.09  37 3.13

[...]

  52  0.461  0.539  0.997- 100 1.64  78 1.65  95 1.71  67 1.73  18 3.05
  53  0.369  0.964  0.188- 114 1.54  79 1.71  97 1.84  81 1.90  60 2.18  30 2.86  39 3.08
  54  0.899  0.403  0.157- 120 1.50 121 1.57  56 1.81  68 1.84  33 2.81  46 3.05  12 3.08
  55  0.080  0.990  0.703-  32 1.51   4 2.40
  56  0.755  0.369  0.172-  46 1.66  54 1.81   1 2.34
  57  0.013  0.693  0.622-  47 1.74   9 2.25  15 2.30
  58  0.193  0.440  0.100-  33 1.63  23 2.23
  59  0.575  0.990  0.726-  28 1.60   8 2.32
  60  0.386  0.813  0.093-  30 1.80  53 2.18   3 2.48  25 2.51
  61  0.950  0.090  0.013-  49 1.63   7 2.36  17 2.54
  62  0.173  0.851  0.278-  39 1.55  43 1.69  14 2.45
  63  0.686  0.003  0.466-  50 1.75  27 2.23
  64  0.864  0.590  0.742-  48 1.59  35 1.70   9 2.03
  65  0.557  0.561  0.645-  34 1.55  26 2.19   6 2.30
  66  0.523  0.387  0.369-  37 1.53   1 2.12
  67  0.396  0.535  0.871-  52 1.73  20 2.19  11 2.52
  68  0.989  0.332  0.057-  33 1.65  54 1.84  17 2.35
  69  0.055  0.726  0.787-  35 1.66
  70  0.665  0.253  0.418-  37 1.63  50 1.76  10 2.54
  71  0.862  0.152  0.387-  50 1.61   5 2.07
  72  0.487  0.187  0.451-  37 1.54  19 2.25  10 2.28
  73  0.692  0.743  0.785-  42 1.59  26 2.08
  74  0.259  0.215  0.414-  31 1.58  19 1.98   2 2.10
  75  0.926  0.134  0.690-  44 1.64  32 1.65
  76  0.229  0.931  0.926-  30 1.55   4 2.53  16 2.54
  77  0.171  0.815  0.565-  47 1.60   4 2.18  14 2.27  15 2.35
  78  0.535  0.425  0.004-  52 1.65  38 1.87   1 2.43
  79  0.399  0.917  0.318-  53 1.71  14 2.18  27 2.42
  80  0.578  0.866  0.165-  41 1.73  25 1.98   3 2.54
  81  0.266  0.056  0.264-  39 1.87  31 1.88  53 1.90
  82  0.078  0.193  0.838-  36 1.76  32 1.86  17 2.48
  83  0.300  0.516  0.375-  51 1.55   6 2.28  23 2.34
  84  0.743  0.140  0.164-  46 1.65
  85  0.896  0.660  0.405-  45 1.69  13 2.16
  86  0.749  0.467  0.640-  48 1.63  34 1.70
  87  0.260  0.667  0.687-  47 1.67   4 2.45  20 2.49
  88  0.760  0.099  0.887-  49 1.63   8 2.12  17 2.56
  89  0.577  0.264  0.134-  46 1.49   1 2.03  24 2.05  10 2.28
  90  0.182  0.979  0.453-  39 1.60  14 2.47
  91  0.821  0.855  0.489-  45 1.63  15 2.07   9 2.54  21 2.54
  92  0.040  0.536  0.899-  35 1.65  12 2.24  20 2.27
  93  0.711  0.468  0.878-  38 1.50  48 1.89  18 2.35
  94  0.079  0.663  0.234-  43 1.50  12 2.23  23 2.24
  95  0.560  0.638  0.977-  52 1.71  18 2.14  26 2.43
  96  0.174  0.252  0.018-  33 1.63  36 1.70   7 2.25
  97  0.236  0.938  0.120-  30 1.77  53 1.84   7 2.32
  98  0.166  0.651  0.465-  51 1.67  47 1.70
  99  0.141  0.187  0.612-  32 1.76  22 2.18  19 2.47   2 2.49
 100  0.434  0.555  0.129-  52 1.64  25 2.40  23 2.50   1 2.50
 101  0.878  0.815  0.752-  42 1.64  21 2.47   9 2.48
 102  0.200  0.366  0.795-  36 1.58  11 2.12  22 2.54
 103  0.763  0.132  0.579-  50 1.64  44 1.68  21 2.22
 104  0.763  0.291  0.723-  44 1.63   8 2.20  48 2.28
 105  0.236  0.680  0.031-  30 2.02  20 2.32  23 2.39
 106  0.730  0.764  0.028-  41 1.61  42 2.25  18 2.42
 107  0.295  0.186  0.880-  36 1.54  40 1.64
 108  0.841  0.903  0.898-  42 1.64  49 1.92  16 2.19
 109  0.719  0.279  0.969-  38 1.59  46 1.78  17 2.29
 110  0.749  0.968  0.068-  41 1.59  49 1.64
 111  0.471  0.862  0.589-  28 1.50  27 2.54
[...]
 121  0.951  0.363  0.269-  54 1.57  13 2.44
 122  0.087  0.440  0.404-  51 1.67  13 2.01
 123  0.692  0.608  0.229-  29 1.64  18 2.29  25 2.34
 124  0.868  0.665  0.921-  35 1.72  42 1.85
 125  0.539  0.330  0.833-  38 1.64  11 2.29   8 2.49
 126  0.381  0.253  0.213-  31 1.67  24 2.18  10 2.55
 127  0.411  0.837  0.810-  28 1.79   4 2.41  26 2.45   3 2.46
 128  0.226  0.465  0.569-  51 1.64  22 2.25
 129  0.054  0.065  0.293-  39 1.71   5 2.02   2 2.16   7 2.50
 130  0.462  0.076  0.900-  40 1.60   3 2.31  24 2.49
 131  0.344  0.012  0.723-  40 1.65  28 1.90   4 2.25
 132  0.389  0.207  0.703-  40 1.64  11 2.01  19 2.13
 133  0.507  0.639  0.359-  29 1.68  25 2.12   6 2.31
 134  0.921  0.301  0.548-  44 1.65  22 2.26
 135  0.554  0.329  0.599-  34 1.72  37 1.76

IMPORTANT INFORMATION: All symmetrisations will be switched off!
NOSYMM: (Re-)initialisation of all symmetry stuff for point group C_1.

Automatic generation of k-mesh.
 generate k-points for:    2    2    2
Space group operators:
 irot       det(A)        alpha          n_x          n_y          n_z        tau_x        tau_y        tau_z
    1     1.000000     0.000000     1.000000     0.000000     0.000000     0.000000     0.000000     0.000000

 Subroutine IBZKPT returns following result:

 Found      8 irreducible k-points:

 Following reciprocal coordinates:
            Coordinates               Weight
  0.000000  0.000000  0.000000      1.000000
  0.500000  0.000000  0.000000      1.000000
  0.000000  0.500000  0.000000      1.000000
  0.500000  0.500000  0.000000      1.000000
  0.000000  0.000000  0.500000      1.000000
  0.500000  0.000000  0.500000      1.000000
  0.000000  0.500000  0.500000      1.000000
  0.500000  0.500000  0.500000      1.000000

 Following cartesian coordinates:
            Coordinates               Weight
  0.000000  0.000000  0.000000      1.000000
  0.041344  0.000000  0.000000      1.000000
  0.000000  0.041344  0.000000      1.000000
  0.041344  0.041344  0.000000      1.000000
  0.000000  0.000000  0.041344      1.000000
  0.041344  0.000000  0.041344      1.000000
  0.000000  0.041344  0.041344      1.000000
  0.041344  0.041344  0.041344      1.000000

 SYSTEM =  unknown system
 POSCAR =  Ca Si  O

 Startparameter for this run:
   NWRITE =      2    write-flag & timer
   PREC   = a         normal or accurate (medium, high low for compatibility)
   ISTART =      0    job   : 0-new  1-cont  2-samecut
   ICHARG =      2    charge: 1-file 2-atom 10-const
   ISPIN  =      1    spin polarized calculation?
   LNONCOLLINEAR =      F non collinear calculations
   LSORBIT =      F    spin-orbit coupling
   INIWAV =      1    electr: 0-lowe 1-rand  2-diag
   LASPH  =      F    aspherical Exc in radial PAW
   METAGGA=      F    non-selfconsistent MetaGGA calc.

 Electronic Relaxation 1
   ENCUT  =  600.0 eV  44.10 Ry    6.64 a.u.  24.15 24.15 24.15*2*pi/ulx,y,z
   ENINI  =  600.0     initial cutoff
   ENAUG  =  605.4 eV  augmentation charge cutoff
   NELM   =     60;   NELMIN=  2; NELMDL= -5     # of ELM steps
   EDIFF  = 0.1E-05   stopping-criterion for ELM
   LREAL  =      T    real-space projection
   NLSPLINE    = F    spline interpolate recip. space projectors
   LCOMPAT=      F    compatible to vasp.4.4
   GGA_COMPAT  = T    GGA compatible to vasp.4.4-vasp.4.6
   LMAXPAW     = -100 max onsite density
   LMAXMIX     =    2 max onsite mixed and CHGCAR
   VOSKOWN=      0    Vosko Wilk Nusair interpolation
   ROPT   =   -0.00025  -0.00025  -0.00025
 Ionic relaxation
   EDIFFG = -.1E-01   stopping-criterion for IOM
   NSW    =      1    number of steps for IOM
   NBLOCK =      1;   KBLOCK =      1    inner block; outer block
   IBRION =     -1    ionic relax: 0-MD 1-quasi-New 2-CG
   NFREE  =      0    steps in history (QN), initial steepest desc. (CG)
   ISIF   =      2    stress and relaxation
[...]
     0.000000000  0.000000000 12.093787620     0.000000000  0.000000000  0.082687081

  length of vectors
    12.093787620 12.093787620 12.093787620     0.082687081  0.082687081  0.082687081

 FORCES acting on ions
    electron-ion (+dipol)            ewald-force                    non-local-force                 convergence-correction
   0.603E+02 -.110E+03 -.160E+03   -.649E+02 0.110E+03 0.163E+03   0.249E+01 0.265E+01 -.135E+01   -.405E-03 -.123E-02 0.322E-03
   0.156E+03 -.972E+02 -.793E+02   -.157E+03 0.971E+02 0.793E+02   -.261E+01 0.127E+01 0.137E+01   -.126E-03 0.384E-03 0.396E-03
   -.785E+02 0.764E+01 0.664E+02   0.743E+02 -.728E+01 -.658E+02   0.399E+01 -.508E+00 -.362E+00   -.203E-03 0.275E-03 -.376E-03
   -.563E+02 0.477E+01 -.661E+02   0.557E+02 -.463E+01 0.655E+02   0.316E-01 -.301E+00 0.174E+01   -.330E-03 0.337E-03 -.125E-03
   0.130E+03 0.237E+02 0.913E+02   -.131E+03 -.212E+02 -.898E+02   -.237E+01 -.419E+01 -.342E+01   -.678E-03 0.627E-03 0.587E-03
   0.429E+02 -.335E+02 -.106E+03   -.436E+02 0.323E+02 0.101E+03   -.166E+00 0.941E+00 0.385E+01   0.723E-03 -.861E-03 -.351E-03
   0.618E+02 0.285E+02 0.985E+02   -.614E+02 -.307E+02 -.977E+02   -.462E+00 0.779E+00 -.606E+00   0.215E-03 0.209E-03 0.423E-03
   0.147E+03 0.814E+02 0.824E+02   -.147E+03 -.812E+02 -.805E+02   -.184E+01 -.238E+00 -.214E+01   -.330E-03 0.294E-03 -.981E-03
   0.220E+03 0.597E+02 0.142E+03   -.215E+03 -.578E+02 -.139E+03   -.568E+01 -.600E+00 -.384E+01   -.306E-03 -.218E-03 0.641E-03
   -.795E+02 0.188E+03 -.101E+03   0.766E+02 -.186E+03 0.999E+02   0.229E+01 -.295E+01 0.668E+00   0.195E-04 0.733E-03 0.662E-03
   -.847E+01 -.201E+03 0.107E+03   0.101E+02 0.200E+03 -.105E+03   0.343E+00 0.407E+01 -.189E+01   0.885E-03 -.200E-03 -.643E-03
   -.682E+02 -.682E+02 -.537E+02   0.679E+02 0.689E+02 0.522E+02   0.277E+01 0.225E+01 0.137E+00   -.132E-02 -.866E-03 -.331E-03
   0.160E+03 0.456E+02 0.443E+01   -.157E+03 -.456E+02 -.101E+02   -.554E+01 -.709E+00 0.463E+01   -.938E-03 -.806E-03 0.523E-03
   -.198E+03 0.116E+03 -.608E+02   0.192E+03 -.110E+03 0.620E+02   0.453E+01 -.503E+01 -.100E+00   -.130E-03 0.338E-03 0.110E-02
   -.351E+02 -.194E+03 -.890E+01   0.409E+02 0.188E+03 0.830E+01   -.135E+01 0.546E+01 0.162E+01   -.459E-04 0.943E-03 0.611E-03
   -.114E+03 -.373E+02 -.478E+02   0.112E+03 0.326E+02 0.462E+02   0.261E+01 0.302E+01 0.784E+00   0.128E-04 -.384E-03 -.969E-03
   -.941E+02 0.570E+02 -.571E+02   0.964E+02 -.551E+02 0.552E+02   -.127E+01 -.312E+01 0.177E+01   -.907E-03 0.279E-03 -.112E-03
   -.111E+03 -.157E+02 -.489E+02   0.113E+03 0.234E+02 0.472E+02   0.287E+00 -.569E+01 0.139E+01   0.241E-03 -.227E-03 -.833E-03
   -.827E+02 0.973E+02 -.136E+02   0.832E+02 -.961E+02 0.138E+02   -.199E+00 -.362E+01 0.121E+01   0.566E-03 0.574E-03 -.601E-03
   -.548E+02 0.136E+02 0.354E+02   0.535E+02 -.113E+02 -.343E+02   0.194E+00 -.149E+01 -.144E+01   0.430E-03 -.126E-03 -.570E-03
   0.858E+02 0.568E+02 -.229E+02   -.877E+02 -.591E+02 0.224E+02   0.112E+01 0.630E+00 0.981E+00   -.372E-03 0.913E-03 -.718E-03
   0.116E+02 -.141E+03 -.364E+02   -.867E+01 0.140E+03 0.362E+02   -.250E+01 0.255E+01 0.136E+01   -.554E-03 -.372E-03 0.276E-03
   -.783E+02 0.338E+02 -.640E+02   0.781E+02 -.370E+02 0.610E+02   0.146E+01 0.261E+01 0.228E+01   0.100E-02 -.253E-03 0.132E-03
   0.135E+03 -.376E+02 0.148E+03   -.135E+03 0.338E+02 -.145E+03   -.193E+01 0.296E+01 -.549E+01   0.149E-02 0.156E-03 0.564E-03
   0.132E+03 -.228E+01 -.752E+01   -.136E+03 0.120E+01 0.291E+01   0.320E+00 -.753E+00 0.132E+01   -.272E-03 -.148E-03 -.674E-03
   0.126E+03 -.405E+02 0.112E+03   -.125E+03 0.404E+02 -.108E+03   -.330E+01 -.295E+00 -.223E+01   0.170E-03 -.166E-03 0.644E-03
   0.750E+02 -.748E+02 -.110E+03   -.724E+02 0.771E+02 0.113E+03   -.247E+01 -.156E+01 -.152E+01   0.474E-03 0.105E-02 0.504E-03
   -.145E+02 0.152E+02 0.209E+02   0.210E+02 -.182E+02 -.262E+02   -.825E+01 0.489E+01 0.116E+02   0.859E-04 0.402E-03 0.224E-03
   -.450E+02 0.849E+02 -.436E+02   0.427E+02 -.769E+02 0.419E+02   0.192E+01 -.920E+01 0.420E+01   -.185E-05 -.507E-03 0.281E-03
   0.627E+01 0.973E+02 0.430E+02   -.730E+01 -.887E+02 -.428E+02   0.242E+01 -.131E+02 0.594E+01   0.246E-03 -.713E-04 -.171E-03
   -.283E+02 -.667E+02 0.213E+02   0.341E+02 0.694E+02 -.164E+02   -.352E+01 -.269E+01 -.795E+01   0.303E-03 0.154E-03 0.506E-03
   -.303E+02 -.172E+02 -.164E+02   0.321E+02 0.710E+01 0.120E+02   0.450E+00 0.154E+02 0.433E+01   -.146E-03 -.102E-03 -.298E-03
   0.112E+02 -.458E+02 -.483E+02   -.496E+01 0.517E+02 0.430E+02   -.454E+01 -.239E+01 0.631E+01   0.680E-04 -.190E-03 0.125E-03
   0.759E+01 0.431E+02 0.235E+02   -.985E+01 -.342E+02 -.187E+02   0.666E+01 -.913E+01 -.667E+01   0.824E-04 -.641E-03 -.142E-03
   -.535E+02 0.310E+02 0.172E+02   0.593E+02 -.289E+02 -.101E+02   -.410E+01 -.741E+00 -.540E+01   -.201E-03 0.203E-05 -.541E-04
   0.258E+02 -.516E+02 -.243E+02   -.238E+02 0.497E+02 0.173E+02   -.826E+01 0.982E+00 0.690E+01   0.253E-03 -.113E-03 -.110E-03
   0.263E+02 -.473E+02 -.733E+02   -.284E+02 0.416E+02 0.619E+02   0.340E+01 0.463E+01 0.132E+02   0.273E-03 -.423E-03 0.872E-04
   0.370E+02 0.167E+02 0.184E+02   -.384E+02 -.137E+02 -.241E+02   -.719E+01 -.449E+01 0.551E+01   0.615E-04 -.178E-03 0.991E-04
   0.300E+02 -.112E+02 0.160E+00   -.273E+02 0.943E+01 0.933E+01   -.237E+01 0.697E+01 -.739E+01   -.581E-04 0.559E-03 0.206E-03
   -.307E+01 0.306E+02 0.662E+01   0.615E+01 -.308E+02 -.701E+01   -.293E+01 -.247E+00 -.673E+00   0.171E-03 0.171E-03 -.306E-03
   -.264E+02 -.147E+02 -.395E+02   0.249E+02 0.127E+02 0.318E+02   0.866E+00 0.719E+00 0.928E+01   -.129E-03 0.174E-03 -.215E-03
   0.745E+02 -.836E+01 -.673E+02   -.717E+02 0.101E+02 0.545E+02   -.673E+00 -.338E+01 0.146E+02   -.121E-03 -.758E-04 0.107E-03
   0.324E+02 -.854E+01 0.292E+02   -.341E+02 -.115E+00 -.315E+02   -.339E+00 0.124E+02 0.250E+01   -.198E-03 -.131E-03 0.211E-03
   -.103E+02 -.407E+02 0.510E+02   0.105E+02 0.429E+02 -.521E+02   0.144E+00 -.423E+00 -.402E+00   -.563E-03 -.254E-03 -.201E-03
   0.192E+01 0.321E+01 0.812E+02   -.415E+00 -.836E+01 -.722E+02   -.670E+00 0.315E+01 -.109E+02   -.216E-03 0.300E-03 0.291E-03
   -.106E+03 0.540E+02 0.217E+01   0.100E+03 -.589E+02 0.711E+01   0.129E+02 0.126E+01 -.952E+01   -.620E-03 0.275E-03 -.559E-04
   -.232E+02 0.127E+03 -.359E+02   0.243E+02 -.116E+03 0.336E+02   -.369E+01 -.108E+02 0.267E+01   -.369E-04 0.308E-03 0.237E-03
   0.300E+02 0.164E+02 0.130E+02   -.187E+02 -.156E+02 -.152E+02   -.110E+02 -.416E+01 0.447E+01   -.367E-03 -.114E-03 -.728E-04
   -.983E+01 0.505E+01 -.398E+02   0.777E+01 -.369E+01 0.357E+02   -.406E+00 -.430E+01 0.220E+01   -.389E-03 -.164E-03 -.183E-03
   0.408E+02 -.754E+01 0.617E+02   -.341E+02 0.545E+01 -.596E+02   -.804E+01 0.153E+01 -.172E+01   -.522E-03 0.307E-03 0.385E-03
   0.179E+02 0.249E+02 0.173E+02   -.127E+02 -.278E+02 -.179E+02   -.749E+01 0.961E+00 0.143E+01   0.239E-03 -.151E-03 0.391E-04
   0.128E+03 -.151E+02 0.303E+02   -.121E+03 0.184E+02 -.284E+02   -.571E+01 -.245E+00 -.369E+01   0.219E-03 -.264E-04 -.542E-04
   -.348E+02 0.617E+02 0.500E+01   0.383E+02 -.536E+02 -.560E+01   -.751E+01 -.117E+02 0.198E+01   0.360E-03 0.394E-03 -.267E-03
   0.114E+02 0.428E+02 -.538E+02   -.509E+01 -.344E+02 0.603E+02   -.643E+01 -.125E+02 -.455E+01   -.557E-03 0.868E-04 -.258E-03
   -.537E+01 0.140E+02 -.780E+01   0.112E+02 -.482E+02 0.371E+01   -.554E+01 0.307E+02 0.509E+01   0.310E-06 -.991E-03 -.179E-03
   -.104E+03 -.112E+02 -.145E+03   0.102E+03 0.260E+02 0.163E+03   0.313E+01 -.149E+02 -.191E+02   -.925E-04 0.193E-03 -.113E-03
   -.353E+02 0.138E+03 0.367E+02   0.196E+02 -.137E+03 -.276E+02   0.169E+02 -.298E+01 -.126E+02   -.138E-03 -.334E-03 0.255E-03
   -.819E+02 -.177E+02 0.153E+02   0.100E+03 0.354E+02 -.204E+02   -.201E+02 -.176E+02 0.549E+01   0.188E-03 -.640E-04 -.155E-03
   -.352E+02 0.441E+02 0.490E+02   0.549E+02 -.313E+02 -.434E+02   -.185E+02 -.127E+02 -.559E+01   0.911E-03 0.572E-03 0.533E-04
   0.106E+02 0.753E+02 0.189E+02   0.667E+00 -.896E+02 -.107E+02   -.115E+02 0.172E+02 -.953E+01   -.175E-03 0.175E-03 -.743E-03
[...]
   -.444E+02 0.411E+02 0.706E+02   0.321E+02 -.574E+02 -.851E+02   0.150E+02 0.166E+02 0.160E+02   -.167E-03 -.915E-03 -.119E-03
   -.151E+03 0.437E+02 -.378E+02   0.169E+03 -.408E+02 0.175E+02   -.193E+02 -.492E+01 0.213E+02   0.305E-03 -.597E-03 -.314E-03
   0.595E+01 -.969E+01 -.102E+03   -.146E+02 0.225E+01 0.124E+03   0.890E+01 0.952E+01 -.227E+02   -.845E-03 0.100E-03 -.546E-04
   0.648E+02 -.318E+01 0.653E+02   -.854E+02 -.566E+00 -.788E+02   0.228E+02 0.215E+01 0.134E+02   0.549E-03 -.182E-03 -.143E-03
   0.721E+02 -.134E+03 -.572E+02   -.541E+02 0.146E+03 0.484E+02   -.205E+02 -.123E+02 0.108E+02   0.393E-03 0.228E-03 0.591E-03
   -.285E+01 0.898E+02 -.272E+02   -.827E+01 -.990E+02 0.412E+02   0.140E+02 0.955E+01 -.157E+02   0.151E-04 -.354E-03 0.635E-03
   -.888E+02 0.255E+02 -.730E+02   0.963E+02 -.332E+02 0.946E+02   -.669E+01 0.756E+01 -.207E+02   0.500E-03 -.220E-03 0.838E-03
   0.663E+02 -.259E+02 0.301E+02   -.773E+02 0.404E+02 -.336E+02   0.136E+02 -.164E+02 0.224E+01   -.640E-04 0.170E-03 0.409E-04
   -.598E+02 0.336E+02 -.399E+02   0.751E+02 -.423E+02 0.598E+02   -.142E+02 0.937E+01 -.197E+02   0.638E-03 -.120E-03 0.366E-03
   0.252E+02 0.875E+01 0.764E+02   -.425E+02 -.175E+02 -.881E+02   0.184E+02 0.808E+01 0.104E+02   -.183E-03 0.165E-03 -.148E-03
   -.566E+02 0.638E+01 0.874E+02   0.605E+02 0.550E+01 -.105E+03   -.242E+01 -.131E+02 0.179E+02   0.820E-03 -.480E-04 -.666E-03
   0.132E+03 -.549E+01 -.880E+02   -.156E+03 0.594E+01 0.892E+02   0.236E+02 -.107E+00 -.305E+00   -.769E-03 -.646E-03 0.494E-03
   0.396E+02 -.614E+02 0.109E+03   -.300E+02 0.722E+02 -.129E+03   -.102E+02 -.106E+02 0.216E+02   -.319E-03 -.267E-04 -.414E-03
   0.424E+02 0.231E+02 -.217E+02   -.507E+02 -.445E+02 0.443E+02   0.901E+01 0.246E+02 -.245E+02   0.443E-03 -.340E-03 0.146E-03
   0.148E+03 0.904E+02 -.312E+02   -.810E-12 0.853E-13 0.227E-12   -.148E+03 -.904E+02 0.312E+02   -.494E-03 0.180E-02 -.156E-02

 POSITION                                       TOTAL-FORCE (eV/Angst)
      6.88424      5.03960      2.44423        -2.128249      3.456210      1.600750
      1.04761      2.32504      5.00770        -3.225560      1.186958      1.347612
      6.26646     10.97282     11.70934        -0.186459     -0.145075      0.237788
      2.79396     10.44565      8.80745        -0.563950     -0.153882      1.162022
     10.79104      0.32276      3.32594        -2.635295     -1.633539     -1.842783
      5.08381      6.81954      6.19457        -0.890542     -0.248144     -1.167806
      1.50077      1.13070      1.21962        -0.016837     -1.396733      0.145116
      7.78493      1.97332      9.34185        -2.316982     -0.074138     -0.185414
     10.00531      8.23374      7.32659        -0.531567      1.337288     -1.210788
      6.65266      1.75182      3.36943        -0.625555     -0.749183     -0.273499
      4.48107      4.41154      9.10636         1.975136      3.170031     -0.372373
      0.24047      7.36780      0.81296         2.460538      2.891464     -1.446538
     11.24081      5.87701      5.17623        -1.715340     -0.665168     -1.007513
      3.64565      9.85756      5.20137        -1.525688      0.137603      1.084371
     11.90358     10.43279      6.52997         4.476965     -0.060563      1.018078
      0.26011     10.91079     11.06465         0.483808     -1.671838     -0.803047
     10.82799      3.14866     10.91441         1.116736     -1.240583     -0.065840
      8.55001      6.85015      0.53700         2.375688      1.942436     -0.323318
      4.00810      1.82470      6.60955         0.258206     -2.483425      1.412440
      2.66448      7.00776     10.50707        -1.094792      0.775492     -0.381615
      9.42191     11.71651      7.98939        -0.798356     -1.639590      0.543518
      1.01055      4.32816      7.50105         0.477054      1.243573      1.142546
      2.94823      7.06517      2.45636         1.218775     -0.559848     -0.684821
      5.30654      2.66885      0.54932        -2.004463     -0.747020     -1.987331
      6.43211      8.61931      2.44395        -2.984937     -1.829214     -3.287283
      6.44384      8.19492      9.45283        -1.593737     -0.395625      1.512304
      6.92801     10.53541      4.90351         0.133333      0.786184      0.765589
      5.65258     11.09616      8.46294        -1.757307      1.852663      6.258156
      7.76748      7.37790      4.29376        -0.441471     -1.190629      2.493873
      3.20597     10.20474      0.15419         1.391890     -4.551679      6.159077
      3.27686      2.54127      3.43788         2.266995     -0.002100     -3.045826
      0.71646      1.37147      8.55576         2.249474      5.353691      0.000010
      1.38853      3.99597      1.32740         1.709072      3.558543      1.007935
      7.44199      5.53633      7.21696         4.400908     -0.154674     -1.881078
     11.71407      7.59350     10.00983         1.697636      1.366423      1.637342
      2.37084      3.22263     10.64040        -6.238775     -0.927671     -0.141856
      6.59129      3.62400      5.52806         1.285758     -1.037574      1.821384
      7.78591      4.45445     10.99881        -8.544871     -1.398054     -0.188230
      1.85290     11.72063      3.91434         0.339919      5.223340      2.096213
      4.61116      1.39724      9.70731         0.147231     -0.447998     -1.064044
      8.64526     10.32812      1.51211        -0.642794     -1.209908      1.649328
      9.62266      9.46094     10.33866         2.160833     -1.667121      1.820547
      0.70288      9.49089      2.81875        -2.066927      3.791750      0.214596
     10.22257      2.77467      7.69592         0.376160      1.836662     -1.466350
     10.02803      9.42289      4.56655         0.834106     -1.997172     -2.003745
      8.44478      3.12346      1.36267         7.579768     -3.645444     -0.244112
      1.87145      8.32058      7.25771        -2.558634      0.023127      0.442872
      9.82389      5.68233      9.17916         0.244008     -3.416883      2.292947
     10.04285      0.43150     11.89631        -2.473354     -2.944886     -1.909337
      8.99706      1.62494      5.38524        -1.299149     -0.570263      0.469410
      2.33798      6.24886      5.41031        -2.306148     -1.955072      0.808515
      5.57601      6.51637     12.06147         0.969880      3.058324     -1.830663
      4.46298     11.66356      2.27536        -3.978047     -3.579654      1.382033
     10.87816      4.87848      1.89272        -0.134121     -4.086210      1.966719
      0.96838     11.97462      8.50118         0.240178     -3.427972      0.997982
      9.12636      4.46384      2.07627         0.701964     -0.017812     -1.635700
      0.15214      8.38582      7.52104         1.183277     -2.268920     -3.524288
      2.33180      5.31892      1.20674        -1.707874      0.080139      0.348125
      6.95437     11.97602      8.77867         1.164858      0.124586     -0.028987
      4.66912      9.82747      1.12430        -0.215181      2.894149     -1.285860
[...]
     11.50131      4.39478      3.25144        -0.506161      0.674860     -0.055140
      1.05337      5.32340      4.89060         2.618803      0.401904      1.475279
      8.37316      7.35244      2.76539        -1.605173     -2.021500      0.977361
     10.49498      8.03763     11.13432         0.217777      2.092749     -0.740658
      6.51593      3.99047     10.07123         2.256110     -1.600019     -0.103759
      4.61143      3.05890      2.57520        -2.513003     -0.539843      1.970300
      4.96533     10.12343      9.80137         2.854470      0.323065     -1.687426
      2.73431      5.62833      6.87778         0.773477     -0.145690      0.913172
      0.65435      0.78459      3.54300         2.589402     -1.910209     -1.270392
      5.58928      0.92465     10.88354         1.102110      0.706578      0.113367
      4.16065      0.14140      8.73877         1.166187     -0.709595     -1.310586
      4.70571      2.50547      8.49949         1.517448     -1.263878      0.525789
      6.12656      7.72897      4.34236         0.040440      0.336879      0.961191
     11.13434      3.63646      6.62754        -0.592716      0.133988      1.138620
      6.70366      3.98270      7.24493         0.699363      3.207080     -1.870291
    total drift:                               -0.023013     -0.034373     -0.032791

  FREE ENERGIE OF THE ION-ELECTRON SYSTEM (eV)
  free  energy   TOTEN  =      -941.83248065 eV

  energy  without entropy=     -941.83248065  energy(sigma->0) =     -941.83248065