 vasp.5.4.4.18Apr17-6-g9f103f2a35 (build Oct 31 2019 15:01:46) complex

 executed on             LinuxIFC date 2024.04.29  18:47:50

 INCAR:
 POTCAR:    PAW_PBE Ca_sv 06Sep2000
 POTCAR:    PAW_PBE Si 05Jan2001
 POTCAR:    PAW_PBE O 08Apr2002
 POTCAR:    PAW_PBE Ca_sv 06Sep2000
   VRHFIN =Ca: 3s3p4s

   TITEL  = PAW_PBE Ca_sv 06Sep2000
   POMASS =   40.078; ZVAL   =   10.000    mass and valenz
   ENMAX  =  266.622; ENMIN  =  199.967 eV

   TITEL  = PAW_PBE Si 05Jan2001
   POMASS =   28.085; ZVAL   =    4.000    mass and valenz
   ENMAX  =  245.345; ENMIN  =  184.009 eV

   TITEL  = PAW_PBE O 08Apr2002
   POMASS =   16.000; ZVAL   =    6.000    mass and valenz
   ENMAX  =  400.000; ENMIN  =  300.000 eV

 Optimization of the real space projectors (new method)

 maximal supplied QI-value         = 16.25
 optimisation between [QCUT,QGAM] = [ 12.51, 25.03] = [ 43.85,175.40] Ry
 Optimized for a Real-space Cutoff    1.47 Angstroem

   l    n(q)    QCUT    max X(q) W(low)/X(q) W(high)/X(q)  e(spline)
   0     11    12.514    11.817    0.25E-04    0.32E-05    0.87E-07
   0     11    12.514     8.461    0.39E-04    0.59E-05    0.18E-06
   1     11    12.514     3.957    0.97E-05    0.57E-05    0.28E-07
   1     11    12.514     4.314    0.42E-04    0.14E-04    0.23E-06
   2     10    12.514    14.565    0.79E-04    0.50E-03    0.16E-05
   2     10    12.514    14.552    0.75E-04    0.48E-03    0.15E-05
 Optimization of the real space projectors (new method)

[...]

   l    n(q)    QCUT    max X(q) W(low)/X(q) W(high)/X(q)  e(spline)
   0      9    12.501   159.560    0.10E-03    0.83E-04    0.71E-07
   0      9    12.501   115.863    0.99E-04    0.81E-04    0.70E-07
   1      8    12.501    88.339    0.20E-03    0.25E-03    0.76E-07
   1      8    12.501    48.592    0.20E-03    0.24E-03    0.75E-07
 Optimization of the real space projectors (new method)

 maximal supplied QI-value         = 24.76
 optimisation between [QCUT,QGAM] = [ 12.38, 25.00] = [ 42.90,175.06] Ry
 Optimized for a Real-space Cutoff    1.16 Angstroem

   l    n(q)    QCUT    max X(q) W(low)/X(q) W(high)/X(q)  e(spline)
   0      9    12.378    20.381    0.16E-03    0.67E-05    0.31E-06
   0      9    12.378    15.268    0.17E-03    0.81E-05    0.33E-06
   1      8    12.378     5.964    0.20E-03    0.16E-03    0.30E-06
   1      8    12.378     5.382    0.18E-03    0.14E-03    0.26E-06
  PAW_PBE Ca_sv 06Sep2000               :
  PAW_PBE Si 05Jan2001                  :
  PAW_PBE O 08Apr2002                   :

 POSCAR: Ca Si  O
  positions in direct lattice
 exchange correlation table for  LEXCH =        8
   RHO(1)=    0.500       N(1)  =     2000
   RHO(2)=  100.500       N(2)  =     4000

 ion  position               nearest neighbor table
   1  0.761  0.424  0.544-  96 2.02 102 2.32 128 2.39
   2  0.164  0.505  0.135-  71 2.10  79 2.35 105 2.45  34 3.00
   3  0.569  0.469  0.295-  80 2.24  58 2.35
   4  0.586  0.013  0.948-  82 2.13 135 2.33  88 2.44  87 2.48  37 3.05  30 3.06
   5  0.350  0.450  0.888-  85 2.13 108 2.16  63 2.26  69 2.37  44 3.11
   6  0.951  0.347  0.378- 116 2.17 110 2.20  89 2.47  10 2.76
   7  0.812  0.860  0.736- 131 1.98  78 2.20  81 2.35  91 2.36  28 3.11  33 3.13
   8  0.824  0.652  0.402- 125 2.06 100 2.14  65 2.32  80 2.49  41 2.78  54 3.07
   9  0.319  0.165  0.473- 114 2.06 119 2.14  77 2.22  73 2.31
  10  0.905  0.136  0.423-  76 2.06 116 2.09  57 2.39  67 2.57   6 2.76  19 2.95
  11  0.611  0.238  0.722- 128 2.27  63 2.51
  12  0.080  0.874  0.276-  66 2.05  60 2.23 104 2.28  49 3.06  19 3.09
  13  0.307  0.978  0.930-  84 2.18  86 2.27 112 2.32 109 2.47  45 2.93  49 2.96
  14  0.332  0.822  0.434- 120 2.11 104 2.16  99 2.21  68 2.25  32 3.01  38 3.14  50 3.14
  15  0.363  0.431  0.544-  90 2.25  77 2.42 130 2.47 107 2.52  42 2.76  51 3.03  48 3.04
  16  0.816  0.960  0.119- 135 2.09 132 2.17  59 2.30  61 2.55  35 2.70  47 3.04
  17  0.523  0.704  0.843-  69 2.03 122 2.11 115 2.45  82 2.50
  18  0.144  0.537  0.702-  90 2.00  85 2.06 101 2.49  34 2.82  41 3.12
  19  0.082  0.996  0.491-  66 2.32  70 2.32 104 2.37  57 2.48  10 2.95  12 3.09  33 3.14
  20  0.622  0.432  0.925- 115 2.30  63 2.31 113 2.45  56 2.50  44 2.96
  21  0.798  0.622  0.964- 123 2.08 124 2.29 131 2.40  61 2.46  47 2.90  28 3.05
  22  0.029  0.735  0.900- 101 2.17 112 2.40  45 3.09
  23  0.588  0.703  0.536- 120 2.15  80 2.22
  24  0.354  0.228  0.163-  87 2.40  79 2.49 114 2.50
  25  0.107  0.036  0.767-  70 2.22 127 2.36  84 2.37  81 2.56  43 3.14
  26  0.941  0.222  0.037-  83 2.07 132 2.50  35 2.97
  27  0.607  0.942  0.419- 134 2.03 120 2.08
  28  0.851  0.614  0.726- 131 1.58  94 1.61 102 1.70  55 1.82  21 3.05   7 3.11
  29  0.610  0.228  0.464-  58 1.66  67 1.77 128 1.80 119 1.82  36 2.45
  30  0.513  0.022  0.181-  72 1.73 133 1.76 118 1.81  87 1.95  32 2.81  37 3.01   4 3.06
  31  0.211  0.581  0.372-  71 1.52 130 1.65  99 1.73  42 2.46
  32  0.306  0.987  0.260-  92 1.71 104 1.88  72 1.96  97 2.00 109 2.15  30 2.81  14 3.01  40 3.12

  33  0.853  0.893  0.491-  91 1.49 100 1.70  76 1.74 125 2.50   7 3.13  19 3.14
  34  0.095  0.464  0.909- 105 1.57  85 1.74 106 1.76  74 1.77  18 2.82   2 3.00  43 3.02
  35  0.874  0.025  0.922-  81 1.48 135 1.55 132 1.68  16 2.70  26 2.97
  36  0.690  0.205  0.287- 129 1.67  58 1.71 118 1.73  67 1.76  29 2.45
  37  0.590  0.814  0.089- 124 1.59  82 1.64 133 1.68  98 1.70  30 3.01   4 3.05
  38  0.378  0.704  0.218-  99 1.80  97 1.82 121 1.82  98 1.88 117 2.36  44 2.93  14 3.14  49 3.14

[...]

  51  0.547  0.489  0.691- 107 1.60  96 1.64 115 1.86  63 2.14  15 3.03
  52  0.989  0.252  0.652-  89 1.51  57 1.59  95 1.71  62 2.00 127 2.48  46 3.12
  53  0.178  0.804  0.654-  70 1.67  64 1.83 101 1.86  68 1.95  84 2.30  45 2.53  50 2.54
  54  0.893  0.535  0.198- 110 1.51  65 1.68  93 1.71 123 1.71  47 2.46   8 3.07
  55  0.844  0.483  0.787-  46 1.62  28 1.82
  56  0.788  0.321  0.925-  46 1.60  20 2.50
  57  0.994  0.141  0.591-  52 1.59  10 2.39  19 2.48
  58  0.604  0.292  0.348-  29 1.66  36 1.71   3 2.35
  59  0.851  0.832  0.245-  47 1.69  16 2.30
  60  0.079  0.805  0.112-  49 1.69  12 2.23
  61  0.880  0.781  0.046-  47 1.64  21 2.46  16 2.55
  62  0.142  0.220  0.681-  48 1.66  52 2.00
  63  0.493  0.376  0.806-  51 2.14   5 2.26  20 2.31  11 2.51
  64  0.128  0.711  0.553-  41 1.73  53 1.83
  65  0.930  0.652  0.250-  54 1.68  47 1.70   8 2.32
  66  0.046  0.029  0.312-  40 1.61  12 2.05  19 2.32
  67  0.700  0.134  0.408-  36 1.76  29 1.77  10 2.57
  68  0.328  0.808  0.613-  50 1.59  53 1.95  14 2.25
  69  0.462  0.593  0.944-  44 1.68  17 2.03   5 2.37
  70  0.088  0.903  0.651-  53 1.67  25 2.22  19 2.32
  71  0.126  0.560  0.289-  31 1.52   2 2.10
  72  0.444  0.051  0.297-  30 1.73  32 1.96
  73  0.313  0.026  0.595-  50 1.56   9 2.31
  74  0.153  0.359  0.984-  34 1.77  43 1.93
  75  0.465  0.423  0.077-  44 1.66
  76  0.894  0.975  0.387-  33 1.74  10 2.06
  77  0.347  0.255  0.623-  48 1.75   9 2.22  15 2.42
  78  0.637  0.859  0.743-  39 1.71   7 2.20
  79  0.222  0.358  0.236-  42 1.62   2 2.35  24 2.49
  80  0.636  0.588  0.410-  23 2.22   3 2.24   8 2.49
  81  0.912  0.999  0.813-  35 1.48   7 2.35  25 2.56
  82  0.536  0.853  0.976-  37 1.64   4 2.13  17 2.50
  83  0.078  0.185  0.122-  40 1.92  26 2.07
  84  0.256  0.920  0.774-  50 1.76  45 2.04  13 2.18  53 2.30  25 2.37
  85  0.204  0.532  0.855-  34 1.74  18 2.06   5 2.13
  86  0.251  0.150  0.917-  43 1.46  13 2.27
  87  0.445  0.094  0.061-  30 1.95  24 2.40   4 2.48
  88  0.642  0.033  0.762-  39 1.50   4 2.44
  89  0.943  0.333  0.575-  52 1.51   6 2.47
  90  0.264  0.432  0.694-  48 1.71  18 2.00  15 2.25
  91  0.898  0.941  0.590-  33 1.49   7 2.36
  92  0.223  0.096  0.264-  40 1.56  32 1.71
  93  0.927  0.444  0.103-  54 1.71
  94  0.959  0.658  0.670-  28 1.61  41 1.98
  95  0.877  0.252  0.731-  52 1.71  46 1.98
  96  0.608  0.427  0.593-  51 1.64   1 2.02
  97  0.374  0.849  0.217-  38 1.82  32 2.00
  98  0.517  0.749  0.183-  37 1.70  38 1.88
  99  0.289  0.686  0.329-  31 1.73  38 1.80  14 2.21
 100  0.760  0.799  0.461-  33 1.70   8 2.14
 101  0.146  0.723  0.774-  45 1.75  53 1.86  22 2.17  18 2.49
 102  0.778  0.595  0.614-  28 1.70   1 2.32
 103  0.447  0.960  0.742-  50 1.72  39 1.75
 104  0.220  0.939  0.373-  32 1.88  14 2.16  12 2.28  19 2.37
 105  0.043  0.547  0.988-  34 1.57   2 2.45
 106  0.018  0.399  0.812-  34 1.76  46 1.92
 107  0.464  0.574  0.643-  51 1.60  15 2.52
 108  0.260  0.317  0.825-  48 1.47  43 1.58   5 2.16
 109  0.231  0.956  0.110-  49 1.77  32 2.15  13 2.47
 110  0.860  0.472  0.295-  54 1.51   6 2.20
[...]
 121  0.424  0.570  0.184-  44 1.60  38 1.82
 122  0.362  0.725  0.798-  45 1.42  17 2.11
 123  0.804  0.613  0.130-  47 1.60  54 1.71  21 2.08
 124  0.683  0.739  0.045-  37 1.59  21 2.29
 125  0.962  0.737  0.430-  41 1.73   8 2.06  33 2.50
 126  1.000  0.514  0.506-  41 1.67
 127  0.043  0.199  0.835-  43 1.96  25 2.36  52 2.48
 128  0.707  0.243  0.568-  29 1.80  11 2.27   1 2.39
 129  0.769  0.150  0.195-  36 1.67
 130  0.312  0.497  0.365-  42 1.55  31 1.65  15 2.47
 131  0.825  0.715  0.798-  28 1.58   7 1.98  21 2.40
 132  0.952  0.023  0.031-  35 1.68  16 2.17  26 2.50
 133  0.611  0.922  0.164-  37 1.68  30 1.76
 134  0.627  0.958  0.579-  39 1.51  27 2.03
 135  0.767  0.976  0.960-  35 1.55  16 2.09   4 2.33

IMPORTANT INFORMATION: All symmetrisations will be switched off!
NOSYMM: (Re-)initialisation of all symmetry stuff for point group C_1.

Automatic generation of k-mesh.
 generate k-points for:    2    2    2
Space group operators:
 irot       det(A)        alpha          n_x          n_y          n_z        tau_x        tau_y        tau_z
    1     1.000000     0.000001     1.000000     0.000000     0.000000     0.000000     0.000000     0.000000

 Subroutine IBZKPT returns following result:

 Found      8 irreducible k-points:

 Following reciprocal coordinates:
            Coordinates               Weight
  0.000000  0.000000  0.000000      1.000000
  0.500000  0.000000  0.000000      1.000000
  0.000000  0.500000  0.000000      1.000000
  0.500000  0.500000  0.000000      1.000000
  0.000000  0.000000  0.500000      1.000000
  0.500000  0.000000  0.500000      1.000000
  0.000000  0.500000  0.500000      1.000000
  0.500000  0.500000  0.500000      1.000000

 Following cartesian coordinates:
            Coordinates               Weight
  0.000000  0.000000  0.000000      1.000000
  0.039917  0.000000  0.000000      1.000000
  0.000000  0.039917  0.000000      1.000000
  0.039917  0.039917  0.000000      1.000000
  0.000000  0.000000  0.039917      1.000000
  0.039917  0.000000  0.039917      1.000000
  0.000000  0.039917  0.039917      1.000000
  0.039917  0.039917  0.039917      1.000000

 SYSTEM =  unknown system
 POSCAR =  Ca Si  O

 Startparameter for this run:
   NWRITE =      2    write-flag & timer
   PREC   = a         normal or accurate (medium, high low for compatibility)
   ISTART =      0    job   : 0-new  1-cont  2-samecut
   ICHARG =      2    charge: 1-file 2-atom 10-const
   ISPIN  =      1    spin polarized calculation?
   LNONCOLLINEAR =      F non collinear calculations
   LSORBIT =      F    spin-orbit coupling
[...]
     0.000000000  0.000000000 12.526070000     0.000000000  0.000000000  0.079833499

  length of vectors
    12.526070000 12.526070000 12.526070000     0.079833499  0.079833499  0.079833499

 FORCES acting on ions
    electron-ion (+dipol)            ewald-force                    non-local-force                 convergence-correction
   -.952E+01 0.643E+02 0.123E+03   0.781E+01 -.620E+02 -.117E+03   0.389E+01 -.139E+01 -.560E+01   0.119E-02 -.322E-03 -.236E-02
   -.617E+02 0.250E+02 0.595E+02   0.581E+02 -.291E+02 -.557E+02   0.301E+01 0.284E+01 -.461E+01   -.269E-03 -.486E-02 0.530E-02
   -.250E+02 0.120E+03 0.784E+02   0.282E+02 -.113E+03 -.763E+02   -.270E+01 -.451E+01 -.242E+01   -.265E-02 -.167E-02 -.178E-02
   0.203E+02 -.391E+03 0.137E+02   -.176E+02 0.385E+03 -.169E+02   -.162E+01 0.586E+01 0.156E+01   -.356E-02 0.701E-02 0.131E-01
   -.159E+03 0.102E+03 -.199E+03   0.161E+03 -.101E+03 0.196E+03   0.189E-01 -.641E+00 0.314E+01   -.139E-02 -.165E-02 0.220E-02
   0.109E+03 -.406E+02 0.191E+03   -.102E+03 0.457E+02 -.189E+03   -.489E+01 -.263E+01 -.860E+00   0.373E-02 0.175E-02 -.311E-02
   0.137E+02 -.116E+03 0.293E+01   -.175E+02 0.119E+03 -.390E+01   0.276E+01 0.437E+00 -.469E+00   0.198E-01 -.237E-02 0.315E-03
   0.174E+03 0.156E+03 0.491E+02   -.176E+03 -.153E+03 -.498E+02   -.719E+00 -.489E+01 -.229E+00   0.340E-02 -.322E-02 -.352E-02
   -.942E+01 0.198E+02 -.144E+02   0.153E+02 -.166E+02 0.181E+02   -.605E+01 -.440E+01 -.218E+01   -.225E-02 0.678E-02 -.603E-02
   0.274E+03 -.151E+03 0.453E+02   -.272E+03 0.143E+03 -.430E+02   -.398E+01 0.649E+01 -.820E+00   0.265E-02 0.280E-02 -.369E-02
   0.445E+02 0.110E+03 -.206E+03   -.435E+02 -.111E+03 0.201E+03   -.840E+00 0.788E-01 0.385E+01   -.244E-02 0.922E-02 0.869E-03
   0.209E+02 0.185E+03 0.798E+02   -.247E+02 -.183E+03 -.830E+02   0.166E+01 -.452E+01 0.248E+01   0.122E-02 -.119E-02 0.373E-04
   -.191E+03 -.193E+03 -.110E+03   0.189E+03 0.197E+03 0.113E+03   0.347E+01 -.228E+01 -.352E+00   -.291E-02 0.230E-02 0.369E-02
   -.597E+02 0.111E+03 0.561E+01   0.641E+02 -.110E+03 -.540E+01   -.326E+01 -.139E+01 0.172E+00   -.506E-02 -.327E-02 -.387E-02
   -.184E+03 -.695E+02 0.117E+03   0.182E+03 0.677E+02 -.110E+03   0.299E+01 0.137E+01 -.517E+01   -.413E-02 -.398E-03 -.456E-02
   0.642E+02 -.184E+03 -.999E+02   -.612E+02 0.180E+03 0.102E+03   -.285E+01 0.263E+01 0.221E+01   0.130E-02 0.162E-02 0.314E-02
   -.106E+03 -.837E+02 0.694E+02   0.106E+03 0.831E+02 -.680E+02   0.269E+01 0.225E+01 -.222E+01   -.710E-02 -.110E-01 0.742E-02
   0.813E+02 -.266E+02 0.208E+03   -.788E+02 0.244E+02 -.207E+03   -.472E+01 0.336E+01 -.371E+01   0.104E-02 -.161E-02 -.213E-02
   -.794E+02 -.463E+01 -.877E+02   0.766E+02 0.628E+01 0.888E+02   0.196E+01 -.760E+00 -.303E+00   0.165E-02 0.969E-03 -.267E-02
   -.915E+02 0.354E+03 -.185E+03   0.879E+02 -.351E+03 0.184E+03   0.298E+01 -.330E+01 0.192E+01   -.922E-03 -.194E-02 0.361E-02
   0.117E+02 0.195E+03 0.817E+02   -.148E+02 -.189E+03 -.762E+02   0.176E+01 -.544E+01 -.554E+01   0.294E-02 -.472E-02 0.529E-02
   0.118E+03 -.415E+02 -.795E+02   -.118E+03 0.408E+02 0.842E+02   -.184E+01 0.751E+00 -.205E+01   0.208E-02 -.332E-02 0.291E-02
   0.683E+02 0.790E+02 -.276E+02   -.677E+02 -.791E+02 0.223E+02   0.393E+00 -.454E+00 0.552E+01   -.297E-02 -.958E-02 -.874E-02
   -.192E+03 -.106E+03 0.204E+03   0.189E+03 0.108E+03 -.200E+03   0.230E+01 -.625E+00 -.238E+01   -.310E-02 0.484E-02 0.414E-02
   0.352E+02 -.536E+02 -.142E+03   -.405E+02 0.570E+02 0.139E+03   0.337E+01 -.150E+01 0.273E+01   0.107E-02 0.203E-02 0.167E-03
   0.231E+03 -.975E+02 -.478E+02   -.225E+03 0.960E+02 0.517E+02   -.548E+01 0.224E+01 -.300E+01   0.140E-02 0.403E-02 0.355E-02
   -.454E+02 -.393E+02 0.175E+03   0.434E+02 0.376E+02 -.168E+03   0.247E+01 0.242E+01 -.820E+01   -.133E-02 0.206E-02 -.121E-01
   0.226E+02 0.731E+02 -.256E+02   -.239E+02 -.635E+02 0.160E+02   -.176E+01 -.129E+02 0.458E+01   0.190E-02 -.222E-02 0.790E-04
   0.531E+02 -.632E+02 -.460E+02   -.511E+02 0.552E+02 0.472E+02   -.225E+01 0.169E+01 0.325E+01   -.805E-03 0.155E-02 -.203E-02
   0.184E+02 -.441E+02 0.806E+02   -.138E+02 0.495E+02 -.759E+02   -.153E+01 -.226E+01 -.370E+01   -.254E-03 0.147E-02 0.580E-03
   0.848E+01 -.502E+02 -.120E+03   -.140E+02 0.472E+02 0.110E+03   0.645E+01 0.489E+01 0.116E+02   -.504E-03 -.141E-02 0.100E-03
   -.784E+02 -.242E+01 0.560E+02   0.739E+02 0.273E+01 -.520E+02   0.215E+01 -.244E+01 -.358E+01   -.379E-03 0.930E-03 -.142E-03
   0.638E+02 0.220E+02 0.177E+02   -.616E+02 -.146E+02 -.119E+02   -.424E+01 -.948E+01 -.138E+02   0.265E-02 -.191E-03 -.253E-02
   0.464E+02 0.410E+02 -.321E+02   -.471E+02 -.348E+02 0.375E+02   0.232E+01 -.817E+01 -.577E+01   -.109E-04 -.141E-03 0.162E-02
   0.230E+02 -.146E+03 0.346E+01   -.212E+02 0.134E+03 -.646E+01   0.325E+00 0.118E+02 0.789E+01   0.195E-02 0.137E-02 0.222E-02
   -.302E+02 -.169E+03 0.117E+03   0.326E+02 0.155E+03 -.119E+03   -.200E+01 0.679E+01 -.143E+00   -.647E-04 0.199E-03 -.148E-02
   0.180E+02 -.553E+01 -.436E+02   -.156E+02 0.326E+00 0.371E+02   -.393E+01 0.220E+01 0.681E+01   -.166E-03 -.760E-03 0.206E-02
   -.515E+01 0.460E+02 -.237E+01   0.924E+01 -.441E+02 0.204E+01   -.120E+01 0.244E+00 -.166E+01   -.119E-02 -.131E-02 0.519E-03
   0.989E+02 -.764E+02 0.142E+02   -.810E+02 0.751E+02 -.133E+02   -.191E+02 -.406E+01 0.151E+01   -.635E-02 0.554E-02 -.297E-02
   0.326E+02 -.119E+03 0.124E+03   -.359E+02 0.111E+03 -.120E+03   -.195E+01 0.115E+02 -.622E+01   0.912E-03 0.180E-02 -.153E-03
   -.176E+02 0.167E+02 0.106E+02   0.153E+02 -.217E+02 -.164E+02   0.160E+01 0.566E+01 0.652E+01   0.220E-02 -.123E-02 -.157E-02
   -.342E+02 -.127E+02 0.291E+02   0.279E+02 0.528E+01 -.284E+02   0.490E+01 -.226E+00 -.643E+01   -.291E-03 -.957E-03 -.245E-02
   0.479E+02 0.204E+02 -.970E+02   -.390E+02 -.299E+02 0.965E+02   -.188E+02 0.135E+02 0.222E+01   0.109E-03 0.101E-02 0.943E-03
   0.205E+02 -.809E-01 -.321E+02   -.138E+02 -.875E+01 0.307E+02   -.245E+01 0.672E+01 -.169E+01   -.600E-03 -.149E-02 0.112E-02
   -.147E+02 0.199E+02 -.664E+02   0.263E+02 -.257E+02 0.606E+02   -.211E+02 0.987E+01 0.905E+01   -.124E-02 -.111E-02 0.523E-03
   0.291E+02 0.669E+02 -.577E+02   -.368E+02 -.671E+02 0.575E+02   0.105E+02 -.221E+01 -.482E+01   0.788E-03 0.433E-03 0.136E-02
   0.266E+02 -.227E+02 -.242E+02   -.243E+02 0.263E+02 0.235E+02   -.694E+00 0.202E+01 0.204E+01   0.853E-03 -.111E-02 0.198E-03
   -.357E+02 0.710E+02 0.641E+02   0.381E+02 -.694E+02 -.634E+02   -.768E-01 -.189E+01 -.133E+02   -.123E-03 0.848E-03 -.443E-03
   -.148E+02 -.177E+02 -.383E+02   0.107E+02 0.106E+02 0.405E+02   -.135E+01 0.105E+02 -.148E+01   -.243E-03 -.648E-03 0.113E-02
   -.818E+02 -.310E+02 0.596E+01   0.798E+02 0.401E+02 -.106E+02   0.453E+01 -.452E+01 0.764E+01   -.326E-02 0.385E-03 -.947E-03
   0.441E+01 0.554E+02 -.272E+02   -.383E+01 -.493E+02 0.197E+02   0.212E+01 -.540E+01 0.113E+02   -.107E-02 -.149E-02 -.186E-03
   -.294E+02 -.278E+02 -.695E+02   0.158E+02 0.245E+02 0.541E+02   0.141E+02 -.561E+00 0.182E+02   0.116E-02 0.994E-03 -.550E-03
   -.325E+02 0.400E+02 0.430E+02   0.219E+02 -.345E+02 -.452E+02   0.649E+01 -.687E+01 0.370E+00   -.499E-03 -.109E-02 -.111E-02
   -.115E+02 0.103E+03 0.458E+02   0.808E+01 -.108E+03 -.418E+02   0.430E+01 0.391E+01 -.933E+01   0.156E-02 -.193E-02 -.109E-02
   0.515E+02 0.581E+02 -.259E+02   -.596E+02 -.519E+02 0.184E+02   0.744E+01 -.342E+01 0.771E+01   0.137E-02 -.123E-02 0.121E-02
   0.138E+03 0.137E+03 -.148E+03   -.157E+03 -.150E+03 0.170E+03   0.187E+02 0.137E+02 -.212E+02   0.613E-03 0.127E-02 0.273E-02
   0.607E+02 0.271E+02 -.438E+02   -.612E+02 -.497E+02 0.343E+02   0.846E+00 0.199E+02 0.833E+01   0.201E-02 0.170E-02 -.137E-02
   0.387E+02 -.117E+03 0.133E+03   -.564E+02 0.137E+03 -.144E+03   0.183E+02 -.180E+02 0.880E+01   -.132E-02 0.424E-03 -.189E-02
   0.826E+02 -.613E+02 -.579E+02   -.822E+02 0.792E+02 0.787E+02   -.159E+01 -.196E+02 -.225E+02   0.124E-02 -.740E-03 -.529E-03
   0.486E+02 0.383E+02 0.213E+02   -.757E+02 -.421E+02 -.183E+02   0.304E+02 0.345E+01 -.373E+01   0.399E-03 -.133E-02 0.125E-02
[...]
   -.679E+02 0.622E+02 0.441E+02   0.104E+03 -.820E+02 -.624E+02   -.302E+02 0.170E+02 0.166E+02   -.389E-02 -.292E-02 0.935E-03
   0.136E+03 0.165E+03 -.653E+02   -.164E+03 -.178E+03 0.529E+02   0.273E+02 0.972E+01 0.131E+02   0.155E-02 -.222E-02 0.507E-03
   0.288E+02 -.659E+01 -.619E+01   -.951E+01 -.113E+02 -.241E+01   -.192E+02 0.189E+02 0.877E+01   0.524E-03 -.221E-02 0.372E-02
   -.983E+02 -.520E+02 0.107E+02   0.961E+02 0.673E+02 -.294E+02   0.487E+01 -.156E+02 0.223E+02   0.281E-02 -.204E-02 -.164E-02
   -.222E+02 0.660E+02 0.264E+02   0.220E+02 -.958E+02 -.275E+02   0.441E+00 0.335E+02 0.106E+01   0.312E-02 -.152E-03 -.231E-02
   0.107E+03 0.251E+02 -.127E+03   -.122E+03 -.251E+02 0.121E+03   0.185E+02 0.123E+00 0.106E+02   0.110E-02 0.168E-02 0.105E-02
   -.199E+02 0.662E+02 -.503E+02   0.385E+02 -.714E+02 0.613E+02   -.217E+02 0.629E+01 -.128E+02   0.480E-03 0.327E-02 -.234E-02
   -.414E+02 -.164E+03 0.155E+03   0.504E+02 0.151E+03 -.170E+03   -.606E+01 0.174E+02 0.159E+02   -.458E-03 0.151E-02 0.551E-04
   -.199E+03 -.573E+02 0.976E+01   0.233E+03 0.708E+02 -.150E+02   -.291E+02 -.106E+02 0.637E+01   -.413E-02 -.143E-02 -.535E-03
   0.504E+02 -.777E+01 -.686E+02   -.597E+02 0.278E+02 0.837E+02   0.989E+01 -.227E+02 -.114E+02   0.536E-02 -.498E-02 0.236E-02
   -.118E+03 -.603E+02 -.116E+02   0.141E+03 0.575E+02 0.310E+02   -.244E+02 0.466E+01 -.221E+02   0.106E-02 0.134E-02 0.202E-02
   -.333E+02 -.403E+02 -.579E+02   0.533E+02 0.443E+02 0.738E+02   -.215E+02 -.230E+01 -.168E+02   -.369E-03 0.115E-02 0.127E-02
   -.499E+02 -.100E+03 -.107E+02   0.684E+02 0.969E+02 -.124E+02   -.177E+02 0.446E+01 0.196E+02   -.531E-03 0.499E-02 -.100E-01
   0.931E+02 -.103E+03 0.675E+02   -.118E+03 0.860E+02 -.640E+02   0.215E+02 0.174E+02 -.440E+01   0.297E-02 0.216E-02 0.622E-02
   0.522E+02 -.118E+03 -.258E+02   0.568E-12 0.398E-12 0.192E-12   -.522E+02 0.118E+03 0.258E+02   0.454E-02 -.519E-02 -.112E-01

 POSITION                                       TOTAL-FORCE (eV/Angst)
      9.53323      5.31104      6.80856         2.187312      0.890737      0.478790
      2.05253      6.32321      1.69097        -0.516246     -1.304486     -0.789333
      7.12420      5.87213      3.70076         0.543596      2.310379     -0.393227
      7.33628      0.15892     11.87419         1.074471     -0.015759     -1.651434
      4.38313      5.64192     11.11889         1.668031      0.633310      0.361474
     11.91024      4.34934      4.73900         2.742354      2.409304      0.954473
     10.17351     10.76676      9.21540        -1.032424      3.751177     -1.436397
     10.32329      8.16714      5.03469        -2.735855     -1.427126     -0.930121
      4.00132      2.06255      5.92721        -0.200883     -1.167731      1.489591
     11.33632      1.70289      5.29497        -1.945270     -1.199897      1.468818
      7.65613      2.98422      9.04396         0.183316     -0.507787     -0.928531
      1.00172     10.94282      3.45550        -2.142118     -2.234071     -0.776733
      3.84986     12.24842     11.64410         1.269401      2.233201      2.044232
      4.15834     10.29542      5.43135         1.186211     -0.133866      0.383108
      4.54824      5.40035      6.81082         0.108054     -0.471046      1.472534
     10.22423     12.02917      1.48758         0.217053     -1.221287      3.827040
      6.55220      8.81720     10.56449         3.029888      1.646567     -0.856318
      1.80373      6.72986      8.79231        -2.245786      1.144682     -2.315977
      1.02794     12.47114      6.14503        -0.811610      0.882815      0.856453
      7.78838      5.41139     11.59196        -0.631882      0.492986      0.828383
      9.99289      7.79519     12.07118        -1.278726      0.747524     -0.031078
      0.36375      9.20082     11.27892        -1.464721      0.025600      2.664520
      7.36925      8.80535      6.71166         1.001092     -0.551798      0.226208
      4.43853      2.85597      2.04467        -1.393783      1.402782      0.865605
      1.34217      0.44920      9.60519        -1.903545      1.898176     -0.440321
     11.78366      2.77746      0.46363         0.653531      0.686278      0.881185
      7.60669     11.79859      5.24483         0.442791      0.712668     -1.567209
     10.66432      7.69383      9.09342        -3.066367     -3.260118     -4.951549
      7.64090      2.85141      5.81006        -0.338062     -6.285984      4.508865
      6.42453      0.27424      2.26555         3.077441      3.108913      1.006308
      2.64749      7.28359      4.66193         0.971839      1.849431      1.531982
      3.83112     12.35961      3.25896        -2.306204     -2.138044      0.409437
     10.68342     11.18792      6.15349        -2.075424     -2.159325     -8.060066
      1.19235      5.81412     11.38524         1.606275     -2.001577     -0.303321
     10.95062      0.31867     11.54653         2.091178     -0.503460      4.894342
      8.64256      2.56847      3.59710         0.321816     -7.273533     -1.709762
      7.38963     10.19246      1.10892        -1.526620     -3.006395      0.317123
      4.73872      8.81823      2.72765         2.890545      2.107710     -1.992806
      7.20405     12.11635      8.60775        -1.209783     -5.332789      2.422449
      1.30405      1.65848      3.29882        -5.224397      3.411594     -2.379335
      0.13008      8.08698      6.53825        -0.652323      0.600887      0.656912
      3.14855      4.88228      4.48670        -1.421013     -7.671076     -5.691532
      2.29541      3.01541     11.14713        -9.891215      3.974063      1.637149
      6.03376      6.94416      0.89074         4.291009     -2.113570     -3.072715
      3.30484      9.62912     10.43863        -9.450797      4.076760      3.255373
     10.89897      4.59839     10.50630         2.870439     -2.508233     -4.963712
     10.73282      9.08226      2.03494         1.574417      5.623022      1.348195
      3.07450      3.73621      8.88715         2.313065     -0.341262    -12.594306
      2.61011     10.27352      0.93898        -5.418629      3.455081      0.643963
      4.27143     11.58781      8.29364         2.507979      4.569485      2.979821
      6.84664      6.12445      8.65210         2.693236      0.706388      3.703335
     12.38209      3.16073      8.16605         0.515061     -3.868177      2.774269
      2.23360     10.07689      8.18908        -4.135343     -1.368423     -1.881126
     11.18049      6.70373      2.47940         0.854205     -1.118467     -5.310348
     10.56578      6.04709      9.85952        -0.639869      2.802680      0.231589
      9.87132      4.02016     11.58543         0.170612      0.504937      0.110073
     12.44980      1.76781      7.40545         0.303355     -2.793899     -1.101123
      7.56274      3.65922      4.36074         0.596902      2.013412     -1.582821
     10.66105     10.41868      3.06715        -1.147922     -1.609541     -1.770452
      0.99265     10.08297      1.40194         3.358951     -0.334331     -0.714738
[...]
      5.30527      7.14144      2.30056        -3.452218      3.587340      3.066036
      4.53782      9.07740     10.00066         5.661815     -2.722332     -1.732179
     10.07572      7.68387      1.62395        -1.236030     -2.918178      0.727649
      8.55059      9.25089      0.56949         0.085541      0.995952      0.166400
     12.04755      9.23357      5.38764         2.633427     -0.283920      3.599469
     12.52506      6.43796      6.34074         0.295069      3.772382     -0.110921
      0.53604      2.49191     10.45724         3.022154      0.098185      3.848100
      8.85955      3.04141      7.11510        -3.133943      1.075338     -1.778737
      9.62871      1.87720      2.44710         2.865224      4.212509      0.470769
      3.90983      6.22748      4.56861         4.170610      2.918713      1.096527
     10.33135      8.95320      9.99465         0.549498     -2.679919      3.778830
     11.92658      0.28286      0.38829        -1.060980      1.845009     -2.652482
      7.65622     11.55351      2.05780        -1.526064      1.667391     -0.898580
      7.85276     11.99957      7.25228         0.781077      1.228534     -3.513724
      9.61126     12.22849     12.02683        -3.652598      0.648254     -0.858965
    total drift:                                0.007118      0.001689     -0.016343

  FREE ENERGIE OF THE ION-ELECTRON SYSTEM (eV)
  free  energy   TOTEN  =      -901.69808295 eV

  energy  without entropy=     -901.64136872  energy(sigma->0) =     -901.66972584