 vasp.5.4.4.18Apr17-6-g9f103f2a35 (build Oct 31 2019 15:01:46) complex

 executed on             LinuxIFC date 2024.04.30  08:17:53

 INCAR:
 POTCAR:    PAW_PBE Sc_sv 07Sep2000
 POTCAR:    PAW_PBE Cl 06Sep2000
 POTCAR:    PAW_PBE C 08Apr2002
 POTCAR:    PAW_PBE Sc_sv 07Sep2000
   VRHFIN =Sc: 3p4s3d

   TITEL  = PAW_PBE Sc_sv 07Sep2000
   POMASS =   44.956; ZVAL   =   11.000    mass and valenz
   ENMAX  =  222.660; ENMIN  =  166.995 eV

 POTCAR:    PAW_PBE Cl 06Sep2000
   VRHFIN =Cl: s2p5

   TITEL  = PAW_PBE Cl 06Sep2000
   POMASS =   35.453; ZVAL   =    7.000    mass and valenz
   ENMAX  =  262.472; ENMIN  =  196.854 eV

 POTCAR:    PAW_PBE C 08Apr2002
   VRHFIN =C: s2p2

   TITEL  = PAW_PBE C 08Apr2002
   POMASS =   12.011; ZVAL   =    4.000    mass and valenz
   ENMAX  =  400.000; ENMIN  =  300.000 eV

 Optimization of the real space projectors (new method)

 maximal supplied QI-value         = 15.12
 optimisation between [QCUT,QGAM] = [ 12.55, 25.10] = [ 44.09,176.36] Ry
 Optimized for a Real-space Cutoff    1.56 Angstroem

   l    n(q)    QCUT    max X(q) W(low)/X(q) W(high)/X(q)  e(spline)
   0     12    12.548     2.962    0.12E-05    0.11E-06    0.46E-07
   0     12    12.548    26.414    0.30E-04    0.15E-05    0.76E-07
   1     11    12.548     3.969    0.45E-05    0.12E-05    0.60E-07
   1     11    12.548     5.137    0.15E-04    0.18E-04    0.36E-06
   2     11    12.548   143.970    0.20E-03    0.19E-03    0.76E-06
   2     11    12.548   121.201    0.20E-03    0.19E-03    0.76E-06
 Optimization of the real space projectors (new method)

[...]

   l    n(q)    QCUT    max X(q) W(low)/X(q) W(high)/X(q)  e(spline)
   0      9    12.501   168.010    0.44E-04    0.61E-04    0.77E-07
   0      9    12.501   164.674    0.43E-04    0.60E-04    0.75E-07
   1      8    12.501    69.222    0.11E-03    0.13E-03    0.91E-07
   1      8    12.501    56.786    0.11E-03    0.13E-03    0.90E-07
 Optimization of the real space projectors (new method)

 maximal supplied QI-value         = 25.13
 optimisation between [QCUT,QGAM] = [ 12.32, 24.88] = [ 42.47,173.37] Ry
 Optimized for a Real-space Cutoff    1.16 Angstroem

   l    n(q)    QCUT    max X(q) W(low)/X(q) W(high)/X(q)  e(spline)
   0      9    12.315   115.676    0.19E-03    0.80E-05    0.34E-06
   0      9    12.315    87.132    0.19E-03    0.82E-05    0.34E-06
   1      8    12.315     4.429    0.18E-03    0.13E-03    0.22E-06
   1      8    12.315     2.733    0.14E-03    0.10E-03    0.18E-06
  PAW_PBE Sc_sv 07Sep2000               :
  PAW_PBE Cl 06Sep2000                  :
  PAW_PBE C 08Apr2002                   :

 POSCAR: Sc Cl  C
  positions in cartesian coordinates
 exchange correlation table for  LEXCH =        8
   RHO(1)=    0.500       N(1)  =     2000
   RHO(2)=  100.500       N(2)  =     4000

 ion  position               nearest neighbor table
   1  0.084  0.164  0.547-  65 2.33  70 2.38  66 2.44  50 2.56  61 2.58  49 2.69  29 3.09  17 3.20
                            18 3.26   5 3.33
   2  0.085  0.421  0.547-  66 2.31  67 2.37  71 2.42  51 2.51  50 2.63  62 2.64  19 3.22  30 3.22
                            18 3.23   3 3.40
   3  0.083  0.666  0.545-  67 2.26  72 2.31  68 2.47  52 2.59  51 2.60  63 2.71  19 3.15  20 3.26
                            31 3.30   4 3.37  14 3.38   2 3.40   7 3.40
   4  0.077  0.907  0.544-  68 2.27  69 2.27  65 2.32  64 2.47  52 2.67  49 2.71  17 3.15  20 3.15
                            32 3.15  15 3.35   3 3.37   8 3.39  16 3.42
   5  0.329  0.171  0.546-  70 2.21  74 2.43  69 2.46  54 2.49  49 2.52  53 2.63  17 3.17  22 3.22
                            21 3.25   1 3.33
   6  0.336  0.425  0.544-  71 2.31  70 2.40  75 2.43  50 2.60  55 2.62  54 2.66  23 3.05  18 3.12
                            22 3.33  11 3.40
   7  0.333  0.672  0.545-  72 2.34  71 2.42  56 2.44  76 2.49  51 2.63  55 2.71  19 3.20  24 3.21
                            23 3.33   3 3.40
   8  0.329  0.921  0.545-  69 2.25  72 2.37  53 2.53  73 2.53  52 2.58  56 2.72  21 3.11  20 3.20
                            24 3.23   4 3.39
   9  0.583  0.166  0.541-  78 2.32  74 2.33  73 2.37  53 2.54  57 2.59  58 2.86  26 3.04  21 3.05
                            25 3.09  13 3.41  12 3.43
  10  0.584  0.418  0.544-  74 2.30  79 2.34  75 2.38  59 2.56  54 2.56  58 2.62  26 3.19  27 3.22
                            22 3.23  14 3.33  15 3.43
  11  0.583  0.671  0.541-  76 2.21  80 2.27  75 2.47  60 2.53  55 2.59  59 2.69  23 3.09  28 3.13
                            27 3.21  16 3.38  12 3.39   6 3.40
  12  0.585  0.918  0.543-  76 2.26  73 2.30  77 2.33  60 2.50  57 2.65  56 2.70  24 3.11  25 3.15
                            28 3.16  11 3.39  13 3.40   9 3.43
  13  0.830  0.165  0.547-  77 2.29  78 2.40  66 2.41  57 2.50  62 2.70  61 2.75  25 3.07  29 3.15
                            30 3.21  12 3.40   9 3.41
  14  0.831  0.428  0.545-  79 2.26  67 2.36  63 2.45  78 2.50  62 2.60  58 2.67  26 3.15  31 3.18
                            30 3.30  15 3.31  10 3.33   3 3.38
  15  0.831  0.668  0.541-  80 2.24  68 2.32  79 2.36  59 2.59  64 2.61  63 2.69  32 3.05  27 3.15
                            31 3.19  14 3.31   4 3.35  16 3.36  10 3.43
  16  0.831  0.912  0.544-  80 2.29  65 2.34  77 2.34  64 2.59  60 2.66  61 2.71  29 3.09  32 3.13
                            28 3.21  15 3.36  11 3.38   4 3.42
  17  0.162  0.075  0.457-  65 2.30  69 2.31  70 2.41  36 2.51  33 2.64  37 2.68   4 3.15   5 3.17
                             1 3.20  20 3.32  29 3.40  32 3.41
  18  0.172  0.338  0.457-  71 2.26  66 2.38  70 2.39  38 2.63  34 2.67  33 2.74   6 3.12   2 3.23
                             1 3.26  23 3.35
  19  0.163  0.584  0.456-  67 2.31  71 2.36  72 2.37  39 2.57  35 2.61  34 2.76   3 3.15   7 3.20
                             2 3.22  31 3.41
  20  0.166  0.837  0.454-  69 2.28  68 2.35  72 2.36  36 2.58  35 2.64  40 2.68   4 3.15   8 3.20
                             3 3.26  17 3.32
  21  0.419  0.083  0.458-  73 2.32  74 2.37  69 2.47  41 2.60  40 2.61  37 2.70   9 3.05   8 3.11
                             5 3.25  24 3.33  26 3.38  22 3.40
  22  0.419  0.329  0.452-  74 2.31  75 2.32  70 2.42  38 2.49  37 2.49  42 2.60   5 3.22  10 3.23
                             6 3.33  23 3.38  21 3.40  26 3.42
  23  0.420  0.575  0.455-  75 2.18  71 2.34  38 2.49  76 2.52  39 2.54  43 2.58   6 3.05  11 3.09
                             7 3.33  27 3.33  18 3.35  22 3.38
  24  0.422  0.844  0.456-  73 2.16  76 2.42  72 2.45  44 2.47  40 2.56  39 2.79  12 3.11   7 3.21
                             8 3.23  21 3.33  28 3.40
  25  0.678  0.091  0.458-  78 2.21  77 2.30  73 2.31  45 2.56  41 2.61  44 2.73  13 3.07   9 3.09
                            12 3.15  30 3.31  26 3.34  29 3.39
  26  0.666  0.327  0.457-  78 2.23  74 2.29  79 2.34  46 2.61  41 2.63  42 2.68   9 3.04  14 3.15
                            10 3.19  25 3.34  21 3.38  22 3.42
  27  0.666  0.583  0.453-  75 2.26  79 2.34  80 2.39  43 2.51  42 2.68  47 2.80  15 3.15  11 3.21
                            10 3.22  23 3.33  32 3.41
  28  0.665  0.836  0.453-  76 2.22  80 2.43  77 2.43  48 2.47  44 2.49  43 2.65  11 3.13  12 3.16
                            16 3.21  24 3.40
  29  0.920  0.083  0.461-  77 2.28  65 2.29  66 2.38  48 2.69  45 2.69  33 2.69  16 3.09   1 3.09
                            13 3.15  25 3.39  17 3.40
  30  0.918  0.331  0.456-  66 2.27  78 2.33  67 2.44  45 2.53  34 2.54  46 2.66  13 3.21   2 3.22
                            14 3.30  25 3.31
  31  0.914  0.583  0.451-  79 2.37  68 2.39  67 2.42  35 2.52  46 2.55  47 2.65  14 3.18  15 3.19
                             3 3.30  19 3.41  32 3.43
  32  0.912  0.830  0.456-  68 2.24  80 2.34  65 2.40  36 2.53  48 2.58  47 2.59  15 3.05  16 3.13
                             4 3.15  27 3.41  17 3.41  31 3.43
  33  0.082  0.161  0.394-  17 2.64  29 2.69  18 2.74
  34  0.072  0.405  0.393-  30 2.54  18 2.67  19 2.76
  35  0.078  0.665  0.394-  31 2.52  19 2.61  20 2.64
  36  0.076  0.918  0.398-  17 2.51  32 2.53  20 2.58
  37  0.333  0.169  0.395-  22 2.49  17 2.68  21 2.70
  38  0.342  0.416  0.397-  23 2.49  22 2.49  18 2.63
  39  0.330  0.651  0.399-  23 2.54  19 2.57  24 2.79
  40  0.342  0.922  0.394-  24 2.56  21 2.61  20 2.68
  41  0.583  0.158  0.396-  21 2.60  25 2.61  26 2.63
  42  0.585  0.410  0.391-  22 2.60  27 2.68  26 2.68
  43  0.583  0.662  0.395-  27 2.51  23 2.58  28 2.65
  44  0.578  0.911  0.397-  24 2.47  28 2.49  25 2.73
  45  0.839  0.171  0.397-  30 2.53  25 2.56  29 2.69
  46  0.830  0.414  0.395-  31 2.55  26 2.61  30 2.66
  47  0.846  0.681  0.389-  32 2.59  31 2.65  27 2.80
  48  0.826  0.913  0.398-  28 2.47  32 2.58  29 2.69
  49  0.175  0.080  0.607-   5 2.52   1 2.69   4 2.71
  50  0.171  0.332  0.605-   1 2.56   6 2.60   2 2.63
  51  0.164  0.581  0.606-   2 2.51   3 2.60   7 2.63
  52  0.168  0.829  0.607-   8 2.58   3 2.59   4 2.67
  53  0.423  0.088  0.601-   8 2.53   9 2.54   5 2.63
  54  0.419  0.332  0.603-   5 2.49  10 2.56   6 2.66
  55  0.427  0.590  0.606-  11 2.59   6 2.62   7 2.71
  56  0.410  0.821  0.605-   7 2.44  12 2.70   8 2.72
  57  0.668  0.089  0.604-  13 2.50   9 2.59  12 2.65
  58  0.667  0.344  0.610-  10 2.62  14 2.67   9 2.86
  59  0.670  0.584  0.603-  10 2.56  15 2.59  11 2.69
  60  0.654  0.830  0.602-  12 2.50  11 2.53  16 2.66
  61  0.924  0.081  0.609-   1 2.58  16 2.71  13 2.75
  62  0.911  0.345  0.606-  14 2.60   2 2.64  13 2.70
  63  0.905  0.576  0.606-  14 2.45  15 2.69   3 2.71
  64  0.920  0.832  0.603-   4 2.47  16 2.59  15 2.61
  65  0.001  0.999  0.502-  29 2.29  17 2.30   4 2.32   1 2.33  16 2.34  32 2.40
  66  0.002  0.258  0.502-  30 2.27   2 2.31  18 2.38  29 2.38  13 2.41   1 2.44
  67  0.002  0.506  0.502-   3 2.26  19 2.31  14 2.36   2 2.37  31 2.42  30 2.44
  68  0.996  0.753  0.497-  32 2.24   4 2.27  15 2.32  20 2.35  31 2.39   3 2.47
  69  0.240  0.991  0.502-   8 2.25   4 2.27  20 2.28  17 2.31   5 2.46  21 2.47
  70  0.253  0.249  0.502-   5 2.21   1 2.38  18 2.39   6 2.40  17 2.41  22 2.42
  71  0.251  0.502  0.498-  18 2.26   6 2.31  23 2.34  19 2.36   7 2.42   2 2.42
  72  0.246  0.753  0.501-   3 2.31   7 2.34  20 2.36   8 2.37  19 2.37  24 2.45
  73  0.507  0.998  0.496-  24 2.16  12 2.30  25 2.31  21 2.32   9 2.37   8 2.53
  74  0.503  0.255  0.500-  26 2.29  10 2.30  22 2.31   9 2.33  21 2.37   5 2.43
  75  0.502  0.498  0.494-  23 2.18  27 2.26  22 2.32  10 2.38   6 2.43  11 2.47
  76  0.512  0.758  0.500-  11 2.21  28 2.22  12 2.26  24 2.42   7 2.49  23 2.52
  77  0.755  0.005  0.502-  29 2.28  13 2.29  25 2.30  12 2.33  16 2.34  28 2.43
  78  0.749  0.250  0.498-  25 2.21  26 2.23   9 2.32  30 2.33  13 2.40  14 2.50
  79  0.747  0.498  0.497-  14 2.26  26 2.34  10 2.34  27 2.34  15 2.36  31 2.37
  80  0.748  0.748  0.501-  15 2.24  11 2.27  16 2.29  32 2.34  27 2.39  28 2.43

  LATTYP: Found a hexagonal cell.
 ALAT       =    13.7939866762
 C/A-ratio  =     2.0161119278

  Lattice vectors:

 A1 = (  13.7939866800,   0.0000000000,   0.0000000000)
 A2 = (  -6.8969933400,  11.9459428800,   0.0000000000)
 A3 = (   0.0000000000,   0.0000000000,  27.8102210700)

Analysis of symmetry for initial positions (statically):
[...]
     0.000000000  0.000000000 27.810221070     0.000000000  0.000000000  0.035958003

  length of vectors
    13.793986680 13.793986676 27.810221070     0.083710429  0.083710429  0.035958003

 FORCES acting on ions
    electron-ion (+dipol)            ewald-force                    non-local-force                 convergence-correction
   0.145E+02 -.233E+02 -.112E+04   -.144E+02 0.235E+02 0.112E+04   0.263E-01 0.729E-01 0.391E+01   -.975E-06 0.545E-05 0.139E-05
   -.828E+01 0.229E+02 -.112E+04   0.764E+01 -.237E+02 0.112E+04   0.329E+00 0.298E+00 0.421E+01   -.230E-04 -.849E-05 0.566E-05
   0.723E+01 -.273E+01 -.108E+04   -.692E+01 0.239E+01 0.108E+04   -.625E+00 0.364E+00 0.457E+01   0.128E-04 -.119E-04 0.133E-05
   -.171E+02 -.204E+02 -.110E+04   0.171E+02 0.210E+02 0.109E+04   0.332E+00 -.292E-01 0.463E+01   0.134E-04 0.187E-04 -.224E-04
   -.146E+02 0.104E+02 -.108E+04   0.140E+02 -.999E+01 0.107E+04   0.107E+01 -.667E+00 0.370E+01   0.103E-04 0.151E-04 -.171E-04
   0.459E+01 0.225E+01 -.107E+04   -.483E+01 -.313E+01 0.107E+04   0.533E+00 0.224E+00 0.428E+01   0.175E-04 -.101E-04 0.200E-04
   -.870E+01 0.253E+02 -.104E+04   0.854E+01 -.251E+02 0.103E+04   0.439E+00 -.588E+00 0.373E+01   -.521E-06 0.135E-04 0.631E-05
   -.358E+02 0.700E+01 -.110E+04   0.347E+02 -.828E+01 0.109E+04   0.136E+01 0.446E+00 0.411E+01   -.856E-05 -.125E-04 -.122E-04
   0.387E+01 -.116E+02 -.105E+04   -.385E+01 0.122E+02 0.105E+04   0.434E-01 -.128E-01 0.458E+01   -.377E-05 0.218E-04 -.328E-04
   0.199E+02 0.246E+01 -.106E+04   -.195E+02 -.268E+01 0.106E+04   -.303E+00 0.200E+00 0.405E+01   -.150E-05 -.189E-04 -.290E-05
   0.779E+00 0.421E+02 -.102E+04   -.322E+00 -.412E+02 0.102E+04   0.204E-01 -.121E+01 0.417E+01   0.676E-06 -.104E-04 -.242E-04
   0.310E+02 -.124E+02 -.108E+04   -.304E+02 0.119E+02 0.107E+04   -.661E+00 0.373E+00 0.478E+01   -.140E-04 0.114E-05 -.376E-04
   -.404E+02 -.379E+02 -.116E+04   0.408E+02 0.382E+02 0.116E+04   0.298E+00 0.308E+00 0.450E+01   0.238E-05 0.179E-04 -.625E-05
   -.299E+02 0.441E+02 -.105E+04   0.304E+02 -.442E+02 0.104E+04   -.478E-02 -.847E+00 0.352E+01   0.629E-05 -.777E-05 -.351E-05
   -.149E+02 0.164E+02 -.101E+04   0.145E+02 -.166E+02 0.100E+04   0.527E+00 -.193E+00 0.439E+01   -.109E-04 -.246E-04 -.313E-04
   0.160E+02 -.252E+02 -.111E+04   -.160E+02 0.256E+02 0.110E+04   -.211E+00 -.173E+00 0.462E+01   0.172E-05 0.316E-05 -.282E-04
   -.705E+01 -.524E+02 0.104E+04   0.652E+01 0.530E+02 -.104E+04   0.333E+00 0.422E+00 -.420E+01   0.826E-05 0.128E-04 0.426E-04
   0.170E+02 0.271E+02 0.105E+04   -.176E+02 -.274E+02 -.105E+04   0.126E+00 -.287E+00 -.467E+01   -.194E-04 -.150E-04 0.176E-04
   -.184E+02 -.194E+00 0.108E+04   0.189E+02 0.358E+00 -.108E+04   -.147E+00 -.187E+00 -.448E+01   -.185E-04 0.218E-05 0.978E-05
   -.481E+02 0.173E+02 0.113E+04   0.480E+02 -.177E+02 -.113E+04   0.316E+00 0.288E-01 -.497E+01   0.246E-04 -.676E-06 0.260E-04
   0.449E+02 0.530E+01 0.103E+04   -.441E+02 -.495E+01 -.102E+04   -.984E+00 -.129E+00 -.365E+01   -.390E-05 0.120E-04 0.850E-05
   0.139E+02 0.274E+02 0.112E+04   -.134E+02 -.270E+02 -.111E+04   -.392E+00 -.167E+00 -.362E+01   0.348E-04 -.101E-04 0.346E-04
   0.607E+02 -.435E+02 0.106E+04   -.610E+02 0.437E+02 -.106E+04   -.419E+00 0.786E+00 -.351E+01   0.174E-04 0.190E-04 0.304E-04
   0.387E+02 0.824E+02 0.107E+04   -.383E+02 -.823E+02 -.107E+04   -.559E+00 -.129E+01 -.408E+01   -.113E-04 0.384E-05 0.180E-04
   -.125E+02 0.186E+02 0.106E+04   0.121E+02 -.184E+02 -.105E+04   0.697E-01 -.706E+00 -.438E+01   -.117E-04 0.595E-05 0.286E-04
   0.456E+01 -.191E+02 0.106E+04   -.471E+01 0.198E+02 -.106E+04   -.158E+00 0.199E-01 -.426E+01   -.175E-04 -.177E-05 0.204E-04
   -.322E+02 0.368E+01 0.115E+04   0.318E+02 -.479E+01 -.114E+04   0.676E+00 0.665E+00 -.455E+01   0.834E-05 -.112E-04 0.120E-04
   -.258E+01 -.183E+01 0.113E+04   0.232E+01 0.139E+01 -.112E+04   0.411E+00 0.128E+00 -.397E+01   -.747E-05 -.171E-04 0.296E-04
   -.159E+02 -.353E+02 0.976E+03   0.158E+02 0.356E+02 -.973E+03   0.444E-01 0.329E-01 -.460E+01   -.580E-06 0.438E-05 0.301E-04
   -.146E+02 -.355E+02 0.103E+04   0.149E+02 0.354E+02 -.103E+04   -.411E+00 0.530E+00 -.380E+01   -.236E-05 0.163E-04 0.216E-04
   -.166E+02 0.144E+02 0.115E+04   0.165E+02 -.143E+02 -.114E+04   0.322E-01 -.708E-01 -.380E+01   0.419E-05 -.121E-04 0.366E-05
   0.151E+02 -.139E+02 0.108E+04   -.147E+02 0.135E+02 -.107E+04   -.403E+00 0.536E+00 -.411E+01   -.130E-04 -.179E-04 0.364E-04
   0.740E+01 -.148E+02 0.144E+04   -.744E+01 0.147E+02 -.145E+04   -.526E-01 0.264E+00 0.286E+01   -.550E-05 0.484E-05 0.126E-04
   -.200E+02 -.142E+02 0.146E+04   0.199E+02 0.140E+02 -.146E+04   0.509E+00 0.736E+00 0.256E+01   -.743E-05 -.321E-05 0.152E-04
   -.366E+02 -.764E+01 0.146E+04   0.366E+02 0.755E+01 -.146E+04   0.566E+00 0.273E+00 0.201E+01   -.428E-05 -.876E-05 0.120E-04
   -.151E+02 -.118E+02 0.146E+04   0.149E+02 0.119E+02 -.146E+04   0.686E+00 -.536E-01 0.157E+01   -.326E-05 -.371E-05 0.158E-06
   0.733E+01 0.275E+02 0.145E+04   -.739E+01 -.274E+02 -.146E+04   0.226E+00 -.705E+00 0.226E+01   0.950E-05 0.577E-05 0.177E-04
   0.363E+02 0.155E+02 0.146E+04   -.362E+02 -.154E+02 -.146E+04   -.682E+00 -.308E+00 0.142E+01   0.594E-05 -.185E-07 0.735E-05
   0.187E+02 -.183E+02 0.142E+04   -.186E+02 0.181E+02 -.142E+04   -.439E+00 0.781E+00 0.183E+01   0.144E-05 0.185E-05 0.143E-04
   0.154E+02 0.188E+02 0.147E+04   -.151E+02 -.187E+02 -.147E+04   -.698E+00 -.366E+00 0.227E+01   0.478E-05 0.488E-05 0.186E-04
   0.935E+00 0.304E+01 0.146E+04   -.919E+00 -.310E+01 -.146E+04   -.102E+00 0.332E+00 0.228E+01   -.317E-05 0.399E-05 0.134E-04
   -.145E+02 -.445E+00 0.148E+04   0.146E+02 0.339E+00 -.148E+04   -.846E-01 0.292E+00 0.254E+01   0.431E-05 -.267E-05 0.159E-04
   0.145E+02 -.151E+02 0.147E+04   -.145E+02 0.151E+02 -.148E+04   -.933E-01 0.413E+00 0.187E+01   0.258E-05 -.155E-05 0.139E-04
   0.301E+01 -.928E+01 0.146E+04   -.307E+01 0.924E+01 -.146E+04   0.321E+00 0.412E+00 0.137E+01   -.232E-05 0.165E-05 0.108E-04
   -.175E+02 0.152E+02 0.145E+04   0.176E+02 -.152E+02 -.146E+04   -.796E-01 -.532E+00 0.205E+01   0.612E-06 0.642E-05 0.811E-05
   -.920E+01 0.743E+01 0.145E+04   0.915E+01 -.749E+01 -.146E+04   0.172E+00 0.485E-01 0.216E+01   -.967E-06 0.205E-05 0.110E-04
   0.789E+01 0.136E+02 0.150E+04   -.780E+01 -.133E+02 -.150E+04   -.445E+00 -.842E+00 0.276E+01   -.426E-06 -.751E-05 0.113E-04
   -.232E+01 -.319E+02 0.145E+04   0.231E+01 0.319E+02 -.145E+04   0.310E+00 0.541E+00 0.175E+01   -.915E-06 -.265E-05 0.692E-05
   0.790E+01 0.707E+01 -.147E+04   -.775E+01 -.711E+01 0.147E+04   -.603E+00 0.371E-01 -.228E+01   -.425E-06 0.405E-05 -.140E-04
   0.485E+01 -.546E+01 -.145E+04   -.476E+01 0.538E+01 0.145E+04   -.241E+00 0.342E+00 -.207E+01   0.392E-05 -.912E-06 -.129E-04
   -.107E+02 0.214E+00 -.146E+04   0.106E+02 -.251E+00 0.146E+04   0.212E+00 0.297E+00 -.201E+01   -.459E-05 -.403E-06 -.132E-04
   -.124E+01 -.153E+01 -.147E+04   0.127E+01 0.153E+01 0.148E+04   -.220E+00 0.103E+00 -.226E+01   0.405E-05 -.218E-05 -.179E-04
   -.775E+01 -.254E+00 -.144E+04   0.787E+01 0.343E+00 0.144E+04   -.134E+00 -.289E+00 -.173E+01   -.176E-05 0.753E-05 -.111E-04
   0.103E+02 -.139E+02 -.144E+04   -.102E+02 0.139E+02 0.145E+04   -.347E+00 0.444E+00 -.184E+01   0.357E-05 0.562E-05 -.133E-04
   0.685E+01 0.129E+02 -.146E+04   -.664E+01 -.128E+02 0.146E+04   -.554E+00 -.598E+00 -.256E+01   0.367E-05 -.475E-05 -.139E-04
   0.150E+01 -.302E+02 -.145E+04   -.143E+01 0.299E+02 0.146E+04   -.138E+00 0.120E+01 -.194E+01   -.379E-05 -.607E-05 -.169E-04
   0.781E+01 0.864E+01 -.146E+04   -.786E+01 -.849E+01 0.146E+04   -.896E-01 -.425E+00 -.184E+01   -.164E-05 0.934E-05 -.121E-04
   -.206E+01 0.308E+02 -.148E+04   0.203E+01 -.306E+02 0.148E+04   0.138E+00 -.601E+00 -.306E+01   -.358E-07 0.651E-05 -.169E-04
   0.182E+02 -.128E+02 -.144E+04   -.181E+02 0.127E+02 0.144E+04   -.433E+00 0.333E+00 -.221E+01   0.267E-06 -.130E-04 -.107E-04
   -.155E+02 -.115E+02 -.146E+04   0.152E+02 0.114E+02 0.146E+04   0.993E+00 0.438E+00 -.158E+01   -.414E-05 -.717E-05 -.968E-05
[...]
   -.102E+01 0.162E+02 -.807E+01   0.106E+01 -.161E+02 0.826E+01   -.149E+00 -.290E+00 -.588E+00   -.395E-05 -.348E-05 0.192E-05
   -.254E+02 0.209E+02 0.254E+02   0.252E+02 -.207E+02 -.255E+02   0.445E+00 -.636E+00 0.563E+00   -.154E-05 -.261E-05 0.105E-05
   -.108E+02 -.223E+02 -.186E+02   0.105E+02 0.220E+02 0.188E+02   0.101E+01 0.988E+00 -.851E+00   0.285E-05 0.943E-06 0.425E-05
   0.143E+02 -.761E+01 -.207E+01   -.142E+02 0.753E+01 0.222E+01   -.624E+00 0.166E+00 -.421E+00   0.164E-05 0.118E-05 0.321E-05
   0.149E+02 -.132E+02 0.142E+02   -.149E+02 0.132E+02 -.146E+02   0.165E+00 -.780E-01 0.119E+01   0.178E-05 0.130E-06 0.234E-05
   -.118E+02 -.824E+00 0.826E+01   0.116E+02 0.786E+00 -.821E+01   0.553E+00 -.114E+00 -.130E+00   0.554E-07 0.366E-05 0.219E-05
   0.143E+02 0.366E-01 0.173E+02   -.139E+02 -.165E+00 -.178E+02   -.141E+01 0.883E+00 0.160E+01   0.103E-05 0.924E-06 -.703E-06
   0.143E+02 0.824E+01 -.990E+01   -.144E+02 -.791E+01 0.989E+01   0.283E+00 -.124E+01 -.164E+00   0.688E-06 0.119E-05 0.110E-05
   -.370E+01 0.112E+02 0.287E+02   0.392E+01 -.113E+02 -.291E+02   -.323E+00 0.291E+00 0.169E+01   0.949E-06 -.130E-05 0.253E-05
   0.387E+02 0.242E+02 0.142E+02   -.383E+02 -.239E+02 -.142E+02   -.142E+01 -.744E+00 -.642E-01   0.168E-05 -.109E-05 -.177E-07
   -.590E+01 0.691E+01 -.206E+02   0.595E+01 -.675E+01 0.207E+02   0.308E-01 -.322E+00 -.670E-01   -.132E-05 -.569E-06 0.790E-07
   -.182E+02 -.253E+02 -.749E+01   0.181E+02 0.253E+02 0.717E+01   0.168E+00 -.120E+00 0.111E+01   -.222E-05 0.164E-05 0.244E-05
   0.124E+01 -.151E+01 0.363E+02   -.128E+01 0.136E+01 -.364E+02   0.278E+00 0.536E+00 0.324E+00   -.215E-06 -.929E-06 0.217E-05
   0.966E+01 0.456E+00 -.924E+00   -.968E+01 -.524E+00 0.127E+01   0.208E+00 0.300E+00 -.951E+00   -.515E-06 -.193E-05 0.776E-06
   0.184E+00 -.220E+00 -.379E+01   -.307E-12 -.535E-12 0.935E-11   -.188E+00 0.222E+00 0.379E+01   -.716E-05 -.198E-04 0.187E-03

 POSITION                                       TOTAL-FORCE (eV/Angst)
      0.02316      1.96489     15.21566         0.162227      0.225116     -0.045972
     -1.73122      5.02384     15.22220        -0.308316     -0.470462     -0.605890
     -3.44820      7.95635     15.16704        -0.308265      0.028518     -0.388982
     -5.19709     10.83641     15.14173         0.305114      0.594816      0.096175
      3.35620      2.04623     15.17407         0.460412     -0.228423     -0.326449
      1.70868      5.07424     15.12206         0.297382     -0.659650      0.027306
     -0.04897      8.02997     15.15001         0.271415     -0.388798     -0.658152
     -1.81475     11.00750     15.16836         0.249221     -0.834577     -0.088352
      6.90451      1.98045     15.05690         0.062046      0.533134      0.842701
      5.17594      4.99199     15.12783         0.042754     -0.018497     -0.308771
      3.40793      8.02110     15.05477         0.477588     -0.328467      0.321189
      1.73426     10.96723     15.10180        -0.041577     -0.113985      0.126241
     10.30665      1.97382     15.21029         0.666613      0.685865      0.108509
      8.50630      5.11782     15.14499         0.577450     -0.884810     -0.174188
      6.85535      7.98036     15.03432         0.058143     -0.379850      0.492000
      5.17785     10.89418     15.13188        -0.194881      0.297094      0.534628
      1.71249      0.90133     12.71777        -0.196637      0.942267      0.017021
      0.03326      4.04070     12.70664        -0.426954     -0.655788     -0.254215
     -1.78850      6.98199     12.67256         0.360449     -0.023878     -0.005564
     -3.48447     10.00008     12.62950         0.171328     -0.427479      0.345734
      5.20840      0.98978     12.72760        -0.254233      0.227486     -0.696673
      3.51301      3.93031     12.57311         0.039757      0.238280      0.899318
      1.83011      6.86318     12.65988        -0.748812      0.980442     -0.262214
      0.00978     10.07723     12.67361        -0.114828     -1.194845     -0.091330
      8.72628      1.08694     12.72951        -0.364602     -0.550254     -0.916683
      6.93247      3.90102     12.70360        -0.310910      0.715196     -0.872659
      5.15962      6.96419     12.58714         0.246745     -0.438299     -0.138199
      3.40418      9.98187     12.61067         0.150886     -0.306639      0.591722
     12.11353      0.99477     12.82241        -0.072815      0.350663     -0.993579
     10.38297      3.95543     12.68694        -0.132713      0.480971      0.351817
      8.59292      6.96492     12.55427        -0.095085      0.006220      0.585318
      6.86035      9.91824     12.67380        -0.011169      0.129217     -0.232308
      0.02430      1.92513     10.96285        -0.088697      0.185872      0.647456
     -1.79730      4.83990     10.93007         0.397954      0.516225      0.405266
     -3.51624      7.94747     10.96539         0.494327      0.180312     -0.101347
     -5.28965     10.97040     11.05656         0.501521      0.026939     -0.481140
      3.42486      2.01615     10.97833         0.162630     -0.602743      0.124687
      1.85154      4.97321     11.04378        -0.658687     -0.267606     -0.643001
      0.06208      7.78153     11.08596        -0.341318      0.635665     -0.304979
     -1.64335     11.01852     10.96235        -0.482833     -0.243852      0.152206
      6.94334      1.89129     11.00622        -0.084989      0.269552      0.098793
      5.23815      4.89935     10.88318         0.036992      0.185832      0.345488
      3.47844      7.90356     10.97146        -0.060616      0.334920     -0.224745
      1.69051     10.88724     11.05287         0.261284      0.373518     -0.642708
     10.39503      2.03695     11.03849         0.005091     -0.449352     -0.028149
      8.59045      4.95117     10.98918         0.120481     -0.007651      0.012107
      6.97425      8.13350     10.80648        -0.354912     -0.576007      0.587878
      5.09876     10.90545     11.07329         0.302258      0.531053     -0.339799
      1.86391      0.95331     16.88925        -0.447215     -0.002545     -0.154196
      0.07067      3.96800     16.81574        -0.153307      0.266080      0.110320
     -1.74316      6.94224     16.84648         0.164077      0.259769      0.095609
     -3.40154      9.90496     16.87783        -0.186001      0.099065     -0.130535
      5.23176      1.05350     16.72364        -0.023983     -0.200394      0.346302
      3.48608      3.96578     16.76085        -0.235133      0.391002      0.256534
      1.81902      7.04600     16.84917        -0.347415     -0.459034     -0.406270
     -0.00855      9.81096     16.81594        -0.063900      0.914543      0.110419
      8.59992      1.06773     16.79031        -0.140410     -0.270985      0.208188
      6.82519      4.10915     16.96381         0.106581     -0.460233     -0.870064
      5.21090      6.97148     16.75641        -0.322427      0.232237     -0.064317
      3.29794      9.91179     16.73735         0.774223      0.304691      0.483800
[...]
     -1.74879      3.08487     13.96075         0.351720     -0.693064      0.186775
     -3.46359      6.04199     13.95731        -0.112750     -0.151436     -0.395616
      8.55265      8.99282     13.82130         0.275334     -0.413576      0.412659
     -3.52530     11.84068     13.97298         0.747961      0.632851     -0.607561
      1.76675      2.97338     13.95693        -0.462697      0.087441     -0.269862
      0.00700      5.99374     13.85085         0.158946     -0.118079      0.826291
     -1.79112      8.99077     13.92720         0.395338     -0.151819     -0.073393
      0.10286     11.92680     13.79410        -1.033986      0.755560      1.098867
      5.17759      3.04317     13.90733         0.259479     -0.915481     -0.175184
      3.49774      5.94390     13.72756        -0.108242      0.174568      1.240009
      1.83746      9.05959     13.89294        -1.008930     -0.442517     -0.026127
     10.37777      0.05961     13.96096         0.079904     -0.159708      0.012161
      8.61317      2.98532     13.84763         0.104123     -0.104071      0.787097
      6.86673      5.94962     13.82504         0.228952      0.392126      0.215370
      5.15208      8.93874     13.93512         0.192253      0.231877     -0.606074
    total drift:                               -0.004457      0.002182     -0.002174

  FREE ENERGIE OF THE ION-ELECTRON SYSTEM (eV)
  free  energy   TOTEN  =      -527.48838570 eV

  energy  without entropy=     -527.48838570  energy(sigma->0) =     -527.48838570