 vasp.5.4.4.18Apr17-6-g9f103f2a35 (build Oct 31 2019 15:01:46) complex

 executed on             LinuxIFC date 2024.04.28  21:41:47

 INCAR:
 POTCAR:    PAW_PBE Ca_sv 06Sep2000
 POTCAR:    PAW_PBE Si 05Jan2001
 POTCAR:    PAW_PBE O 08Apr2002
 POTCAR:    PAW_PBE Ca_sv 06Sep2000
   VRHFIN =Ca: 3s3p4s

   TITEL  = PAW_PBE Ca_sv 06Sep2000
   POMASS =   40.078; ZVAL   =   10.000    mass and valenz
   ENMAX  =  266.622; ENMIN  =  199.967 eV

   TITEL  = PAW_PBE Si 05Jan2001
   POMASS =   28.085; ZVAL   =    4.000    mass and valenz
   ENMAX  =  245.345; ENMIN  =  184.009 eV

   TITEL  = PAW_PBE O 08Apr2002
   POMASS =   16.000; ZVAL   =    6.000    mass and valenz
   ENMAX  =  400.000; ENMIN  =  300.000 eV

 Optimization of the real space projectors (new method)

 maximal supplied QI-value         = 16.25
 optimisation between [QCUT,QGAM] = [ 12.51, 25.03] = [ 43.85,175.40] Ry
 Optimized for a Real-space Cutoff    1.47 Angstroem

   l    n(q)    QCUT    max X(q) W(low)/X(q) W(high)/X(q)  e(spline)
   0     11    12.514    11.817    0.25E-04    0.32E-05    0.87E-07
   0     11    12.514     8.461    0.39E-04    0.59E-05    0.18E-06
   1     11    12.514     3.957    0.97E-05    0.57E-05    0.28E-07
   1     11    12.514     4.314    0.42E-04    0.14E-04    0.23E-06
   2     10    12.514    14.565    0.79E-04    0.50E-03    0.16E-05
   2     10    12.514    14.552    0.75E-04    0.48E-03    0.15E-05
 Optimization of the real space projectors (new method)

[...]

   l    n(q)    QCUT    max X(q) W(low)/X(q) W(high)/X(q)  e(spline)
   0      9    12.501   159.560    0.10E-03    0.83E-04    0.71E-07
   0      9    12.501   115.863    0.99E-04    0.81E-04    0.70E-07
   1      8    12.501    88.339    0.20E-03    0.25E-03    0.76E-07
   1      8    12.501    48.592    0.20E-03    0.24E-03    0.75E-07
 Optimization of the real space projectors (new method)

 maximal supplied QI-value         = 24.76
 optimisation between [QCUT,QGAM] = [ 12.38, 25.00] = [ 42.90,175.06] Ry
 Optimized for a Real-space Cutoff    1.16 Angstroem

   l    n(q)    QCUT    max X(q) W(low)/X(q) W(high)/X(q)  e(spline)
   0      9    12.378    20.381    0.16E-03    0.67E-05    0.31E-06
   0      9    12.378    15.268    0.17E-03    0.81E-05    0.33E-06
   1      8    12.378     5.964    0.20E-03    0.16E-03    0.30E-06
   1      8    12.378     5.382    0.18E-03    0.14E-03    0.26E-06
  PAW_PBE Ca_sv 06Sep2000               :
  PAW_PBE Si 05Jan2001                  :
  PAW_PBE O 08Apr2002                   :

 POSCAR: Ca Si  O
  positions in direct lattice
 exchange correlation table for  LEXCH =        8
   RHO(1)=    0.500       N(1)  =     2000
   RHO(2)=  100.500       N(2)  =     4000

 ion  position               nearest neighbor table
   1  0.541  0.349  0.076- 127 2.18  75 2.23  65 2.41
   2  0.272  0.570  0.731-  76 2.21  83 2.21 131 2.38  53 3.12
   3  0.978  0.208  0.057-  61 2.39 115 2.50  54 3.11
   4  0.600  0.843  0.903-  73 2.22  72 2.29  99 2.30  39 3.03
   5  0.150  0.443  0.027-  98 2.18  80 2.24  52 3.00
   6  0.252  0.887  0.470- 110 1.97  44 3.13
   7  0.196  0.413  0.514- 112 2.25  89 2.25
   8  0.966  0.615  0.816-  92 2.22  86 2.31  81 2.36 104 2.52
   9  0.420  0.386  0.709-  77 2.09  76 2.34 134 2.49  83 2.50  49 3.02  51 3.15
  10  0.001  0.951  0.544-  82 1.91 128 1.99  47 3.03  32 3.11
  11  0.845  0.135  0.574-  82 2.09 119 2.27
  12  0.447  0.132  0.685-  77 2.50  30 3.05  49 3.08
  13  0.753  0.682  0.002-  62 1.94  72 2.02
  14  0.795  0.329  0.874-  95 1.98 115 2.30
  15  0.376  0.069  0.118- 109 2.16  66 2.30 121 2.41  41 2.54
  16  0.227  0.225  0.787-  68 2.05 111 2.34 108 2.42  84 2.55  47 3.12
  17  0.796  0.929  0.702-  88 2.27
  18  0.621  0.469  0.641- 100 2.05  60 2.42 134 2.48  53 3.15
  19  0.419  0.728  0.009-  56 2.22 113 2.36 130 2.54  52 2.95
  20  0.904  0.706  0.595- 128 2.20 120 2.27  96 2.39  92 2.50  81 2.54  32 2.54
  21  0.215  0.607  0.266- 102 1.96 130 2.45  48 2.87  52 3.03
  22  0.077  0.827  0.905- 116 2.26 122 2.38  79 2.41 103 2.49
  23  0.974  0.745  0.096-  86 2.11 114 2.17  28 3.13
  24  0.571  0.776  0.628-  96 2.41  93 2.45  99 2.47  46 3.01
  25  0.621  0.326  0.412-  97 2.43  58 2.47  30 3.13
  26  0.752  0.622  0.430-  67 1.83 106 2.17
  27  0.724  0.812  0.285- 118 2.22 114 2.37 106 2.41  37 2.56  36 3.15
  28  0.955  0.968  0.098- 124 1.53 103 1.59  74 1.66  43 2.69  33 2.78  23 3.13
  29  0.869  0.487  0.290-  55 1.55  67 1.56 126 1.79  64 1.82  50 2.83
  30  0.626  0.231  0.614- 134 1.50  97 1.57  94 1.60  12 3.05  25 3.13
  31  0.591  0.105  0.004-  75 1.61 123 1.66 109 1.68  57 2.01  39 2.77  41 2.92
  32  0.079  0.753  0.605- 128 1.61  63 1.61  92 1.69  85 1.86  20 2.54  10 3.11
  33  0.945  0.880  0.276-  90 1.56  70 1.62 124 1.86 114 1.99  28 2.78
  34  0.248  0.220  0.250- 133 1.50 117 1.72  78 1.77 121 1.78  38 2.50
  35  0.223  0.918  0.707- 122 1.63  91 1.68 129 1.72  85 1.94
  36  0.549  0.672  0.297- 125 1.58  69 1.60 107 2.05  44 2.84  27 3.15
  37  0.784  0.882  0.443- 106 1.63  88 1.69  70 1.77 118 1.85  27 2.56
  38  0.394  0.256  0.345-  58 1.44  78 1.73 121 2.09 101 2.47  34 2.50  49 2.61
  39  0.569  0.932  0.098-  66 1.50 135 1.64 123 1.64  73 2.06  31 2.77   4 3.03
  40  0.056  0.392  0.788- 104 1.60  80 1.65 131 1.79  71 1.83  42 3.00
  41  0.395  0.164  0.965- 109 1.59 105 1.84 111 1.85 127 1.94  15 2.54  31 2.92  54 2.94
  42  0.972  0.195  0.783-  84 1.63 115 1.72 119 1.86  71 1.99  47 2.45  40 3.00
  43  0.848  0.886  0.962-  72 1.66  74 1.66  79 1.67  28 2.69
  44  0.418  0.741  0.436- 107 1.60 110 1.63  93 1.75 125 2.40  36 2.84  53 3.00   6 3.13
  45  0.780  0.457  0.080-  95 1.63  62 1.63  65 1.71  55 1.86
  46  0.723  0.670  0.736- 100 1.54  81 1.54  99 1.59  96 2.07  24 3.01
  47  0.076  0.104  0.676- 108 1.54  84 1.65  82 1.80  91 1.89  42 2.45  10 3.03  16 3.12
  48  0.093  0.735  0.370- 102 1.51  63 1.75 132 1.76  90 1.77  21 2.87  50 3.06
  49  0.383  0.273  0.529- 112 1.67 101 1.75  77 1.77  38 2.61   9 3.02  12 3.08
  50  0.028  0.530  0.406-  89 1.54 126 1.71 132 1.81 120 1.86  29 2.83  48 3.06
  51  0.490  0.553  0.844-  59 1.55  56 1.63  76 1.64  87 2.26   9 3.15
  52  0.233  0.639  0.053-  98 1.61 113 1.65 130 1.79 116 1.84  19 2.95   5 3.00  21 3.03
  53  0.438  0.586  0.583-  87 1.66  60 1.69  93 1.71  83 1.77  44 3.00   2 3.12  18 3.15
  54  0.189  0.160  0.009-  61 1.57 105 1.75  68 1.75 117 1.88  41 2.94   3 3.11
  55  0.865  0.460  0.182-  29 1.55  45 1.86
  56  0.512  0.644  0.913-  51 1.63  19 2.22
  57  0.651  0.052  0.885-  31 2.01
  58  0.488  0.278  0.307-  38 1.44  25 2.47
  59  0.563  0.471  0.854-  51 1.55
  60  0.535  0.556  0.519-  53 1.69  18 2.42
[...]
 121  0.341  0.137  0.272-  34 1.78  38 2.09  15 2.41
 122  0.209  0.889  0.818-  35 1.63  22 2.38
 123  0.643  0.008  0.048-  39 1.64  31 1.66
 124  0.996  0.975  0.199-  28 1.53  33 1.86
 125  0.582  0.727  0.390-  36 1.58  44 2.40
 126  0.967  0.437  0.355-  50 1.71  29 1.79
 127  0.412  0.263  0.060-  41 1.94   1 2.18
 128  0.996  0.832  0.619-  32 1.61  10 1.99  20 2.20
 129  0.320  0.974  0.655-  35 1.72
 130  0.303  0.696  0.144-  52 1.79  21 2.45  19 2.54
 131  0.157  0.445  0.731-  40 1.79   2 2.38
 132  0.032  0.634  0.329-  48 1.76  50 1.81
 133  0.179  0.200  0.329-  34 1.50
 134  0.572  0.302  0.674-  30 1.50  18 2.48   9 2.49
 135  0.627  0.831  0.112-  39 1.64

IMPORTANT INFORMATION: All symmetrisations will be switched off!
NOSYMM: (Re-)initialisation of all symmetry stuff for point group C_1.

Automatic generation of k-mesh.
 generate k-points for:    2    2    2
Space group operators:
 irot       det(A)        alpha          n_x          n_y          n_z        tau_x        tau_y        tau_z
    1     1.000000     0.000000     1.000000     0.000000     0.000000     0.000000     0.000000     0.000000

 Subroutine IBZKPT returns following result:

 Found      8 irreducible k-points:

 Following reciprocal coordinates:
            Coordinates               Weight
  0.000000  0.000000  0.000000      1.000000
  0.500000  0.000000  0.000000      1.000000
  0.000000  0.500000  0.000000      1.000000
  0.500000  0.500000  0.000000      1.000000
  0.000000  0.000000  0.500000      1.000000
  0.500000  0.000000  0.500000      1.000000
  0.000000  0.500000  0.500000      1.000000
  0.500000  0.500000  0.500000      1.000000

 Following cartesian coordinates:
            Coordinates               Weight
  0.000000  0.000000  0.000000      1.000000
  0.035682  0.000000  0.000000      1.000000
  0.000000  0.035682  0.000000      1.000000
  0.035682  0.035682  0.000000      1.000000
  0.000000  0.000000  0.035682      1.000000
  0.035682  0.000000  0.035682      1.000000
  0.000000  0.035682  0.035682      1.000000
  0.035682  0.035682  0.035682      1.000000

 SYSTEM =  unknown system
 POSCAR =  Ca Si  O

 Startparameter for this run:
   NWRITE =      2    write-flag & timer
   PREC   = a         normal or accurate (medium, high low for compatibility)
   ISTART =      0    job   : 0-new  1-cont  2-samecut
   ICHARG =      2    charge: 1-file 2-atom 10-const
   ISPIN  =      1    spin polarized calculation?
   LNONCOLLINEAR =      F non collinear calculations
   LSORBIT =      F    spin-orbit coupling
   INIWAV =      1    electr: 0-lowe 1-rand  2-diag
   LASPH  =      F    aspherical Exc in radial PAW
   METAGGA=      F    non-selfconsistent MetaGGA calc.

 Electronic Relaxation 1
   ENCUT  =  600.0 eV  44.10 Ry    6.64 a.u.  27.99 27.99 27.99*2*pi/ulx,y,z
   ENINI  =  600.0     initial cutoff
   ENAUG  =  605.4 eV  augmentation charge cutoff
   NELM   =     60;   NELMIN=  2; NELMDL= -5     # of ELM steps
   EDIFF  = 0.1E-05   stopping-criterion for ELM
   LREAL  =      T    real-space projection
   NLSPLINE    = F    spline interpolate recip. space projectors
   LCOMPAT=      F    compatible to vasp.4.4
   GGA_COMPAT  = T    GGA compatible to vasp.4.4-vasp.4.6
   LMAXPAW     = -100 max onsite density
   LMAXMIX     =    2 max onsite mixed and CHGCAR
   VOSKOWN=      0    Vosko Wilk Nusair interpolation
   ROPT   =   -0.00025  -0.00025  -0.00025
 Ionic relaxation
   EDIFFG = -.1E-01   stopping-criterion for IOM
   NSW    =      1    number of steps for IOM
   NBLOCK =      1;   KBLOCK =      1    inner block; outer block
   IBRION =     -1    ionic relax: 0-MD 1-quasi-New 2-CG
   NFREE  =      0    steps in history (QN), initial steepest desc. (CG)
   ISIF   =      2    stress and relaxation
   IWAVPR =     10    prediction:  0-non 1-charg 2-wave 3-comb
   ISYM   =      0    0-nonsym 1-usesym 2-fastsym
   LCORR  =      T    Harris-Foulkes like correction to forces

   POTIM  = 1.0000    time-step for ionic-motion
   TEIN   =    0.0    initial temperature
   TEBEG  =    0.0;   TEEND  =   0.0 temperature during run
   SMASS  =  -3.00    Nose mass-parameter (am)
   estimated Nose-frequenzy (Omega)   =  0.10E-29 period in steps =****** mass=  -0.449E-26a.u.
   SCALEE = 1.0000    scale energy and forces
   NPACO  =    256;   APACO  = 16.0  distance and # of slots for P.C.
   PSTRESS=    0.0 pullay stress

  Mass of Ions in am
   POMASS =  40.08 28.09 16.00
  Ionic Valenz
   ZVAL   =  10.00  4.00  6.00
  Atomic Wigner-Seitz radii
[...]
     0.000000000  0.000000000 14.012776000     0.000000000  0.000000000  0.071363447

  length of vectors
    14.012776000 14.012776000 14.012776000     0.071363447  0.071363447  0.071363447

 FORCES acting on ions
    electron-ion (+dipol)            ewald-force                    non-local-force                 convergence-correction
   -.287E+02 -.161E+03 -.214E+03   0.310E+02 0.156E+03 0.213E+03   -.155E+01 0.523E+01 0.138E+01   0.331E-02 -.534E-02 0.963E-03
   0.214E+03 -.217E+03 -.768E+02   -.210E+03 0.211E+03 0.784E+02   -.395E+01 0.632E+01 -.288E+00   0.203E-03 -.308E-02 -.475E-02
   0.201E+03 -.741E+02 -.471E+03   -.198E+03 0.713E+02 0.461E+03   -.243E+01 0.280E+01 0.733E+01   -.278E-02 -.453E-03 0.549E-02
   0.191E+03 -.957E+02 0.133E+03   -.191E+03 0.998E+02 -.130E+03   -.191E+00 -.273E+01 -.247E+01   0.749E-02 0.288E-02 -.559E-02
   -.843E+02 0.154E+03 -.261E+03   0.804E+02 -.152E+03 0.255E+03   0.351E+01 -.364E+01 0.416E+01   -.265E-02 -.515E-02 0.251E-02
   -.547E+02 -.341E+03 0.274E+03   0.611E+02 0.338E+03 -.269E+03   -.734E+01 0.311E+01 -.382E+01   -.183E-02 0.378E-02 0.177E-02
   0.220E+03 0.198E+03 0.150E+03   -.217E+03 -.195E+03 -.153E+03   -.319E+01 -.255E+01 0.317E+01   -.978E-03 -.528E-02 -.255E-02
   -.487E+02 0.169E+03 -.123E+03   0.460E+02 -.171E+03 0.122E+03   0.219E+01 -.140E+00 0.163E+01   -.255E-02 -.434E-03 -.327E-02
   -.853E+02 0.118E+03 -.984E+02   0.829E+02 -.117E+03 0.102E+03   0.295E+01 0.549E+00 -.860E+00   0.850E-03 -.381E-02 -.376E-02
   -.128E+03 -.296E+03 0.405E+03   0.126E+03 0.294E+03 -.399E+03   0.233E+01 0.429E+00 -.850E+01   -.213E-02 0.357E-02 -.191E-02
   0.149E+03 -.269E+03 0.413E+03   -.147E+03 0.270E+03 -.406E+03   -.361E+01 0.606E+00 -.686E+01   -.557E-03 0.393E-02 -.556E-02
   -.113E+03 0.326E+03 0.854E+02   0.112E+03 -.324E+03 -.836E+02   0.998E+00 -.203E+01 -.879E+00   0.202E-02 0.323E-02 -.201E-02
   0.881E+02 0.153E+03 -.127E+03   -.866E+02 -.157E+03 0.127E+03   -.116E+01 0.315E+01 0.739E+00   0.184E-02 -.141E-03 -.131E-02
   0.243E+03 0.778E+02 0.646E+02   -.236E+03 -.786E+02 -.597E+02   -.676E+01 -.123E+00 -.648E+01   -.208E-02 -.337E-02 0.296E-03
   0.153E+03 0.195E+03 -.340E+03   -.147E+03 -.195E+03 0.345E+03   -.528E+01 -.869E+00 -.151E+01   0.313E-03 0.521E-02 0.391E-02
   -.120E+03 -.140E+02 0.532E+02   0.118E+03 0.127E+02 -.522E+02   0.166E+01 0.112E+01 -.284E+01   0.128E-02 -.405E-03 -.315E-02
   0.194E+03 -.222E+03 -.142E+03   -.194E+03 0.220E+03 0.137E+03   -.548E+00 0.142E+01 0.416E+01   -.132E-02 0.310E-02 -.140E-03
   -.229E+03 0.262E+03 0.850E+02   0.229E+03 -.255E+03 -.840E+02   0.540E+00 -.661E+01 -.820E+00   0.194E-02 -.372E-02 -.355E-02
   0.449E+02 -.136E+03 -.180E+03   -.471E+02 0.130E+03 0.179E+03   0.138E+01 0.495E+01 0.196E+01   0.416E-02 0.139E-02 -.169E-02
   0.865E+02 0.147E+03 0.214E+02   -.890E+02 -.149E+03 -.209E+02   -.411E-01 0.522E+00 -.721E+00   -.108E-02 -.201E-02 -.295E-02
   -.224E+03 0.258E+03 0.115E+03   0.224E+03 -.255E+03 -.117E+03   0.953E+00 -.558E+01 -.574E+00   -.504E-02 -.414E-02 0.414E-02
   -.156E+03 -.750E+02 -.474E+02   0.161E+03 0.765E+02 0.474E+02   -.376E+01 -.657E+00 -.820E+00   -.622E-02 0.633E-02 -.384E-02
   -.186E+03 0.100E+03 -.161E+03   0.183E+03 -.102E+03 0.157E+03   0.470E+01 0.480E+00 0.371E+01   -.480E-02 0.822E-03 0.298E-02
   0.211E+03 -.427E+03 0.713E+02   -.206E+03 0.418E+03 -.706E+02   -.393E+01 0.602E+01 -.652E+00   0.278E-02 0.121E-03 0.719E-03
   -.138E+03 0.114E+03 0.291E+03   0.140E+03 -.115E+03 -.293E+03   -.942E+00 0.963E+00 0.507E+00   0.109E-01 -.521E-03 -.131E-02
   0.240E+03 0.292E+03 0.125E+01   -.238E+03 -.289E+03 -.193E+01   -.558E+01 -.209E+01 0.470E+01   0.818E-02 -.117E-01 -.120E-02
   0.230E+03 -.122E+03 0.150E+03   -.231E+03 0.126E+03 -.151E+03   -.764E+00 -.390E+01 -.106E+01   0.555E-02 0.353E-02 0.331E-02
   0.496E+02 -.167E+03 -.626E+02   -.371E+02 0.161E+03 0.615E+02   -.113E+02 0.518E+01 -.372E+01   -.132E-02 0.185E-02 0.102E-02
   -.189E+02 0.148E+03 0.668E+02   0.116E+02 -.147E+03 -.634E+02   0.576E+01 -.662E+01 0.258E+01   -.326E-02 -.692E-02 0.767E-02
   -.459E+02 0.995E+02 0.822E+02   0.484E+02 -.963E+02 -.764E+02   -.746E+00 -.692E+01 -.636E+01   0.224E-03 0.172E-03 -.152E-02
   -.120E+03 -.801E+02 -.538E+02   0.121E+03 0.844E+02 0.504E+02   0.131E+01 -.538E+01 -.185E+01   0.340E-02 0.683E-03 -.203E-02
   -.166E+03 0.704E+02 0.303E+00   0.159E+03 -.641E+02 0.618E+01   0.109E+02 -.478E+01 -.648E+00   -.983E-03 -.209E-03 -.647E-03
   -.253E+02 -.134E+03 0.771E+02   0.246E+02 0.131E+03 -.673E+02   -.310E+01 0.280E+01 -.115E+02   -.111E-02 0.158E-02 0.760E-03
   0.780E+02 -.183E+02 0.133E+02   -.846E+02 0.127E+02 0.236E+01   0.986E+01 0.491E+01 -.172E+02   -.261E-03 -.632E-04 0.234E-02
   -.143E+03 0.468E+00 0.670E+01   0.141E+03 0.364E+01 0.255E+01   0.140E+01 -.398E+01 -.833E+01   -.160E-03 0.126E-02 -.119E-02
   0.889E+02 0.139E+03 0.696E+02   -.802E+02 -.132E+03 -.737E+02   -.107E+02 -.687E+01 0.319E+01   0.134E-02 -.711E-04 0.183E-02
   0.122E+03 -.150E+03 -.126E+02   -.122E+03 0.149E+03 0.852E+01   0.650E-01 0.541E+01 0.265E+01   0.601E-03 0.132E-02 -.272E-04
   0.333E+02 0.785E+02 -.615E+02   -.219E+02 -.720E+02 0.505E+02   -.195E+02 -.884E+01 0.106E+02   -.323E-03 -.102E-02 0.274E-02
   0.405E+02 0.229E+02 -.108E+03   -.420E+02 -.176E+02 0.114E+03   0.188E+01 -.751E+01 -.105E+02   0.238E-02 0.389E-02 0.122E-02
   -.101E+02 0.631E+01 0.496E+02   0.280E+01 0.472E+00 -.466E+02   0.887E+01 -.614E+01 -.493E+01   0.325E-03 -.127E-02 -.201E-02
   -.507E+00 -.702E+02 0.222E+02   0.417E+01 0.703E+02 -.214E+02   -.534E+01 0.629E+01 -.480E+01   0.651E-03 0.715E-03 -.592E-03
   0.102E+03 -.122E+02 0.263E+02   -.103E+03 0.123E+02 -.211E+02   -.327E+01 0.406E+01 -.321E+01   -.650E-03 -.255E-03 -.107E-02
   0.966E+01 -.719E+02 0.617E+01   -.976E+01 0.716E+02 -.107E+02   -.435E+00 -.368E+00 0.183E+01   -.109E-02 0.167E-02 -.174E-03
   0.777E+01 -.732E+02 0.103E+03   -.113E+02 0.730E+02 -.102E+03   0.525E+01 0.502E+00 0.144E+01   -.106E-03 0.523E-03 0.170E-02
   -.259E+02 0.792E+02 -.103E+03   0.157E+02 -.800E+02 0.948E+02   0.718E+01 0.228E+00 0.987E+01   0.110E-02 -.190E-02 0.249E-02
   -.269E+02 0.726E+01 -.118E+03   0.242E+02 -.136E+02 0.108E+03   0.238E+01 0.837E+01 0.516E+01   0.257E-03 -.113E-03 -.793E-03
   0.564E+02 -.148E+02 0.113E+03   -.394E+02 0.195E+02 -.114E+03   -.144E+02 -.961E+01 -.815E+00   -.409E-03 0.971E-03 -.139E-02
   -.259E+02 -.601E+02 0.597E+02   0.348E+02 0.533E+02 -.616E+02   -.165E+02 0.586E+01 0.384E+01   -.210E-02 -.743E-03 0.102E-02
   0.222E+02 0.116E+03 0.115E+03   -.230E+02 -.112E+03 -.118E+03   0.206E+00 -.384E+01 0.267E+01   -.632E-04 -.618E-03 -.227E-02
   0.414E+02 0.125E+03 -.187E+02   -.341E+02 -.129E+03 0.178E+02   -.123E+02 0.675E+01 0.280E+01   -.394E-02 -.396E-02 -.642E-03
   -.142E+02 -.267E+02 -.806E+02   0.170E+02 0.172E+02 0.880E+02   -.500E+01 0.107E+02 -.759E+01   0.144E-02 -.115E-02 -.144E-02
   -.462E+02 0.249E+01 -.729E+02   0.471E+02 -.186E+01 0.679E+02   0.142E+00 0.483E+01 0.213E+01   -.970E-03 -.161E-02 0.364E-02
   0.526E+02 0.124E+02 0.132E+03   -.465E+02 -.128E+02 -.126E+03   -.513E+01 -.971E+00 -.483E+01   0.293E-03 -.168E-02 0.513E-03
   -.220E+02 -.230E+02 -.151E+03   0.112E+02 0.176E+02 0.141E+03   0.118E+02 0.703E+01 0.742E+01   -.308E-03 0.162E-03 0.550E-03
   -.740E+02 0.187E+03 0.319E+02   0.836E+02 -.198E+03 -.506E+02   -.980E+01 0.110E+02 0.146E+02   -.114E-02 -.454E-02 0.959E-02
   -.247E+02 -.285E+01 -.120E+03   0.340E+02 0.187E+02 0.134E+03   -.963E+01 -.150E+02 -.148E+02   0.286E-02 -.869E-03 -.252E-02
   -.709E+02 -.101E+03 0.139E+03   0.779E+02 0.987E+02 -.149E+03   -.822E+01 0.335E+01 0.108E+02   0.171E-02 0.205E-02 -.175E-02
   -.181E+03 0.157E+02 0.115E+03   0.216E+03 -.911E+01 -.135E+03   -.255E+02 -.433E+01 0.189E+02   0.807E-04 -.272E-02 0.360E-02
   -.137E+03 0.165E+03 -.166E+03   0.160E+03 -.190E+03 0.174E+03   -.214E+02 0.233E+02 -.873E+01   0.984E-03 -.193E-02 -.128E-02
   -.416E+02 0.106E+03 0.273E+03   0.602E+02 -.107E+03 -.290E+03   -.201E+02 -.528E+00 0.189E+02   0.208E-02 -.315E-02 0.210E-02
[...]
   -.192E+03 -.854E+01 -.144E+03   0.192E+03 0.377E+01 0.171E+03   0.298E+00 0.451E+01 -.282E+02   -.294E-03 0.267E-02 -.213E-02
   -.196E+03 -.163E+03 -.161E+03   0.227E+03 0.157E+03 0.157E+03   -.295E+02 0.862E+01 0.548E+01   0.469E-02 0.489E-02 -.369E-02
   -.109E+03 -.292E+03 -.168E+03   0.135E+03 0.307E+03 0.190E+03   -.276E+02 -.162E+02 -.146E+02   -.250E-02 0.410E-02 0.190E-02
   0.775E+02 -.963E+02 0.177E+02   -.660E+02 0.110E+03 0.755E+01   -.112E+02 -.132E+02 -.241E+02   0.384E-02 0.356E-02 0.483E-02
   -.458E+02 0.368E+03 0.404E+02   0.483E+02 -.398E+03 -.389E+02   -.207E+01 0.337E+02 -.272E+01   -.122E-01 -.558E-02 0.291E-02
   0.465E+02 -.155E+03 -.120E+03   -.487E+02 0.165E+03 0.132E+03   0.457E+00 -.137E+02 -.146E+02   0.128E-02 -.158E-02 0.991E-03
   0.176E+02 -.110E+03 -.106E+03   -.328E+02 0.125E+03 0.116E+03   0.135E+02 -.147E+02 -.985E+01   -.112E-02 0.503E-03 -.105E-02
   -.204E+03 -.390E+02 0.776E+02   0.222E+03 0.499E+02 -.869E+02   -.192E+02 -.124E+02 0.992E+01   0.365E-04 0.253E-02 -.628E-03
   -.115E+03 -.111E+03 -.108E+03   0.127E+03 0.123E+03 0.124E+03   -.139E+02 -.144E+02 -.174E+02   -.358E-03 0.491E-03 0.247E-02
   0.287E+02 -.837E+01 0.579E+02   -.165E+02 0.146E+02 -.663E+02   -.134E+02 -.689E+01 0.933E+01   -.107E-03 -.164E-02 -.283E-02
   0.330E+02 0.747E+02 0.171E+03   -.474E+02 -.789E+02 -.190E+03   0.157E+02 0.608E+01 0.187E+02   -.391E-02 -.418E-02 0.221E-02
   0.240E+03 0.747E+02 -.115E+03   -.264E+03 -.830E+02 0.146E+03   0.204E+02 0.797E+01 -.284E+02   -.209E-02 0.161E-02 0.216E-02
   -.814E+02 0.645E+02 -.868E+02   0.674E+02 -.447E+02 0.109E+03   0.984E+01 -.163E+02 -.198E+02   0.148E-03 -.184E-02 -.250E-02
   0.522E+02 0.128E+02 -.120E+03   -.372E+02 -.368E+02 0.122E+03   -.154E+02 0.249E+02 -.267E+01   0.470E-02 0.418E-02 -.103E-02
   0.129E+03 0.178E+02 0.467E+02   0.102E-11 0.632E-12 0.134E-11   -.129E+03 -.178E+02 -.467E+02   0.309E-02 -.335E-01 -.113E-01

 POSITION                                       TOTAL-FORCE (eV/Angst)
      7.58076      4.89226      1.05887         0.768167     -0.103846     -0.024435
      3.81446      7.98677     10.23646        -0.619338      0.185857      1.297616
     13.70719      2.91787      0.79878         0.282201     -0.089514     -2.835031
      8.40514     11.80790     12.65612        -0.119871      1.348624      0.427046
      2.10227      6.21122      0.38232        -0.414673     -0.935862     -1.851656
      3.53808     12.43393      6.58347        -0.950470      0.721084      1.540741
      2.74810      5.78759      7.19731         0.201373      0.230398      0.418985
     13.53589      8.61565     11.43520        -0.464395     -1.622496      0.148519
      5.88745      5.41575      9.93454         0.576697      1.442913      2.312257
      0.00908     13.33128      7.61878         0.768486     -2.109745     -2.958053
     11.83835      1.89811      8.03756        -1.583044      1.422516      0.508451
      6.25758      1.85519      9.60561        -0.438384     -0.617130      0.891662
     10.55095      9.55780      0.03141         0.351550     -0.858879      0.667134
     11.14072      4.61604     12.24258         0.660910     -0.833672     -1.535828
      5.26538      0.96969      1.65846         0.024329     -1.141277      3.469296
      3.17845      3.15678     11.03168         0.130253     -0.215260     -1.816359
     11.15462     13.01430      9.83434         0.129242     -0.587732     -0.053256
      8.69937      6.57413      8.97775         0.381086      0.380262      0.195184
      5.86688     10.20557      0.12127        -0.785571     -0.438681      0.459820
     12.67250      9.89277      8.33978        -2.560047     -1.692068     -0.242157
      3.01448      8.50753      3.73318         0.919777     -2.593740     -1.877969
      1.07886     11.58307     12.67964         1.696062      0.876163     -0.803958
     13.64768     10.43953      1.34240         1.703804     -1.626364     -0.216184
      7.99995     10.87719      8.79384         1.115646     -2.149522      0.110331
      8.70050      4.57347      5.77002         0.698922      0.136360     -1.325137
     10.53389      8.71632      6.02481        -3.129372      0.377994      4.012291
     10.14426     11.37864      3.99326        -1.346369      0.125193     -2.411431
     13.38503     13.55993      1.37642         1.135320     -0.207346     -4.786404
     12.17173      6.82155      4.05685        -1.461694     -5.064609      6.013473
      8.77672      3.24269      8.59809         1.777897     -3.780587     -0.574376
      8.27497      1.46848      0.06177         2.011426     -1.139799     -5.241513
      1.10927     10.55717      8.47974         3.884738      1.513929      5.832715
     13.24440     12.33282      3.87172        -3.827222      0.268672     -1.672889
      3.46889      3.08094      3.50243         3.220723     -0.636170     -1.606866
      3.12978     12.87031      9.90020         0.011245      0.135988      0.921458
      7.68654      9.42207      4.16691        -2.068016     -0.492708     -0.897043
     10.99258     12.36327      6.20251        -0.450051      4.392833     -1.412679
      5.52537      3.59087      4.82892        -8.073042     -2.370157     -0.411693
      7.97788     13.06117      1.37367         0.383843     -2.208407     -4.283027
      0.78067      5.49092     11.04384         1.577023      0.644664     -2.009309
      5.52813      2.29857     13.52606        -1.671492      6.412666     -4.041085
     13.61550      2.73155     10.97342        -4.777861      4.123141      2.001191
     11.87808     12.41019     13.47726        -0.535074     -0.662757     -2.747702
      5.85813     10.38589      6.10887         1.752642      0.296159      2.931376
     10.92919      6.39796      1.12338        -3.004742     -0.515405      1.443543
     10.13439      9.39185     10.31123        -0.299169      2.076815     -4.554697
      1.06915      1.46065      9.47549         2.593255     -4.962053     -1.814066
      1.30907     10.30267      5.18290        -7.548176     -0.911693      1.949839
      5.36664      3.82838      7.41905        -0.665795     -0.158629     -0.506878
      0.38582      7.42867      5.68968        -4.990938      2.876395      1.840329
      6.86785      7.74356     11.82337        -2.199559      1.145499     -0.162279
      3.26607      8.95606      0.74412         1.022864      5.447019     -2.861433
      6.13191      8.21404      8.16738         0.928173     -1.407407      1.357182
      2.65415      2.23963      0.12031         0.913252      1.633457     -1.953410
     12.11656      6.44051      2.55415        -0.272363      0.086995     -4.114490
      7.16768      9.01741     12.78770        -0.391578      0.912114     -0.423430
      9.11801      0.72703     12.40202        -1.143338      0.856427      1.078371
      6.83701      3.89019      4.30380         8.847577      2.251736     -1.502203
      7.88977      6.59388     11.97173         1.917588     -1.815757     -1.330547
      7.49782      7.79122      7.26904        -1.438041     -1.401817      1.423903
[...]
      4.78057      1.92413      3.81344         0.440173      2.480616      0.219198
      2.92801     12.46032     11.46757         0.510091     -0.262058     -0.975399
      9.01311      0.11594      0.67039         1.288989      2.051089      1.162851
     13.95140     13.66945      2.79099        -1.680969     -1.067299      6.692105
      8.15828     10.19319      5.46858         0.263959      0.944249      1.178252
     13.54519      6.12748      4.97561         0.355230      3.226068     -1.180949
      5.77477      3.68178      0.84547        -1.751168     -3.374077     -2.932673
     13.95318     11.65243      8.68003        -1.761666      0.354855      1.020532
      4.48085     13.65543      9.17200        -1.598630     -1.445737      0.584872
      4.23947      9.75384      2.02210        -1.901727     -1.997566     -2.092178
      2.19679      6.24162     10.24527        -1.197162     -0.685981      0.983752
      0.44976      8.88331      4.60734         1.265303      1.931127      0.625704
      2.50445      2.79749      4.61560        -3.811686     -0.318594      2.190859
      8.02023      4.23221      9.44146        -4.254946      3.462333      2.813411
      8.78883     11.65069      1.56474        -0.454468      0.903732     -0.312725
    total drift:                               -0.007816      0.003047     -0.008102

  FREE ENERGIE OF THE ION-ELECTRON SYSTEM (eV)
  free  energy   TOTEN  =      -885.88085527 eV

  energy  without entropy=     -885.81184155  energy(sigma->0) =     -885.84634841