 vasp.5.4.4.18Apr17-6-g9f103f2a35 (build Oct 31 2019 15:01:46) complex

 executed on             LinuxIFC date 2024.04.29  23:39:08

 INCAR:
 POTCAR:    PAW_PBE Ca_sv 06Sep2000
 POTCAR:    PAW_PBE Si 05Jan2001
 POTCAR:    PAW_PBE O 08Apr2002
 POTCAR:    PAW_PBE Ca_sv 06Sep2000
   VRHFIN =Ca: 3s3p4s

   TITEL  = PAW_PBE Ca_sv 06Sep2000
   POMASS =   40.078; ZVAL   =   10.000    mass and valenz
   ENMAX  =  266.622; ENMIN  =  199.967 eV

   TITEL  = PAW_PBE Si 05Jan2001
   POMASS =   28.085; ZVAL   =    4.000    mass and valenz
   ENMAX  =  245.345; ENMIN  =  184.009 eV

   TITEL  = PAW_PBE O 08Apr2002
   POMASS =   16.000; ZVAL   =    6.000    mass and valenz
   ENMAX  =  400.000; ENMIN  =  300.000 eV

 Optimization of the real space projectors (new method)

 maximal supplied QI-value         = 16.25
 optimisation between [QCUT,QGAM] = [ 12.51, 25.03] = [ 43.85,175.40] Ry
 Optimized for a Real-space Cutoff    1.47 Angstroem

   l    n(q)    QCUT    max X(q) W(low)/X(q) W(high)/X(q)  e(spline)
   0     11    12.514    11.817    0.25E-04    0.32E-05    0.87E-07
   0     11    12.514     8.461    0.39E-04    0.59E-05    0.18E-06
   1     11    12.514     3.957    0.97E-05    0.57E-05    0.28E-07
   1     11    12.514     4.314    0.42E-04    0.14E-04    0.23E-06
   2     10    12.514    14.565    0.79E-04    0.50E-03    0.16E-05
   2     10    12.514    14.552    0.75E-04    0.48E-03    0.15E-05
 Optimization of the real space projectors (new method)

[...]

   l    n(q)    QCUT    max X(q) W(low)/X(q) W(high)/X(q)  e(spline)
   0      9    12.501   159.560    0.10E-03    0.83E-04    0.71E-07
   0      9    12.501   115.863    0.99E-04    0.81E-04    0.70E-07
   1      8    12.501    88.339    0.20E-03    0.25E-03    0.76E-07
   1      8    12.501    48.592    0.20E-03    0.24E-03    0.75E-07
 Optimization of the real space projectors (new method)

 maximal supplied QI-value         = 24.76
 optimisation between [QCUT,QGAM] = [ 12.38, 25.00] = [ 42.90,175.06] Ry
 Optimized for a Real-space Cutoff    1.16 Angstroem

   l    n(q)    QCUT    max X(q) W(low)/X(q) W(high)/X(q)  e(spline)
   0      9    12.378    20.381    0.16E-03    0.67E-05    0.31E-06
   0      9    12.378    15.268    0.17E-03    0.81E-05    0.33E-06
   1      8    12.378     5.964    0.20E-03    0.16E-03    0.30E-06
   1      8    12.378     5.382    0.18E-03    0.14E-03    0.26E-06
  PAW_PBE Ca_sv 06Sep2000               :
  PAW_PBE Si 05Jan2001                  :
  PAW_PBE O 08Apr2002                   :

 POSCAR: Ca Si  O
  positions in direct lattice
 exchange correlation table for  LEXCH =        8
   RHO(1)=    0.500       N(1)  =     2000
   RHO(2)=  100.500       N(2)  =     4000

 ion  position               nearest neighbor table
   1  0.789  0.148  0.556- 113 2.16  56 2.31 109 2.51 114 2.54  66 2.56  28 2.91  32 3.05  35 3.09

   2  0.696  0.505  0.521-  59 1.96  86 2.21 131 2.26   5 2.87   7 3.02
   3  0.594  0.075  0.194-  94 2.18 118 2.41  75 2.55  40 2.80  39 3.09
   4  0.631  0.726  0.661-  59 2.06 122 2.20  71 2.24  62 2.28  82 2.42  80 2.55  25 2.99  28 3.09

[...]

  19  0.883  0.717  0.115- 130 2.11  87 2.11  96 2.12  26 3.12
  20  0.199  0.920  0.540- 134 1.84  63 2.13  58 2.20  85 2.57  17 2.68  18 3.06
  21  0.271  0.645  0.534-  63 1.85  79 2.08  67 2.29   5 2.70  47 3.04  31 3.08
  22  0.654  0.370  0.743-  56 1.94  64 2.06  62 2.36  53 2.93  32 3.01
  23  0.372  0.130  0.958-  84 2.33  57 2.36  94 2.39  98 2.40  52 3.01
  24  0.996  0.177  0.994-  72 2.11 103 2.17 132 2.49  65 2.49  29 2.77  37 2.86
  25  0.623  0.805  0.427- 135 2.08  88 2.31  59 2.32  75 2.37  45 2.86   4 2.99  48 3.06
  26  0.039  0.912  0.051- 100 1.89 129 2.44 130 2.47 108 2.57  14 3.00  19 3.12
  27  0.135  0.164  0.691-  85 2.00 103 2.31 101 2.38  36 3.08
  28  0.725  0.961  0.693- 125 1.61  66 1.63 109 1.83  71 1.93  44 2.73   1 2.91   4 3.09  32 3.13
                            48 3.13
  29  0.158  0.243  0.142- 104 1.51  72 1.78  95 1.79 123 2.14  24 2.77
  30  0.970  0.672  0.864- 107 1.54 130 1.76 102 1.86  81 1.92  93 2.15 128 2.23  47 2.50  53 2.62
                            15 2.91  42 3.06
  31  0.296  0.406  0.618-  92 1.48  67 1.72 119 1.82 106 1.85   5 2.79  36 2.85  21 3.08  41 3.09

[...]

  46  0.650  0.523  0.250- 120 1.53  99 1.79 112 1.81  90 2.05  68 2.46  11 2.59  51 2.96
  47  0.077  0.687  0.688-  93 1.63  91 1.63 102 1.73  63 2.07  73 2.44  81 2.49  30 2.50   7 2.61
                            15 2.80  21 3.04
  48  0.859  0.830  0.514-  82 1.59  78 1.66  83 1.67  66 1.73  33 2.85  17 3.06  25 3.06  28 3.13

[...]

  54  0.237  0.690  0.252-  89 1.70  97 1.79  79 1.88  61 1.95  17 2.87   9 3.03  45 3.07
  55  0.358  0.196  0.285-  39 1.74  18 2.08  51 2.53
  56  0.750  0.244  0.716-  32 1.47  22 1.94   1 2.31
  57  0.496  0.012  0.866-  50 1.79  44 1.93  23 2.36
  58  0.156  0.944  0.716-  38 1.64  20 2.20
  59  0.603  0.637  0.519-   2 1.96   4 2.06   5 2.16  25 2.32
  60  0.530  0.268  0.113-  34 1.47
  61  0.106  0.611  0.304-  54 1.95  17 2.47
  62  0.671  0.564  0.750-  53 1.84   4 2.28  12 2.30  22 2.36
  63  0.160  0.749  0.551-  21 1.85  17 2.03  47 2.07  20 2.13
  64  0.795  0.418  0.825-  53 1.51  22 2.06
  65  0.927  0.138  0.803-  32 1.58  14 2.34  24 2.49
  66  0.789  0.937  0.577-  28 1.63  48 1.73   1 2.56
  67  0.353  0.529  0.659-  31 1.72  49 2.08   5 2.19  21 2.29
  68  0.764  0.391  0.352-   6 2.07  46 2.46  13 2.53
  69  0.773  0.205  0.080-  37 2.05   6 2.30  34 2.40
  70  0.023  0.420  0.421-  43 1.59  41 2.15  13 2.46
  71  0.703  0.837  0.791-  28 1.93   4 2.24
  72  0.048  0.147  0.158-  29 1.78  24 2.11
  73  0.259  0.758  0.738-  49 1.92  38 2.27  47 2.44
  74  0.438  0.119  0.714-  44 1.45  36 1.53
  75  0.638  0.875  0.245-  40 1.56  25 2.37   3 2.55
  76  0.143  0.267  0.479-  41 1.49  10 2.23  43 2.43
  77  0.356  0.575  0.899-  49 1.77   8 2.02   9 2.53
  78  0.837  0.804  0.381-  48 1.66  33 2.02
  79  0.321  0.634  0.370-  54 1.88  21 2.08
  80  0.511  0.899  0.675-  44 1.54   4 2.55
  81  0.889  0.620  0.738-  53 1.79  30 1.92 102 1.94   7 2.02  47 2.49
  82  0.800  0.721  0.555-  48 1.59   7 2.40   4 2.42
  83  0.992  0.853  0.543-  48 1.67  17 2.15
  84  0.350  0.316  0.910-  52 1.50  23 2.33   8 2.55
  85  0.261  0.116  0.595-  36 1.70  27 2.00  18 2.31  20 2.57
  86  0.574  0.371  0.534-  35 1.73   2 2.21   5 2.37
  87  0.880  0.544  0.135-  42 1.71  19 2.11  13 2.22
  88  0.469  0.917  0.446-  45 1.54  25 2.31
  89  0.285  0.605  0.151-  54 1.70   9 1.92
  90  0.690  0.384  0.162-  34 1.89  46 2.05   6 2.38
  91  0.082  0.578  0.609-  47 1.63   7 1.89  15 2.38
  92  0.189  0.372  0.667-  31 1.48  15 2.28
  93  0.133  0.638  0.801-  47 1.63  15 2.14  30 2.15
  94  0.431  0.041  0.125-  39 1.74   3 2.18  23 2.39  16 2.57
  95  0.167  0.300  0.278-  41 1.56  29 1.79
  96  0.728  0.785  0.067-  40 1.49  19 2.12
  97  0.319  0.813  0.250-  45 1.75  54 1.79  16 2.51
  98  0.214  0.014  0.930-  38 1.68  23 2.40  16 2.50
  99  0.552  0.537  0.139-  11 1.75  46 1.79   8 2.21
 100  0.100  0.776  0.096-  26 1.89
 101  0.996  0.279  0.611-  43 1.56  27 2.38
 102  0.966  0.762  0.739-  47 1.73  30 1.86  81 1.94  14 2.46
 103  0.109  0.234  0.866-  52 1.82  24 2.17  27 2.31
 104  0.224  0.296  0.049-  29 1.51  52 1.87
 105  0.901  0.276  0.407-  43 1.60   6 2.26  10 2.38
 106  0.281  0.403  0.466-  41 1.58  31 1.85
 107  0.996  0.595  0.962-  30 1.54  42 1.76   9 2.46
 108  0.855  0.964  0.141-  37 1.74  33 2.12  26 2.57
 109  0.621  0.048  0.626-  44 1.71  28 1.83   1 2.51
 110  0.365  0.375  0.193-  51 1.61
 111  0.862  0.980  0.933-  37 1.60  14 1.90
 112  0.540  0.477  0.340-  51 1.66  46 1.81   5 2.38
 113  0.652  0.137  0.441-  35 1.70   1 2.16
[...]
 121  0.165  0.475  0.911-  15 1.98  52 1.99   9 2.03
 122  0.472  0.648  0.702-  49 1.50   4 2.20
 123  0.259  0.098  0.149-  39 1.52  29 2.14
 124  0.584  0.291  0.316-  35 1.55  51 1.93   6 2.54
 125  0.766  0.052  0.782-  28 1.61  32 1.65
 126  0.435  0.207  0.510-  36 1.55  18 2.08  35 2.19
 127  0.529  0.763  0.973-  50 1.61 116 1.93  12 2.11  40 2.55
 128  0.829  0.579  0.938-  53 1.44  42 2.05  30 2.23  12 2.33
 129  0.005  0.921  0.250-  33 1.51  26 2.44
 130  0.923  0.775  0.955-  30 1.76  19 2.11  26 2.47
 131  0.844  0.402  0.571-  43 1.75   2 2.26   7 2.30
 132  0.965  0.360  0.082-  42 1.63  24 2.49
 133  0.682  0.211  0.914-  32 2.00  34 2.18
 134  0.219  0.953  0.393-  20 1.84  18 2.27  45 2.54
 135  0.468  0.743  0.382-  45 1.55  25 2.08

IMPORTANT INFORMATION: All symmetrisations will be switched off!
NOSYMM: (Re-)initialisation of all symmetry stuff for point group C_1.

Automatic generation of k-mesh.
 generate k-points for:    2    2    2
Space group operators:
 irot       det(A)        alpha          n_x          n_y          n_z        tau_x        tau_y        tau_z
    1     1.000000     0.000000     1.000000     0.000000     0.000000     0.000000     0.000000     0.000000

 Subroutine IBZKPT returns following result:

 Found      8 irreducible k-points:

 Following reciprocal coordinates:
            Coordinates               Weight
  0.000000  0.000000  0.000000      1.000000
  0.500000  0.000000  0.000000      1.000000
  0.000000  0.500000  0.000000      1.000000
  0.500000  0.500000  0.000000      1.000000
  0.000000  0.000000  0.500000      1.000000
  0.500000  0.000000  0.500000      1.000000
  0.000000  0.500000  0.500000      1.000000
  0.500000  0.500000  0.500000      1.000000

 Following cartesian coordinates:
            Coordinates               Weight
  0.000000  0.000000  0.000000      1.000000
  0.041344  0.000000  0.000000      1.000000
  0.000000  0.041344  0.000000      1.000000
  0.041344  0.041344  0.000000      1.000000
  0.000000  0.000000  0.041344      1.000000
  0.041344  0.000000  0.041344      1.000000
  0.000000  0.041344  0.041344      1.000000
  0.041344  0.041344  0.041344      1.000000

 SYSTEM =  unknown system
 POSCAR =  Ca Si  O

 Startparameter for this run:
   NWRITE =      2    write-flag & timer
   PREC   = a         normal or accurate (medium, high low for compatibility)
   ISTART =      0    job   : 0-new  1-cont  2-samecut
   ICHARG =      2    charge: 1-file 2-atom 10-const
   ISPIN  =      1    spin polarized calculation?
   LNONCOLLINEAR =      F non collinear calculations
   LSORBIT =      F    spin-orbit coupling
   INIWAV =      1    electr: 0-lowe 1-rand  2-diag
   LASPH  =      F    aspherical Exc in radial PAW
   METAGGA=      F    non-selfconsistent MetaGGA calc.

 Electronic Relaxation 1
   ENCUT  =  600.0 eV  44.10 Ry    6.64 a.u.  24.15 24.15 24.15*2*pi/ulx,y,z
   ENINI  =  600.0     initial cutoff
   ENAUG  =  605.4 eV  augmentation charge cutoff
   NELM   =     60;   NELMIN=  2; NELMDL= -5     # of ELM steps
   EDIFF  = 0.1E-05   stopping-criterion for ELM
   LREAL  =      T    real-space projection
   NLSPLINE    = F    spline interpolate recip. space projectors
   LCOMPAT=      F    compatible to vasp.4.4
   GGA_COMPAT  = T    GGA compatible to vasp.4.4-vasp.4.6
   LMAXPAW     = -100 max onsite density
   LMAXMIX     =    2 max onsite mixed and CHGCAR
   VOSKOWN=      0    Vosko Wilk Nusair interpolation
[...]
     0.000000000  0.000000000 12.093787620     0.000000000  0.000000000  0.082687081

  length of vectors
    12.093787620 12.093787620 12.093787620     0.082687081  0.082687081  0.082687081

 FORCES acting on ions
    electron-ion (+dipol)            ewald-force                    non-local-force                 convergence-correction
   -.109E+03 0.311E+02 0.198E+02   0.105E+03 -.292E+02 -.221E+02   0.437E+01 -.126E+01 0.190E+01   0.416E-02 -.362E-02 -.264E-02
   -.107E+03 0.625E+02 0.487E+02   0.106E+03 -.655E+02 -.506E+02   0.282E+01 0.856E+00 0.100E+01   -.319E-02 0.571E-02 0.341E-04
   -.710E+02 -.384E+02 -.115E+03   0.657E+02 0.378E+02 0.109E+03   0.454E+01 0.182E+01 0.521E+01   -.757E-02 -.523E-02 0.976E-02
   0.466E+02 -.181E+03 -.719E+02   -.482E+02 0.177E+03 0.738E+02   0.132E+01 0.457E+01 -.745E+00   -.365E-02 0.120E-03 -.724E-02
   0.955E+02 0.724E+02 0.599E+02   -.891E+02 -.699E+02 -.602E+02   -.494E+01 -.167E+01 -.957E+00   -.101E-01 0.101E-01 -.825E-02
   -.155E+03 0.218E+03 0.123E+03   0.155E+03 -.209E+03 -.123E+03   -.407E-01 -.791E+01 -.419E+00   0.348E-02 -.242E-02 0.121E-01
   0.424E+02 0.464E+02 0.231E+03   -.458E+02 -.492E+02 -.230E+03   -.166E+01 0.145E+01 -.523E+01   0.530E-02 0.270E-02 -.236E-02
   0.122E+03 0.805E+02 -.121E+02   -.121E+03 -.832E+02 0.107E+02   -.391E+01 0.926E+00 0.378E+01   -.909E-02 0.300E-02 0.182E-02
   0.277E+02 -.990E+01 -.139E+03   -.273E+02 0.101E+02 0.137E+03   -.263E+01 0.150E+01 -.639E+00   -.519E-03 0.307E-02 0.382E-02
   0.923E+01 0.168E+03 0.991E+02   -.109E+02 -.162E+03 -.100E+03   0.127E+01 -.579E+01 -.417E-02   0.533E-02 -.226E-02 0.435E-02
   0.849E+02 -.197E+02 -.727E+02   -.890E+02 0.257E+02 0.761E+02   0.123E+01 -.151E+00 0.243E+01   -.794E-02 -.455E-02 0.169E-01
   0.696E+02 0.378E+02 -.474E+02   -.715E+02 -.353E+02 0.484E+02   0.107E+01 -.194E+01 0.144E+00   0.181E-02 -.303E-03 -.330E-02
   -.140E+03 -.310E+02 0.411E+02   0.141E+03 0.245E+02 -.469E+02   -.191E+00 0.480E+01 0.486E+01   0.963E-02 0.666E-02 0.217E-02
   -.155E+03 -.371E+02 0.142E+03   0.151E+03 0.361E+02 -.143E+03   0.497E+01 -.431E+00 -.234E+01   0.984E-02 -.418E-02 -.325E-02
   0.103E+03 0.295E+03 -.428E+02   -.965E+02 -.296E+03 0.425E+02   -.793E+01 -.159E+01 -.163E+01   0.398E-02 0.218E-02 -.332E-02
   0.154E+03 0.269E+01 -.819E+01   -.150E+03 -.291E+01 0.111E+02   -.366E+01 -.100E+00 -.967E+00   -.126E-01 -.803E-04 -.548E-03
   0.779E+02 0.595E+01 0.305E+03   -.791E+02 -.719E+01 -.305E+03   -.470E-01 0.982E+00 -.375E+01   0.834E-02 -.531E-02 -.589E-03
   -.286E+02 0.713E+02 0.377E+02   0.302E+02 -.682E+02 -.339E+02   -.167E+01 -.339E+01 0.123E+00   -.221E-02 -.483E-02 -.168E-03
   -.845E+02 -.389E+02 -.254E+03   0.822E+02 0.376E+02 0.248E+03   0.280E+01 0.204E+01 0.639E+01   0.695E-02 0.381E-03 0.271E-02
   -.765E+02 -.144E+03 -.110E+03   0.758E+02 0.142E+03 0.116E+03   0.762E+00 0.215E+01 0.709E+00   0.202E-02 -.377E-02 -.129E-02
   -.661E+02 0.162E+02 0.514E+02   0.632E+02 -.160E+02 -.528E+02   0.482E+01 -.279E+01 0.204E+01   0.452E-02 0.188E-02 -.177E-01
   0.269E+03 0.113E+03 -.573E+02   -.266E+03 -.113E+03 0.616E+02   -.638E+01 0.141E+01 -.332E+01   -.321E-02 0.959E-02 -.107E-01
   -.457E+02 -.778E+02 0.842E+02   0.478E+02 0.782E+02 -.807E+02   -.102E+01 0.157E+00 -.205E+01   -.104E-01 -.279E-02 -.388E-03
   0.425E+02 -.551E+02 -.372E+02   -.423E+02 0.604E+02 0.369E+02   -.179E+01 -.368E+01 -.973E+00   0.126E-01 -.270E-02 -.195E-02
   -.109E+03 -.200E+03 0.243E+02   0.105E+03 0.197E+03 -.283E+02   0.507E+01 0.357E+01 0.335E+01   -.134E-01 -.406E-02 0.156E-03
   -.135E+03 -.195E+03 -.258E+02   0.134E+03 0.190E+03 0.315E+02   0.428E+00 0.736E+01 -.471E+01   0.747E-02 -.520E-02 -.134E-02
   0.635E+02 0.912E+02 -.964E+02   -.666E+02 -.852E+02 0.964E+02   -.675E+00 -.359E+01 0.136E+01   0.329E-03 -.226E-02 -.379E-02
   0.195E+02 0.312E+02 -.180E+02   -.185E+02 -.268E+02 0.202E+02   -.481E+01 -.559E+01 0.111E+01   0.669E-03 -.190E-02 -.284E-02
   0.493E+02 -.240E+02 -.403E+02   -.474E+02 0.239E+02 0.320E+02   -.309E+01 -.476E+01 0.155E+02   0.131E-02 0.282E-03 0.111E-02
   -.333E+02 -.560E+02 0.806E+01   0.324E+02 0.588E+02 0.800E+00   -.978E+00 0.407E+01 -.111E+02   0.245E-02 0.124E-02 -.513E-03
   -.452E+02 0.337E+02 0.115E+02   0.353E+02 -.345E+02 0.899E+00   0.154E+02 0.145E+01 -.118E+02   -.105E-02 0.166E-02 -.215E-02
   -.197E+02 -.615E+02 -.120E+03   0.193E+02 0.600E+02 0.106E+03   -.869E+00 -.106E+01 0.196E+02   0.708E-02 -.217E-02 -.625E-02
   0.583E+02 -.172E+02 0.293E+02   -.462E+02 0.223E+02 -.266E+02   -.162E+02 -.701E+01 -.434E+01   0.192E-02 -.167E-02 0.168E-02
   -.829E+02 0.218E+02 0.106E+03   0.685E+02 -.231E+02 -.951E+02   0.209E+02 0.617E+01 -.157E+02   -.570E-02 0.482E-02 0.330E-02
   0.172E+02 0.610E+02 -.599E+02   -.143E+02 -.613E+02 0.526E+02   -.372E+01 -.145E+01 0.122E+02   -.248E-02 -.205E-03 0.834E-03
   0.216E+02 -.724E+01 -.671E+02   -.152E+02 0.751E+01 0.614E+02   -.841E+01 0.482E+01 0.483E+01   -.223E-02 -.636E-03 -.167E-02
   0.280E+02 -.108E+03 -.426E+02   -.248E+02 0.986E+02 0.410E+02   -.823E+01 0.778E+01 0.443E+01   0.404E-02 -.657E-02 0.803E-03
   -.173E+02 0.215E+02 -.233E+02   0.103E+02 -.166E+02 0.219E+02   0.933E+01 -.690E+01 -.323E+00   -.172E-02 -.143E-02 -.385E-03
   -.441E+01 0.941E+02 -.689E+02   0.232E+01 -.859E+02 0.601E+02   0.597E+01 -.644E+01 0.455E+01   -.166E-02 -.114E-02 0.228E-02
   0.268E+02 -.812E+02 0.118E+02   -.161E+02 0.739E+02 -.623E+01   -.142E+02 0.108E+02 -.707E+01   0.206E-02 -.743E-03 0.246E-02
   -.156E+02 -.108E+03 0.119E+03   0.126E+02 0.922E+02 -.108E+03   0.383E+00 0.184E+02 -.113E+02   0.107E-02 0.206E-02 0.657E-03
   -.187E+02 0.127E+03 0.952E+01   0.203E+02 -.130E+03 0.589E+01   -.348E+01 0.523E+01 -.113E+02   0.330E-02 0.246E-02 0.411E-03
   -.201E+02 0.558E+01 -.910E+01   0.185E+02 -.973E+01 0.921E+01   -.187E+01 0.429E+01 0.742E+00   0.319E-02 -.221E-03 0.166E-02
   0.124E+02 -.143E+02 -.264E+02   -.123E+02 0.798E+01 0.209E+02   0.724E+01 0.279E+00 0.749E+01   -.278E-02 -.208E-02 -.306E-02
   0.898E+02 -.938E+02 0.317E+02   -.744E+02 0.872E+02 -.244E+02   -.180E+02 0.614E+01 -.109E+02   -.375E-03 -.659E-02 0.347E-02
   -.463E+02 0.580E+02 -.150E+01   0.499E+02 -.484E+02 -.266E+01   -.487E+01 -.181E+02 0.837E+00   -.215E-02 0.331E-02 0.288E-02
   -.381E+02 -.118E+03 0.181E+02   0.387E+02 0.109E+03 -.124E+02   0.334E+01 0.131E+02 -.691E+01   0.223E-02 0.108E-02 -.112E-02
   -.194E+02 -.761E+02 0.171E+02   0.213E+02 0.669E+02 -.163E+02   0.848E-01 0.102E+02 0.592E+00   0.115E-02 -.352E-03 -.313E-03
   0.405E+02 -.384E+02 -.816E+02   -.305E+02 0.360E+02 0.769E+02   -.160E+02 0.164E+01 0.845E+01   -.262E-02 0.109E-02 -.264E-02
   -.535E+02 -.521E+02 0.468E+02   0.463E+02 0.477E+02 -.444E+02   0.639E+01 0.686E+01 -.489E+01   -.299E-02 0.170E-03 -.336E-02
   0.879E+02 0.366E+02 -.246E+02   -.925E+02 -.326E+02 0.133E+02   0.583E+01 -.652E+01 0.752E+01   -.397E-02 0.239E-02 0.233E-02
   0.445E+02 0.143E+02 0.415E+02   -.337E+02 -.154E+02 -.371E+02   -.187E+02 0.386E+01 -.155E+01   -.629E-03 0.237E-03 -.604E-03
   0.123E+02 0.249E+02 0.281E+02   -.120E+02 -.366E+02 -.216E+02   -.342E+01 0.989E+01 -.199E+02   0.154E-02 0.200E-02 -.150E-02
   0.892E+02 -.129E+02 0.166E+02   -.838E+02 0.371E+01 -.176E+02   -.366E+01 0.363E+01 0.209E+01   0.225E-02 -.276E-02 0.736E-02
   -.157E+02 -.835E+02 0.361E+02   0.164E+02 0.106E+03 -.401E+02   0.555E+00 -.242E+02 0.495E+01   -.271E-02 -.798E-03 0.245E-02
   0.312E+01 0.310E+02 0.258E+02   -.156E+02 -.145E+02 -.517E+02   0.120E+02 -.158E+02 0.197E+02   0.435E-02 0.997E-03 -.930E-02
   -.434E+02 -.856E+02 -.275E+02   0.444E+02 0.104E+03 0.362E+02   0.373E+00 -.204E+02 -.956E+01   -.633E-02 -.323E-02 -.317E-02
   0.720E+01 -.733E+02 -.366E+02   -.177E+02 0.741E+02 0.152E+02   0.100E+02 0.754E+00 0.239E+02   0.768E-03 -.256E-02 0.108E-02
   0.349E+02 -.692E+02 0.790E+02   -.365E+02 0.729E+02 -.824E+02   0.387E-01 -.271E+01 0.193E+01   -.570E-02 0.330E-02 -.335E-02
   0.811E+02 0.881E+02 0.406E+02   -.111E+03 -.102E+03 -.149E+02   0.253E+02 0.931E+01 -.241E+02   -.872E-02 0.114E-02 0.508E-02
[...]
   0.999E+01 -.418E+02 -.635E+02   0.155E+02 0.356E+02 0.422E+02   -.216E+02 0.881E+01 0.209E+02   -.387E-02 0.134E-02 -.509E-02
   0.140E+03 0.136E+02 0.286E+02   -.156E+03 -.912E+01 -.517E+02   0.806E+01 -.260E+01 0.193E+02   -.701E-03 -.160E-02 0.217E-02
   0.522E+02 0.102E+03 0.591E+02   -.422E+02 -.996E+02 -.910E+02   -.139E+02 -.194E+01 0.297E+02   -.585E-02 0.900E-04 0.418E-02
   0.730E+02 0.933E+01 -.414E+02   -.736E+02 -.138E+02 0.605E+02   -.941E+00 0.168E+01 -.213E+02   0.444E-02 -.650E-02 -.663E-02
   -.883E+02 -.147E+02 0.363E+02   0.988E+02 0.243E+02 -.591E+02   -.742E+01 -.960E+01 0.202E+02   -.319E-02 -.637E-03 -.126E-02
   0.520E+02 0.868E+01 0.686E+02   -.542E+02 -.254E+02 -.514E+02   0.259E+01 0.173E+02 -.208E+02   -.183E-03 -.433E-02 -.599E-02
   0.642E+02 0.800E+02 -.128E+03   -.580E+02 -.651E+02 0.167E+03   -.790E+01 -.120E+02 -.308E+02   0.331E-02 0.263E-02 -.739E-03
   -.109E+03 -.360E+02 -.119E+02   0.140E+03 0.317E+02 -.782E+01   -.273E+02 0.301E+01 0.207E+02   0.359E-02 -.284E-02 0.173E-02
   0.220E+01 -.973E+02 0.306E+02   -.132E+02 0.112E+03 -.226E+02   0.130E+02 -.149E+02 -.120E+02   0.487E-02 -.706E-04 -.272E-03
   0.156E+02 0.836E+02 -.569E+02   -.306E+02 -.853E+02 0.680E+02   0.163E+02 0.361E+01 -.121E+02   0.317E-02 0.113E-02 0.111E-03
   -.360E+02 0.462E+02 -.654E+02   0.378E+02 -.676E+02 0.835E+02   -.100E+01 0.217E+02 -.208E+02   0.700E-02 0.384E-02 0.119E-02
   0.777E+02 0.922E+01 -.265E+02   -.883E+02 -.154E+02 0.288E+02   0.117E+02 0.685E+01 -.333E+01   -.243E-02 -.473E-03 -.495E-02
   0.440E+02 -.473E+02 0.196E+03   -.456E+02 0.481E+02 -.209E+03   0.245E+01 0.182E+00 0.865E+01   0.200E-02 -.343E-02 0.889E-03
   0.358E+02 0.364E+02 0.480E+01   -.246E+02 -.667E+02 0.835E+00   -.101E+02 0.272E+02 -.674E+01   -.117E-01 -.652E-02 0.180E-02
   0.621E+02 -.142E+03 0.271E+02   0.110E-11 0.142E-12 0.893E-13   -.621E+02 0.142E+03 -.271E+02   0.227E-02 -.177E-01 -.504E-02

 POSITION                                       TOTAL-FORCE (eV/Angst)
      9.53915      1.79196      6.72041         0.578742      0.569889     -0.391274
      8.41986      6.10868      6.30143         2.379077     -2.196049     -0.904438
      7.18378      0.90274      2.35036        -0.757686      1.182885     -0.277380
      7.62972      8.77860      7.99852        -0.306682      0.261877      1.145537
      5.56926      6.40559      6.20039         1.519598      0.844879     -1.202959
      9.46646      2.95933      3.21570         0.511196      0.796235     -0.422174
     11.22780      6.92018      7.04822        -5.082235     -1.358172     -3.579441
      5.26980      5.80114      0.12592        -2.535595     -1.713464      2.466851
      2.29293      7.20769      0.29460        -2.213509      1.711504     -2.429846
      0.51629      1.69168      4.74067        -0.387582      0.400910     -1.278090
      6.26173      8.14768      2.10588        -2.858906      5.864816      5.779872
      7.86624      7.86827     11.10890        -0.837163      0.522889      1.177194
     10.90550      6.58573      3.83172         0.397698     -1.643730     -0.979110
     11.65277     11.47694      9.88723         0.822389     -1.465171     -3.932436
      0.87906      5.72723      9.38336        -1.129899     -3.060345     -1.953273
      3.79110     10.63680      0.64159         0.376798     -0.326551      1.907852
      1.01270      9.51068      4.90988        -1.235993     -0.267379     -3.567535
      4.11125      1.12946      5.10514        -0.056938     -0.325332      3.867050
     10.67405      8.67410      1.39010         0.443144      0.697044      0.630142
      2.40358     11.12761      6.53450         0.020865     -0.003227      7.093232
      3.27773      7.80007      6.46259         1.889642     -2.597455      0.634350
      7.90752      4.47471      8.98467        -4.155346      1.552965      0.927470
      4.49849      1.57700     11.58657         1.053519      0.613353      1.410508
     12.04541      2.14117     12.01961        -1.493865      1.693761     -1.329640
      7.52858      9.73748      5.16781         1.322680     -0.164173     -0.647790
      0.47611     11.03176      0.61248        -1.368650      2.293826      0.904856
      1.63124      1.98036      8.35291        -3.770593      2.360596      1.346376
      8.77203     11.62400      8.38183        -3.840337     -1.136574      3.343408
      1.91655      2.93839      1.71148        -1.188098     -4.857858      7.247672
     11.73093      8.12762     10.45054        -1.867729      6.913880     -2.278006
      3.58545      4.90515      7.47425         5.601187      0.634784      0.599541
      9.71379      2.19019      9.74203        -1.291560     -2.616060      5.300829
     10.85532     11.39434      3.75012        -4.074832     -1.944612     -1.602281
      7.43377      3.84866      0.50945         6.473679      4.884603     -4.511978
      7.15928      3.19522      5.33791        -0.837146     -1.712295      4.850499
      4.58663      2.23617      7.53372        -2.038408      5.088705     -0.920114
      9.72549      0.54269      0.39703        -4.998798     -1.091088      2.834083
      2.61077     11.04919     10.07892         2.390554     -1.991448     -1.717508
      4.13940      0.74141      2.85512         3.881530      1.696947     -4.216032
      7.81604     10.43472      1.41261        -3.461983      3.485291     -1.530833
      2.23101      4.21600      4.78784        -2.591338      2.908060     -1.017995
     11.30574      5.77317      0.27231        -1.884542      2.239922      4.132023
     11.59370      4.14444      6.11742        -3.438086      0.134011      0.856393
      6.14640      0.26280      8.54970         7.248703     -6.068177      1.948733
      4.82722     10.27491      4.40199        -2.557614     -0.486055     -3.563872
      7.85659      6.32982      3.02102        -1.182454     -8.454091     -3.322687
      0.93297      8.31285      8.32314         4.027150      4.347123     -1.244542
     10.39265     10.03915      6.21647         1.945762      0.980147      1.391937
      4.50924      7.90452      9.39597        -5.941483     -0.698468      3.779030
      6.10019     10.47503     10.79453        -0.754187      2.494822     -2.498201
      5.50041      4.61347      3.53119         1.228710     -2.490573     -3.708164
      2.73917      3.90568     10.84412        -7.806104      2.749491      2.809553
      9.68018      6.56320     10.01089        -3.089819     -1.833749    -13.348586
      2.86098      8.34168      3.04558         1.728960     -5.529106      1.047348
      4.33484      2.36610      3.44381         1.283261     -2.073063      0.909202
      9.06974      2.95635      8.66426        -0.423940      0.676175     -6.273266
      6.00364      0.14091     10.47011         1.351076     -2.159918     -0.829847
      1.89054     11.41367      8.65483        -0.449717      1.538322      2.502975
      7.28844      7.70691      6.27308        -1.562349      1.027218     -1.470317
      6.40755      3.23667      1.36159        -4.509119     -4.484324      1.648416
[...]
      1.99877      5.73988     11.01877         2.008298     -7.048701      0.139052
      5.70823      7.83341      8.49038         3.863339      2.572937     -0.409973
      3.13456      1.18094      1.80532        -7.149726      1.898644     -3.719626
      7.06060      3.52072      3.82410        -3.976540      0.161981     -2.260096
      9.25862      0.62777      9.46169        -1.503488     -2.812033     -2.187429
      5.25710      2.50496      6.16238         3.021346     -0.005513     -2.680353
      6.39455      9.22389     11.77207         0.380714      0.536983     -3.708303
     10.02371      7.00781     11.33977        -1.693515      2.927460      7.700234
      0.05747     11.13413      3.01803         3.911580     -1.306920      0.997242
     11.15883      9.36936     11.55131         2.093324     -0.044171     -4.000730
     10.20993      4.85973      6.90593         1.292101      1.836628     -0.959683
     11.66512      4.35913      0.98872         0.816750      0.296732     -2.691027
      8.25251      2.54732     11.05859         1.155461      0.669687     -1.020397
      2.65003     11.52660      4.75386         0.806329      0.980904     -4.624726
      5.66443      8.98948      4.61709         1.013968     -3.092954     -1.103396
    total drift:                               -0.005909      0.019956      0.007951

  FREE ENERGIE OF THE ION-ELECTRON SYSTEM (eV)
  free  energy   TOTEN  =      -864.11778237 eV

  energy  without entropy=     -864.06250566  energy(sigma->0) =     -864.09014401