 vasp.5.4.4.18Apr17-6-g9f103f2a35 (build Oct 31 2019 15:01:46) complex

 executed on             LinuxIFC date 2024.04.30  02:40:45

 INCAR:
 POTCAR:    PAW_PBE Ca_sv 06Sep2000
 POTCAR:    PAW_PBE Si 05Jan2001
 POTCAR:    PAW_PBE O 08Apr2002
 POTCAR:    PAW_PBE Ca_sv 06Sep2000
   VRHFIN =Ca: 3s3p4s

   TITEL  = PAW_PBE Ca_sv 06Sep2000
   POMASS =   40.078; ZVAL   =   10.000    mass and valenz
   ENMAX  =  266.622; ENMIN  =  199.967 eV

   TITEL  = PAW_PBE Si 05Jan2001
   POMASS =   28.085; ZVAL   =    4.000    mass and valenz
   ENMAX  =  245.345; ENMIN  =  184.009 eV

   TITEL  = PAW_PBE O 08Apr2002
   POMASS =   16.000; ZVAL   =    6.000    mass and valenz
   ENMAX  =  400.000; ENMIN  =  300.000 eV

 Optimization of the real space projectors (new method)

 maximal supplied QI-value         = 16.25
 optimisation between [QCUT,QGAM] = [ 12.51, 25.03] = [ 43.85,175.40] Ry
 Optimized for a Real-space Cutoff    1.47 Angstroem

   l    n(q)    QCUT    max X(q) W(low)/X(q) W(high)/X(q)  e(spline)
   0     11    12.514    11.817    0.25E-04    0.32E-05    0.87E-07
   0     11    12.514     8.461    0.39E-04    0.59E-05    0.18E-06
   1     11    12.514     3.957    0.97E-05    0.57E-05    0.28E-07
   1     11    12.514     4.314    0.42E-04    0.14E-04    0.23E-06
   2     10    12.514    14.565    0.79E-04    0.50E-03    0.16E-05
   2     10    12.514    14.552    0.75E-04    0.48E-03    0.15E-05
 Optimization of the real space projectors (new method)

[...]

   l    n(q)    QCUT    max X(q) W(low)/X(q) W(high)/X(q)  e(spline)
   0      9    12.501   159.560    0.10E-03    0.83E-04    0.71E-07
   0      9    12.501   115.863    0.99E-04    0.81E-04    0.70E-07
   1      8    12.501    88.339    0.20E-03    0.25E-03    0.76E-07
   1      8    12.501    48.592    0.20E-03    0.24E-03    0.75E-07
 Optimization of the real space projectors (new method)

 maximal supplied QI-value         = 24.76
 optimisation between [QCUT,QGAM] = [ 12.38, 25.00] = [ 42.90,175.06] Ry
 Optimized for a Real-space Cutoff    1.16 Angstroem

   l    n(q)    QCUT    max X(q) W(low)/X(q) W(high)/X(q)  e(spline)
   0      9    12.378    20.381    0.16E-03    0.67E-05    0.31E-06
   0      9    12.378    15.268    0.17E-03    0.81E-05    0.33E-06
   1      8    12.378     5.964    0.20E-03    0.16E-03    0.30E-06
   1      8    12.378     5.382    0.18E-03    0.14E-03    0.26E-06
  PAW_PBE Ca_sv 06Sep2000               :
  PAW_PBE Si 05Jan2001                  :
  PAW_PBE O 08Apr2002                   :

 POSCAR: Ca Si  O
  positions in direct lattice
 exchange correlation table for  LEXCH =        8
   RHO(1)=    0.500       N(1)  =     2000
   RHO(2)=  100.500       N(2)  =     4000

 ion  position               nearest neighbor table
   1  0.665  0.633  0.935- 128 2.14  96 2.17  70 2.23  51 3.04
   2  0.317  0.216  0.417- 113 2.19  72 2.21  93 2.33  60 2.39  49 2.90   7 3.07
   3  0.157  0.362  0.918-  56 2.14  87 2.21  97 2.49  10 3.00  29 3.01  52 3.01
   4  0.991  0.972  0.207-  90 2.07  99 2.29  82 2.36  79 2.46  13 3.15
   5  0.269  0.968  0.164-  67 2.26 100 2.54  15 3.13
   6  0.041  0.511  0.376-  88 2.20 107 2.32  44 2.46  35 2.68  31 2.83  40 3.00
   7  0.081  0.183  0.505-  66 2.05  72 2.40 106 2.43 113 2.43  43 2.85   8 3.07   2 3.07  10 3.10
                            18 3.16
   8  0.914  0.011  0.586- 109 2.18  65 2.25  58 2.32  78 2.50  66 2.52   7 3.07
   9  0.727  0.918  0.763-  68 2.05 117 2.15 111 2.37 109 2.56  28 2.82
  10  0.223  0.292  0.689- 102 2.22  72 2.29  93 2.55   3 3.00   7 3.10
  11  0.739  0.033  0.337- 132 1.94  79 2.08 121 2.22  99 2.47  53 2.94  17 3.17
  12  0.486  0.924  0.883-  57 2.12  67 2.25 116 2.33 111 2.35 115 2.49  32 3.00  24 3.16
  13  0.933  0.085  0.980- 117 2.36 123 2.56  52 3.05   4 3.15  39 3.16
  14  0.622  0.498  0.412- 135 1.82 122 2.10 103 2.32 120 2.34  41 2.98  23 2.99  30 3.00  40 3.06

  15  0.433  0.890  0.347-  75 2.09 119 2.31 127 2.37  32 3.05   5 3.13
  16  0.294  0.598  0.751-  64 2.05 114 2.10  80 2.43  97 2.48  46 2.83  42 3.13
  17  0.754  0.265  0.215- 104 1.99  63 2.15  99 2.27  62 2.53  39 2.89  40 3.03  25 3.10  11 3.17

[...]

  20  0.284  0.619  0.175- 131 1.85 108 2.16 124 2.17 125 2.23  92 2.28  31 2.40  88 2.47  37 2.84
                            30 3.02
  21  0.184  0.998  0.661-  76 1.96  78 2.08 113 2.25  66 2.25  84 2.34  46 2.67  43 2.81
  22  0.144  0.714  0.949-  59 2.10 129 2.13 131 2.27 125 2.27  38 3.13
  23  0.444  0.637  0.514-  91 1.88 119 2.03  64 2.32 133 2.39  51 2.85  45 2.90  41 2.98  14 2.99

[...]

  39  0.990  0.235  0.186-  90 1.74  62 1.85 104 1.93 118 1.94  99 1.96 106 2.15  17 2.89  49 3.03
                            13 3.16
  40  0.841  0.371  0.424- 120 1.56 130 1.70 110 1.84 104 1.93   6 3.00  17 3.03  14 3.06  44 3.13

  41  0.462  0.397  0.570- 135 1.57  93 1.69  55 1.71  64 1.87 103 2.31  50 2.97  14 2.98  23 2.98
                            35 3.09
  42  0.485  0.445  0.834- 134 1.77  97 1.77  80 1.96  70 2.01  55 2.05  77 2.33  37 2.40  50 2.48
                            29 2.99  16 3.13
  43  0.185  0.987  0.429-  82 1.50 127 1.55 113 1.57  78 1.75  84 2.51  21 2.81   7 2.85  19 2.93

[...]

  52  0.174  0.114  0.913- 100 1.54  76 1.62  87 1.66  56 1.87   3 3.01  13 3.05  29 3.14
  53  0.696  0.176  0.529-  89 1.74 132 1.79 110 1.82  58 1.95 109 2.15  48 2.50  11 2.94
  54  0.845  0.781  0.397-  98 1.57  86 1.75  79 1.77  69 1.84  45 2.90
  55  0.480  0.343  0.699-  41 1.71  93 1.91  42 2.05  50 2.43
  56  0.084  0.219  0.844-  52 1.87   3 2.14  18 2.34
  57  0.349  0.887  0.780-  46 1.42  12 2.12
  58  0.847  0.155  0.478-  53 1.95   8 2.32
  59  0.069  0.856  0.882-  28 1.66  22 2.10
  60  0.425  0.104  0.295-  33 1.80   2 2.39
  61  0.320  0.248  0.172-  49 1.70  33 1.74
  62  0.905  0.293  0.073-  36 1.67  39 1.85  17 2.53
  63  0.577  0.258  0.206-  33 1.70  17 2.15
  64  0.370  0.505  0.632-  41 1.87  16 2.05  23 2.32
  65  0.974  0.885  0.709-  28 1.63  26 2.18   8 2.25
  66  0.060  0.136  0.666-   7 2.05  18 2.10  21 2.25   8 2.52
  67  0.402  0.906  0.048-  32 1.74  12 2.25   5 2.26
  68  0.638  0.870  0.627-  45 1.73   9 2.05
  69  0.864  0.661  0.306-  34 1.75  54 1.84
  70  0.494  0.566  0.948-  37 1.58  42 2.01   1 2.23
  71  0.871  0.733  0.788-  28 1.83  26 1.92
  72  0.209  0.335  0.505-  35 1.64   2 2.21  10 2.29   7 2.40  44 2.51
  73  0.301  0.430  0.293-  49 1.77  35 2.25
  74  0.447  0.122  0.062-  33 1.71  29 2.22
  75  0.551  0.898  0.221-  32 1.63  15 2.09
  76  0.229  0.066  0.801-  52 1.62  21 1.96
  77  0.481  0.374  0.013-  29 1.92  37 2.06  42 2.33
  78  0.096  0.932  0.529-  43 1.75  21 2.08  19 2.27   8 2.50
  79  0.867  0.920  0.358-  54 1.77  11 2.08   4 2.46
  80  0.494  0.584  0.752-  51 1.55  42 1.96  16 2.43
  81  0.683  0.644  0.565-  45 1.81  51 2.42
  82  0.104  0.039  0.351-  43 1.50   4 2.36
  83  0.742  0.348  0.738-  50 1.60  48 2.11
  84  0.304  0.882  0.562-  46 1.68  21 2.34  43 2.51
  85  0.997  0.763  0.167-  38 1.60  31 1.74
  86  0.702  0.762  0.389-  45 1.74  54 1.75
  87  0.247  0.213  0.974-  52 1.66  29 1.73   3 2.21
  88  0.096  0.543  0.206-  31 1.49   6 2.20  20 2.47
  89  0.596  0.236  0.613-  53 1.74  48 1.80
  90  0.067  0.117  0.156-  39 1.74   4 2.07
  91  0.456  0.740  0.629-  51 1.73  23 1.88  46 2.09
  92  0.435  0.730  0.183-  32 1.73  20 2.28  30 2.35
  93  0.403  0.271  0.581-  41 1.69  55 1.91   2 2.33  10 2.55
  94  0.996  0.483  0.987-  36 1.71 129 1.90  27 1.97
  95  0.866  0.518  0.149-  34 1.53  36 1.69
  96  0.713  0.563  0.777-  50 1.77   1 2.17  51 2.53
  97  0.342  0.433  0.863-  42 1.77  37 1.87  29 2.44  16 2.48   3 2.49
  98  0.935  0.768  0.489-  54 1.57  26 2.31  19 2.49
  99  0.877  0.123  0.215-  39 1.96  17 2.27   4 2.29  11 2.47
 100  0.159  0.015  0.991-  52 1.54   5 2.54
 101  0.661  0.529  0.178-  30 1.69  34 1.70
 102  0.104  0.430  0.708-  44 1.85  10 2.22
 103  0.620  0.500  0.604-  50 1.58  41 2.31  14 2.32
 104  0.894  0.318  0.283-  39 1.93  40 1.93  17 1.99
 105  0.425  0.194  0.864-  29 1.55
 106  0.108  0.251  0.318-  49 1.95  39 2.15   7 2.43
 107  0.958  0.542  0.547-  44 1.60   6 2.32  26 2.51
 108  0.186  0.706  0.296-  31 1.61  20 2.16  19 2.42
 109  0.779  0.099  0.667-  48 1.90  53 2.15   8 2.18   9 2.56
 110  0.707  0.306  0.455-  53 1.82  40 1.84
 111  0.589  0.783  0.798-  51 1.57  12 2.35   9 2.37
[...]
 121  0.696  0.050  0.159-  47 1.77  11 2.22  25 2.31
 122  0.506  0.576  0.308-  30 1.44  14 2.10
 123  0.803  0.202  0.860-  48 2.24  18 2.52  13 2.56
 124  0.426  0.523  0.121-  30 1.54  37 1.67  20 2.17
 125  0.273  0.586  0.994-  37 1.60  20 2.23  22 2.27
 126  0.751  0.424  0.008-  36 1.61
 127  0.242  0.878  0.393-  43 1.55  19 2.22  15 2.37
 128  0.771  0.648  0.076-  34 1.71   1 2.14  38 2.19
 129  0.996  0.639  0.007-  38 1.85  94 1.90  22 2.13
 130  0.945  0.361  0.518-  44 1.67  40 1.70
 131  0.190  0.731  0.130-  31 1.69  20 1.85  22 2.27
 132  0.653  0.046  0.472-  53 1.79  11 1.94
 133  0.251  0.606  0.489-  35 1.78  19 2.24  23 2.39
 134  0.614  0.405  0.893-  42 1.77  50 2.23
 135  0.503  0.414  0.447-  41 1.57  14 1.82

IMPORTANT INFORMATION: All symmetrisations will be switched off!
NOSYMM: (Re-)initialisation of all symmetry stuff for point group C_1.

Automatic generation of k-mesh.
 generate k-points for:    2    2    2
Space group operators:
 irot       det(A)        alpha          n_x          n_y          n_z        tau_x        tau_y        tau_z
    1     1.000000     0.000000     1.000000     0.000000     0.000000     0.000000     0.000000     0.000000

 Subroutine IBZKPT returns following result:

 Found      8 irreducible k-points:

 Following reciprocal coordinates:
            Coordinates               Weight
  0.000000  0.000000  0.000000      1.000000
  0.500000  0.000000  0.000000      1.000000
  0.000000  0.500000  0.000000      1.000000
  0.500000  0.500000  0.000000      1.000000
  0.000000  0.000000  0.500000      1.000000
  0.500000  0.000000  0.500000      1.000000
  0.000000  0.500000  0.500000      1.000000
  0.500000  0.500000  0.500000      1.000000

 Following cartesian coordinates:
            Coordinates               Weight
  0.000000  0.000000  0.000000      1.000000
  0.041344  0.000000  0.000000      1.000000
  0.000000  0.041344  0.000000      1.000000
  0.041344  0.041344  0.000000      1.000000
  0.000000  0.000000  0.041344      1.000000
  0.041344  0.000000  0.041344      1.000000
  0.000000  0.041344  0.041344      1.000000
  0.041344  0.041344  0.041344      1.000000

 SYSTEM =  unknown system
 POSCAR =  Ca Si  O

 Startparameter for this run:
   NWRITE =      2    write-flag & timer
   PREC   = a         normal or accurate (medium, high low for compatibility)
   ISTART =      0    job   : 0-new  1-cont  2-samecut
   ICHARG =      2    charge: 1-file 2-atom 10-const
   ISPIN  =      1    spin polarized calculation?
   LNONCOLLINEAR =      F non collinear calculations
   LSORBIT =      F    spin-orbit coupling
   INIWAV =      1    electr: 0-lowe 1-rand  2-diag
   LASPH  =      F    aspherical Exc in radial PAW
   METAGGA=      F    non-selfconsistent MetaGGA calc.

 Electronic Relaxation 1
[...]
     0.000000000  0.000000000 12.093787620     0.000000000  0.000000000  0.082687081

  length of vectors
    12.093787620 12.093787620 12.093787620     0.082687081  0.082687081  0.082687081

 FORCES acting on ions
    electron-ion (+dipol)            ewald-force                    non-local-force                 convergence-correction
   -.696E+02 -.172E+03 -.877E+02   0.708E+02 0.168E+03 0.861E+02   -.102E+01 0.341E+01 0.128E+01   0.262E-02 -.787E-02 -.763E-03
   -.244E+03 0.314E+02 0.189E+03   0.247E+03 -.353E+02 -.188E+03   -.563E+00 0.295E+01 -.308E+01   -.940E-04 -.165E-02 -.140E-02
   0.532E+02 -.176E+03 -.964E+02   -.567E+02 0.171E+03 0.101E+03   0.218E+01 0.587E+01 -.240E+01   -.269E-02 0.243E-02 0.107E-02
   -.376E+02 0.197E+03 0.772E+02   0.354E+02 -.191E+03 -.692E+02   0.130E+01 -.643E+01 -.504E+01   -.223E-02 0.348E-02 -.514E-02
   0.637E+01 -.607E+01 0.258E+02   -.449E+01 0.746E+01 -.313E+02   -.205E+01 -.504E+00 0.417E+01   0.304E-03 0.403E-02 -.344E-02
   -.343E+01 -.117E+02 0.218E+02   0.372E+00 0.131E+02 -.261E+02   0.150E+00 -.492E+00 0.102E+01   -.293E-02 -.409E-02 -.110E-02
   0.124E+03 -.756E+02 0.133E+03   -.125E+03 0.733E+02 -.137E+03   0.123E-01 0.218E+01 -.336E+00   -.601E-03 -.124E-03 0.104E-02
   0.145E+03 0.129E+03 0.295E+02   -.144E+03 -.128E+03 -.315E+02   -.114E+01 -.175E+01 -.953E-01   0.609E-03 0.136E-02 0.409E-02
   -.767E+02 0.152E+02 -.264E+01   0.722E+02 -.152E+02 0.603E+00   0.372E+01 0.330E+00 0.130E+01   0.382E-02 0.181E-02 0.722E-02
   -.793E+02 -.172E+01 -.941E+02   0.800E+02 0.149E+01 0.912E+02   0.128E+01 -.110E+01 0.307E+01   -.250E-02 -.276E-03 0.352E-02
   0.178E+03 0.456E+02 0.147E+02   -.175E+03 -.483E+02 -.137E+02   -.215E+01 0.250E+01 -.336E+01   0.398E-03 0.312E-02 -.413E-02
   0.491E+02 -.262E+02 -.811E+02   -.514E+02 0.239E+02 0.843E+02   0.239E+01 0.300E+01 -.187E+01   0.410E-03 -.354E-03 0.159E-02
   -.231E+02 0.674E+02 0.675E+02   0.209E+02 -.638E+02 -.686E+02   0.208E+01 -.187E+01 0.716E+00   -.234E-02 -.323E-04 -.120E-02
   -.183E+03 0.174E+02 0.162E+03   0.186E+03 -.161E+02 -.161E+03   0.362E+01 0.184E+01 -.143E+01   0.239E-03 -.507E-02 -.116E-01
   -.620E+02 -.135E+03 -.432E+02   0.659E+02 0.133E+03 0.439E+02   -.348E+01 0.231E+01 0.109E+01   0.103E-02 0.355E-02 -.792E-03
   0.234E+03 -.847E+02 -.196E+03   -.230E+03 0.823E+02 0.190E+03   -.265E+01 0.742E+00 0.664E+01   -.340E-02 0.544E-03 0.628E-02
   0.222E+03 -.478E+02 0.137E+02   -.222E+03 0.465E+02 -.128E+02   -.277E+01 0.862E+00 -.184E+01   0.500E-03 0.383E-03 -.659E-02
   0.164E+03 -.116E+03 -.651E+02   -.164E+03 0.107E+03 0.671E+02   -.167E+01 0.761E+01 -.109E+01   -.157E-02 0.436E-03 0.542E-02
   0.129E+03 0.137E+03 0.312E+02   -.125E+03 -.132E+03 -.345E+02   -.361E+01 -.391E+01 0.254E+01   -.223E-02 0.260E-02 0.739E-02
   -.122E+03 0.893E+02 -.589E+02   0.127E+03 -.882E+02 0.601E+02   0.127E+00 -.496E+01 0.182E+01   0.632E-02 -.812E-02 -.753E-02
   -.268E+02 0.960E+02 -.208E+03   0.224E+02 -.945E+02 0.206E+03   0.258E+01 -.268E+01 0.158E+01   -.103E-02 0.716E-04 0.329E-02
   -.770E+02 -.849E+02 0.171E+03   0.738E+02 0.868E+02 -.163E+03   0.423E+01 -.156E+01 -.626E+01   -.674E-02 -.306E-02 -.683E-02
   0.846E+02 0.821E+01 0.191E+03   -.876E+02 -.679E+01 -.195E+03   0.738E+00 -.581E+01 -.120E+01   -.530E-02 0.212E-02 0.457E-03
   -.697E+02 0.981E+02 0.128E+03   0.723E+02 -.935E+02 -.125E+03   -.256E+01 -.319E+01 -.286E+01   0.144E-04 -.683E-03 0.184E-02
   0.302E+02 -.338E+02 0.426E+02   -.327E+02 0.345E+02 -.426E+02   0.116E+01 0.858E+00 -.111E+01   0.215E-02 0.504E-02 -.218E-02
   -.131E+02 0.200E+03 -.300E+02   0.797E+01 -.197E+03 0.253E+02   0.638E+01 -.406E+01 0.551E+00   0.215E-02 -.783E-03 0.895E-02
   0.189E+02 -.852E+02 0.194E+03   -.229E+02 0.889E+02 -.193E+03   0.917E+00 -.210E+01 -.550E+01   -.170E-02 0.154E-02 0.695E-02
   0.680E+02 -.293E+02 -.124E+03   -.564E+02 0.244E+02 0.115E+03   -.936E+01 0.112E+01 0.857E+01   -.204E-03 -.573E-03 0.216E-02
   -.130E+02 -.263E+02 -.856E+02   0.196E+02 0.152E+02 0.735E+02   -.399E+01 0.839E+01 0.147E+02   0.225E-02 0.231E-02 0.821E-03
   -.670E+02 -.812E+01 0.755E+02   0.603E+02 0.725E+01 -.578E+02   0.957E+01 0.159E+01 -.214E+02   0.718E-03 -.142E-02 -.346E-02
   0.126E+03 -.446E+02 -.161E+02   -.113E+03 0.383E+02 0.173E+02   -.138E+02 0.145E+02 -.355E+01   -.451E-02 -.243E-02 -.371E-02
   -.469E+02 0.524E+02 0.606E+02   0.396E+02 -.450E+02 -.481E+02   0.466E+01 -.499E+01 -.104E+02   0.826E-03 -.162E-03 -.184E-02
   -.319E+02 -.155E+02 -.433E+02   0.351E+02 0.102E+02 0.435E+02   -.262E+01 0.233E+01 0.213E+01   0.665E-03 0.102E-02 -.174E-02
   0.701E+02 -.809E+02 -.957E+02   -.616E+02 0.767E+02 0.828E+02   -.818E+01 0.626E+01 0.126E+02   0.406E-03 -.119E-02 -.370E-02
   -.170E+02 -.334E+02 0.510E+02   0.804E+01 0.356E+02 -.482E+02   0.881E+01 0.128E+01 -.208E+01   -.576E-03 -.140E-02 0.542E-03
   -.233E+02 0.210E+02 0.146E+02   0.140E+02 -.206E+02 -.146E+02   0.851E+01 0.779E+00 0.474E+01   -.138E-02 0.653E-03 -.252E-02
   0.599E+02 0.393E+02 -.235E+02   -.543E+02 -.268E+02 0.242E+02   -.393E+01 -.138E+02 0.114E+01   0.225E-02 -.195E-02 -.711E-03
   0.690E+02 -.619E+02 0.101E+03   -.605E+02 0.579E+02 -.999E+02   -.110E+02 0.230E+00 -.166E+01   -.170E-03 -.104E-02 -.352E-02
   -.141E+02 -.417E+02 0.773E-01   0.161E+02 0.332E+02 -.151E+01   -.436E+00 0.687E+01 0.370E+01   -.920E-03 -.149E-03 -.165E-02
   0.164E+02 0.558E+02 -.212E+02   -.210E+02 -.424E+02 0.174E+02   0.360E+01 -.178E+02 0.263E+01   0.806E-03 -.118E-02 -.115E-02
   -.529E+01 0.632E+01 0.463E+02   0.333E+01 -.116E+02 -.504E+02   0.523E+00 0.481E+01 0.793E+01   -.224E-02 -.191E-02 0.281E-03
   -.646E+01 0.482E+02 0.169E+01   0.159E+02 -.512E+02 0.213E+00   -.589E+01 0.266E+01 -.195E+01   0.419E-02 -.128E-02 0.617E-02
   -.465E+02 0.152E+01 0.914E+02   0.413E+02 -.343E+01 -.947E+02   0.373E+01 -.191E+01 0.713E+01   -.122E-03 0.129E-02 0.426E-03
   -.571E+02 -.260E+02 -.597E+02   0.522E+02 0.377E+02 0.521E+02   0.601E+01 -.938E+01 0.102E+02   -.196E-03 -.398E-03 0.189E-02
   -.622E+02 -.109E+03 -.128E+02   0.606E+02 0.104E+03 0.996E+01   0.119E+01 0.282E+01 0.155E+01   -.168E-02 0.439E-02 -.629E-03
   -.204E+02 0.390E+02 -.440E+02   0.192E+02 -.277E+02 0.443E+02   0.150E+00 -.166E+02 -.134E+02   -.738E-03 0.208E-03 0.198E-02
   0.300E+02 -.337E+01 0.164E+02   -.263E+02 -.662E+00 -.109E+02   -.632E+01 0.558E+01 -.635E+01   0.111E-02 0.242E-03 -.170E-02
   -.292E+01 -.106E+02 -.573E+02   0.402E+01 0.445E+01 0.539E+02   0.225E+01 0.474E+01 0.512E+01   0.117E-02 0.707E-03 0.302E-02
   -.356E+02 -.535E+02 -.168E+02   0.314E+02 0.484E+02 0.121E+02   0.333E+01 0.332E+01 0.617E+01   -.523E-04 -.672E-03 -.166E-02
   -.406E+02 0.385E+02 -.186E+02   0.485E+02 -.341E+02 0.145E+02   -.566E+01 -.154E+01 0.766E+01   0.243E-02 -.204E-02 0.109E-01
   -.101E+03 -.454E+02 0.593E+01   0.922E+02 0.495E+02 0.317E+01   0.101E+02 -.272E+01 -.115E+02   -.111E-02 0.669E-03 0.550E-02
   0.367E+02 0.307E+02 -.369E+02   -.301E+02 -.414E+02 0.364E+02   -.512E+01 0.127E+02 -.310E+01   -.803E-03 -.116E-04 0.279E-03
   0.423E+02 0.183E+02 0.240E+02   -.427E+02 -.220E+02 -.281E+02   0.369E+01 0.893E+00 0.512E+00   0.319E-03 -.404E-03 0.666E-03
   0.366E+02 0.284E+00 0.192E+02   -.333E+02 0.293E+01 -.139E+02   -.466E+01 -.192E+01 -.892E+01   0.137E-02 0.775E-03 -.123E-02
   -.314E+02 0.744E+02 -.115E+03   0.322E+02 -.943E+02 0.126E+03   0.169E+01 0.247E+02 -.537E+01   0.131E-02 -.104E-02 0.567E-02
   0.101E+03 0.406E+02 -.760E+02   -.109E+03 -.381E+02 0.659E+02   0.861E+01 -.306E+01 0.128E+02   -.146E-02 0.701E-03 0.136E-02
   0.214E+02 0.653E+01 -.153E+03   -.153E+02 0.172E+02 0.187E+03   -.394E+01 -.196E+02 -.266E+02   -.874E-03 -.587E-03 0.204E-02
   0.676E+01 -.264E+02 0.544E+02   0.340E+01 0.269E+02 -.616E+02   -.115E+02 0.195E+00 0.774E+01   0.708E-03 0.531E-04 -.818E-04
   -.388E+02 -.560E+02 -.467E+02   0.625E+02 0.636E+02 0.518E+02   -.262E+02 -.707E+01 -.460E+01   -.326E-02 -.102E-02 0.696E-03
   -.929E+02 0.387E+02 -.425E+02   0.952E+02 -.504E+02 0.559E+02   -.279E+01 0.128E+02 -.149E+02   0.594E-03 0.846E-03 -.969E-03
[...]
   0.533E+02 -.315E+02 0.305E+02   -.646E+02 0.427E+02 0.765E+01   0.912E+01 -.104E+02 -.313E+02   0.319E-03 -.129E-02 -.484E-02
   0.642E+01 0.585E+01 -.558E+02   -.316E+01 -.141E+01 0.586E+02   -.427E+01 -.569E+01 -.253E+01   -.898E-03 0.205E-02 0.228E-02
   -.350E+02 0.877E+02 -.582E+02   0.198E+02 -.978E+02 0.622E+02   0.138E+02 0.878E+01 -.386E+01   0.264E-02 -.328E-02 -.480E-02
   0.619E+02 -.347E+02 0.810E+02   -.833E+02 0.503E+02 -.796E+02   0.206E+02 -.167E+02 -.312E+01   0.554E-03 -.230E-02 -.341E-02
   0.769E+02 0.586E+02 0.120E+02   -.109E+03 -.589E+02 -.180E+02   0.348E+02 0.394E+00 0.491E+01   -.281E-02 -.923E-03 -.568E-02
   -.892E+02 0.340E+02 0.172E+03   0.102E+03 -.617E+02 -.179E+03   -.101E+02 0.267E+02 0.238E+01   0.713E-03 0.391E-02 0.164E-02
   0.262E+02 -.151E+03 0.306E+02   -.305E+02 0.149E+03 -.468E+02   0.567E+01 0.720E+01 0.165E+02   0.130E-02 -.221E-02 -.414E-02
   0.492E+02 -.372E+02 0.806E+02   -.486E+02 0.238E+02 -.841E+02   -.277E+01 0.179E+02 0.272E+01   -.273E-02 -.399E-02 -.344E-02
   0.667E+02 0.208E+02 -.407E+02   -.702E+02 -.344E+02 0.462E+02   0.412E+01 0.101E+02 -.521E+01   0.816E-03 -.861E-03 0.138E-02
   -.865E+01 -.243E+03 0.119E+03   0.190E+02 0.262E+03 -.129E+03   -.136E+02 -.140E+02 0.386E+01   -.970E-03 -.410E-03 -.891E-02
   0.191E+03 0.619E+02 -.407E+02   -.201E+03 -.811E+02 0.410E+02   0.743E+01 0.234E+02 0.373E+01   -.617E-03 0.128E-02 -.490E-03
   0.387E+02 0.278E+02 0.457E+02   -.374E+02 -.123E+02 -.416E+02   -.145E+01 -.196E+02 -.545E+01   -.205E-03 -.901E-03 0.363E-02
   -.811E+02 0.112E+03 -.594E+02   0.997E+02 -.119E+03 0.744E+02   -.215E+02 0.762E+01 -.202E+02   0.241E-02 0.144E-02 0.363E-02
   0.942E+02 0.181E+03 0.163E+03   -.932E+02 -.186E+03 -.192E+03   -.738E+01 0.145E+01 0.311E+02   -.169E-02 -.288E-02 -.346E-02
   0.531E+02 -.755E+02 -.135E+02   0.199E-12 -.284E-13 0.568E-13   -.531E+02 0.755E+02 0.136E+02   -.557E-02 -.184E-01 0.138E-02

 POSITION                                       TOTAL-FORCE (eV/Angst)
      8.03979      7.65169     11.30634         0.177376     -0.446959     -0.402843
      3.83828      2.61252      5.04891         2.265367     -0.927098     -1.304010
      1.90154      4.38074     11.09756        -1.296040      1.126228      2.417524
     11.99064     11.75577      2.49887        -0.979224     -0.927493      2.861181
      3.24868     11.70638      1.97970        -0.168966      0.891458     -1.299565
      0.49355      6.17810      4.55001        -2.912368      0.858337     -3.307254
      0.98161      2.21743      6.11151        -1.411152     -0.035263     -4.386394
     11.05617      0.12802      7.09059         0.810593     -0.808826     -2.074350
      8.78632     11.10545      9.22691        -0.754471      0.261035     -0.728181
      2.69790      3.53263      8.33412         1.902980     -1.337713      0.134752
      8.93715      0.40025      4.07067         1.334173     -0.188296     -2.382652
      5.88154     11.17878     10.68006         0.006277      0.659666      1.243361
     11.27767      1.02879     11.84943        -0.100882      1.750695     -0.354045
      7.52678      6.02535      4.98612         6.944497      3.111009     -0.747624
      5.23688     10.75928      4.20235         0.436655     -0.240754      1.734596
      3.55328      7.23512      9.08620         0.725848     -1.667295      0.285650
      9.11848      3.20514      2.59878        -1.900000     -0.473093     -0.960324
     11.41020      3.08117      8.65585        -1.918660     -1.501011      0.905893
      1.70635      9.13290      5.86231         0.472545      1.097894     -0.751542
      3.43147      7.48369      2.11471         5.001232     -3.880017      3.011883
      2.22969     12.06396      7.99722        -1.908721     -1.166476     -0.337446
      1.74159      8.63795     11.47103         1.015427      0.387079      1.200510
      5.37554      7.69774      6.22165        -2.201972     -4.387829     -4.519514
      5.26798      0.97505      8.21963         0.051048      1.454067     -0.153432
      7.85801      1.89637      0.08862        -1.363431      1.559275     -1.122241
     11.75922      8.58058      8.07546         1.278841     -1.323141     -4.059991
     11.06308      5.65378     10.23675        -3.126185      1.561720     -4.103202
     11.35551     10.38002     10.12145         2.184115     -3.799828     -0.502839
      4.60158      3.17324     11.65020         2.631106     -2.649693      2.594434
      6.35186      6.74695      2.32491         2.884326      0.725097     -3.710039
      1.13780      8.05447      2.52612        -1.062788      8.250425     -2.357444
      6.12503     10.06053      1.36476        -2.578612      2.454061      2.107277
      5.48354      2.37412      2.19578         0.586984     -2.974386      2.321960
      9.46359      7.18391      2.49101         0.388941      2.083879     -0.256720
      2.87601      5.58170      5.63048        -0.121225      3.545794      0.731824
     10.63836      5.14767      0.53837        -0.737985      1.208969      4.734534
      4.63138      6.18980     11.97696         1.620466     -1.339522      1.822556
     11.07086      9.15487      0.74799        -2.513132     -3.766620     -0.157650
     11.96911      2.84208      2.24851         1.553176     -1.657261      2.265106
     10.17266      4.48637      5.13036        -1.078459     -4.479214     -1.223458
      5.59104      4.80494      6.88758        -1.433249     -0.500147      3.828180
      5.87023      5.38096     10.08829         3.524904     -0.305738     -0.042747
      2.23784     11.93069      5.18825        -1.551910     -3.818889      3.848682
      0.52836      5.35503      6.86937         1.184267      2.267141      2.612551
      7.71312      9.41301      6.24771        -0.421492     -1.525866     -1.258808
      3.81802      9.94659      8.31892        -1.007282     -5.361953    -13.045527
      8.79452     11.35362      0.84393        -2.545767      1.549974     -0.861227
      8.09701      2.29291      8.86821         3.351880     -1.436455      1.739190
      2.64071      3.95796      2.77181        -0.868407     -1.744472      1.460728
      7.90346      5.36192      8.67258         2.234916      2.828581      3.517572
      6.75266      8.33286      8.63986         1.766285      1.347106     -2.435548
      2.10098      1.37393     11.04261         1.498561      2.101524     -3.623318
      8.41578      2.12260      6.39923         3.272009     -2.789837     -3.600307
     10.22239      9.44021      4.80399        -1.387448      1.295182     -3.672628
      5.80784      4.15100      8.44831         2.542073      4.759359      5.816947
      1.01222      2.65037     10.20818        -0.038175     -0.614483      2.694003
      4.22003     10.72869      9.43895         2.137387      4.220316      7.225976
     10.24723      1.86870      5.78553        -1.316686      0.706915      0.577228
      0.83208     10.34913     10.66433        -2.530472      0.494492      0.490094
      5.13906      1.25715      3.57054        -0.503755      1.087297     -1.557585
[...]
      8.41161      0.60699      1.92086         0.205510     -1.983336     -5.369179
      6.12447      6.96372      3.72806        -2.211252      0.712102      6.825344
      9.71392      2.44800     10.40368        -1.008137     -1.245917      0.312072
      5.15199      6.32528      1.46190        -1.478651     -1.330305      0.111311
      3.30627      7.08673     12.02020        -0.794745     -1.027561     -1.736414
      9.08824      5.12403      0.09132         2.507212      0.010146     -1.105330
      2.93159     10.62002      4.75047         2.616337     -0.956520     -4.638460
      9.32747      7.83290      0.91664         1.356889      5.617334      0.283360
     12.04532      7.72712      0.08117        -2.251566      4.405283     -0.752119
     11.43000      4.36004      6.26700         0.648045     -3.479921      0.238956
      2.29449      8.84107      1.56907        -3.221698      4.544194     -5.435000
      7.90100      0.55300      5.70725        -2.022501      4.117460      4.011223
      3.03513      7.32705      5.91927        -0.141796     -4.062114     -1.441714
      7.41999      4.90265     10.80055        -2.902901      0.458461     -5.154667
      6.08037      5.01078      5.40603        -6.400942     -3.421325      1.512499
    total drift:                               -0.022707      0.008287      0.020414

  FREE ENERGIE OF THE ION-ELECTRON SYSTEM (eV)
  free  energy   TOTEN  =      -873.00893168 eV

  energy  without entropy=     -872.92829992  energy(sigma->0) =     -872.96861580