 vasp.5.4.4.18Apr17-6-g9f103f2a35 (build Oct 31 2019 15:01:46) complex

 executed on             LinuxIFC date 2024.04.28  18:47:27

 INCAR:
 POTCAR:    PAW_PBE Ca_sv 06Sep2000
 POTCAR:    PAW_PBE Si 05Jan2001
 POTCAR:    PAW_PBE O 08Apr2002
 POTCAR:    PAW_PBE Ca_sv 06Sep2000
   VRHFIN =Ca: 3s3p4s

   TITEL  = PAW_PBE Ca_sv 06Sep2000
   POMASS =   40.078; ZVAL   =   10.000    mass and valenz
   ENMAX  =  266.622; ENMIN  =  199.967 eV

   TITEL  = PAW_PBE Si 05Jan2001
   POMASS =   28.085; ZVAL   =    4.000    mass and valenz
   ENMAX  =  245.345; ENMIN  =  184.009 eV

   TITEL  = PAW_PBE O 08Apr2002
   POMASS =   16.000; ZVAL   =    6.000    mass and valenz
   ENMAX  =  400.000; ENMIN  =  300.000 eV

 Optimization of the real space projectors (new method)

 maximal supplied QI-value         = 16.25
 optimisation between [QCUT,QGAM] = [ 12.51, 25.03] = [ 43.85,175.40] Ry
 Optimized for a Real-space Cutoff    1.47 Angstroem

   l    n(q)    QCUT    max X(q) W(low)/X(q) W(high)/X(q)  e(spline)
   0     11    12.514    11.817    0.25E-04    0.32E-05    0.87E-07
   0     11    12.514     8.461    0.39E-04    0.59E-05    0.18E-06
   1     11    12.514     3.957    0.97E-05    0.57E-05    0.28E-07
   1     11    12.514     4.314    0.42E-04    0.14E-04    0.23E-06
   2     10    12.514    14.565    0.79E-04    0.50E-03    0.16E-05
   2     10    12.514    14.552    0.75E-04    0.48E-03    0.15E-05
 Optimization of the real space projectors (new method)

[...]

   l    n(q)    QCUT    max X(q) W(low)/X(q) W(high)/X(q)  e(spline)
   0      9    12.501   159.560    0.10E-03    0.83E-04    0.71E-07
   0      9    12.501   115.863    0.99E-04    0.81E-04    0.70E-07
   1      8    12.501    88.339    0.20E-03    0.25E-03    0.76E-07
   1      8    12.501    48.592    0.20E-03    0.24E-03    0.75E-07
 Optimization of the real space projectors (new method)

 maximal supplied QI-value         = 24.76
 optimisation between [QCUT,QGAM] = [ 12.38, 25.00] = [ 42.90,175.06] Ry
 Optimized for a Real-space Cutoff    1.16 Angstroem

   l    n(q)    QCUT    max X(q) W(low)/X(q) W(high)/X(q)  e(spline)
   0      9    12.378    20.381    0.16E-03    0.67E-05    0.31E-06
   0      9    12.378    15.268    0.17E-03    0.81E-05    0.33E-06
   1      8    12.378     5.964    0.20E-03    0.16E-03    0.30E-06
   1      8    12.378     5.382    0.18E-03    0.14E-03    0.26E-06
  PAW_PBE Ca_sv 06Sep2000               :
  PAW_PBE Si 05Jan2001                  :
  PAW_PBE O 08Apr2002                   :

 POSCAR: Ca Si  O
  positions in direct lattice
 exchange correlation table for  LEXCH =        8
   RHO(1)=    0.500       N(1)  =     2000
   RHO(2)=  100.500       N(2)  =     4000

 ion  position               nearest neighbor table
   1  0.214  0.193  0.879-  73 2.35  63 2.49 116 2.56  30 2.82  51 3.07  37 3.08
   2  0.105  0.670  0.686-  67 1.93  98 2.41
   3  0.241  0.816  0.103- 131 2.12  58 2.23 124 2.28  96 2.45 103 2.52  40 3.11  41 3.14
   4  0.834  0.685  0.441- 100 2.27  81 2.37  97 2.42 126 2.45  34 3.14
   5  0.466  0.038  0.983-  69 2.14   7 2.91
   6  0.269  0.911  0.687-  92 2.04  84 2.30  91 2.42 106 2.43
   7  0.550  0.961  0.157-  90 2.34 129 2.49  70 2.50   5 2.91  13 3.07
   8  0.808  0.499  0.716- 117 2.07  97 2.26  31 2.82  34 3.07  25 3.10
   9  0.395  0.450  0.470- 115 2.17 133 2.46  38 2.90
  10  0.069  0.395  0.484- 104 2.03  94 2.40  49 3.02
  11  0.877  0.999  0.141- 125 1.89 134 2.38
  12  0.921  0.197  0.619-  93 2.23 104 2.36  78 2.51  29 2.98
  13  0.522  0.744  0.145-  75 2.06  90 2.12   7 3.07
  14  0.856  0.788  0.855-  85 1.93  68 2.31
  15  0.559  0.491  0.698- 122 2.27 117 2.33 115 2.46
  16  0.322  0.827  0.451- 102 1.97  91 2.46  46 2.92  26 2.94  48 3.16
  17  0.121  0.409  0.109- 121 2.16 110 2.40  89 2.45  47 3.12
  18  0.021  0.162  0.337- 128 2.10 123 2.27 114 2.43
  19  0.796  0.052  0.798-  85 2.20 130 2.51
  20  0.576  0.167  0.527- 135 2.07 113 2.45
  21  0.369  0.371  0.052-  72 2.19 110 2.35 121 2.35  74 2.38  37 3.01
  22  0.768  0.547  0.224-  64 2.36 126 2.40  32 3.09
  23  0.739  0.882  0.645- 132 2.06  85 2.21
  24  0.415  0.827  0.875-  92 1.96  45 3.14
  25  0.774  0.425  0.922-  65 2.16  71 2.39 117 2.46   8 3.10
  26  0.155  0.896  0.343- 102 2.24  58 2.25 114 2.38 103 2.47  16 2.94  40 2.94
  27  0.589  0.270  0.807-  82 2.05 113 2.49  31 3.05
  28  0.700  0.792  0.293- 100 1.58  70 1.61  75 1.76  81 2.18  53 2.55  43 3.10
  29  0.873  0.025  0.503- 108 1.61 128 1.69  93 1.71  88 1.75  12 2.98
  30  0.051  0.108  0.961- 107 1.59 111 1.93 116 1.93 109 2.44   1 2.82
  31  0.718  0.335  0.643-  57 1.55  78 1.61 113 1.67 117 2.15   8 2.82  27 3.05  34 3.12
  32  0.569  0.505  0.140-  56 1.41  64 1.64  72 1.72  22 3.09
  33  0.160  0.809  0.883-  61 1.59 131 1.69  67 1.73  92 2.11  39 2.73
  34  0.823  0.469  0.500-  57 1.74  94 1.75 126 1.83  97 1.95   8 3.07  31 3.12   4 3.14
  35  0.648  0.638  0.907- 122 1.69  68 1.82  99 1.87  65 1.89  45 2.57
  36  0.909  0.267  0.059- 109 1.52  71 1.74  66 1.85  83 1.95  42 3.07
  37  0.275  0.182  0.090-  55 1.49 110 1.55  74 1.61 116 1.97  40 2.96  21 3.01   1 3.08
  38  0.331  0.575  0.623- 115 1.48  98 1.64 133 1.91  62 1.98   9 2.90
  39  0.035  0.870  0.019- 134 1.51  61 1.68 124 1.75  86 2.01  33 2.73
  40  0.173  0.016  0.172- 114 1.61 103 1.71  55 1.86 124 2.08 116 2.33  26 2.94  37 2.96   3 3.11

  41  0.071  0.695  0.183-  87 1.49  58 1.75  86 1.77  77 1.85  47 3.09   3 3.14
  42  0.020  0.323  0.879-  89 1.58 111 1.69  71 1.83  79 1.93  63 2.21  49 2.73  36 3.07
  43  0.725  0.010  0.326- 101 1.44 125 1.54 108 1.75  70 2.03 127 2.54  44 3.08  28 3.10
  44  0.610  0.180  0.248- 105 1.52 112 1.67 129 1.70 101 1.79  43 3.08
  45  0.628  0.817  0.943- 119 1.55  99 1.61  69 1.88  68 2.01  35 2.57  24 3.14
  46  0.464  0.769  0.593-  76 1.43  91 1.61  62 1.71  80 1.79  53 2.86  16 2.92
  47  0.251  0.567  0.196- 121 1.65  96 1.68  77 1.71 118 1.75  41 3.09  17 3.12
  48  0.205  0.640  0.404-  95 1.48 102 1.64 118 1.97 133 2.26  16 3.16
  49  0.069  0.381  0.699-  60 1.55  63 1.85  79 2.00 104 2.03  42 2.73  10 3.02
  50  0.547  0.033  0.724-  59 1.57 135 1.61 132 1.81
  51  0.248  0.157  0.666- 120 1.52  73 1.54 106 1.54  54 2.31   1 3.07
  52  0.686  0.217  0.020-  66 1.55 130 1.68  82 1.71 112 1.77
  53  0.595  0.803  0.440-  80 1.49 127 1.61  81 1.72  70 2.55  28 2.55  46 2.86
  54  0.189  0.075  0.535-  84 1.56 123 1.60 120 1.73 106 2.25  51 2.31
  55  0.256  0.120  0.174-  37 1.49  40 1.86
  56  0.549  0.549  0.228-  32 1.41
  57  0.734  0.408  0.562-  31 1.55  34 1.74
  58  0.139  0.792  0.223-  41 1.75   3 2.23  26 2.25
  59  0.469  0.006  0.800-  50 1.57
  60  0.075  0.483  0.656-  49 1.55
  61  0.053  0.804  0.921-  33 1.59  39 1.68
  62  0.363  0.712  0.632-  46 1.71  38 1.98
  63  0.151  0.334  0.792-  49 1.85  42 2.21   1 2.49
  64  0.673  0.457  0.117-  32 1.64  22 2.36
  65  0.765  0.578  0.939-  35 1.89  25 2.16
  66  0.780  0.274  0.031-  52 1.55  36 1.85
  67  0.157  0.769  0.767-  33 1.73   2 1.93
  68  0.699  0.740  0.844-  35 1.82  45 2.01  14 2.31
  69  0.581  0.942  0.950-  45 1.88   5 2.14
  70  0.646  0.894  0.291-  28 1.61  43 2.03   7 2.50  53 2.55
  71  0.918  0.340  0.959-  36 1.74  42 1.83  25 2.39
  72  0.475  0.486  0.063-  32 1.72  21 2.19
  73  0.292  0.229  0.736-  51 1.54   1 2.35
  74  0.369  0.203  0.026-  37 1.61  21 2.38
  75  0.647  0.710  0.214-  28 1.76  13 2.06
  76  0.543  0.730  0.645-  46 1.43
  77  0.137  0.592  0.234-  47 1.71  41 1.85
  78  0.796  0.286  0.711-  31 1.61  12 2.51
  79  0.946  0.362  0.770-  42 1.93  49 2.00
  80  0.504  0.758  0.472-  53 1.49  46 1.79
  81  0.667  0.707  0.418-  53 1.72  28 2.18   4 2.37
  82  0.597  0.268  0.953-  52 1.71  27 2.05
  83  0.951  0.327  0.177-  36 1.95
  84  0.241  0.977  0.540-  54 1.56   6 2.30
  85  0.812  0.897  0.784-  14 1.93  19 2.20  23 2.21
  86  0.053  0.735  0.065-  41 1.77  39 2.01
  87  0.978  0.683  0.234-  41 1.49
  88  0.939  0.946  0.575-  29 1.75
  89  0.081  0.396  0.939-  42 1.58  17 2.45
  90  0.448  0.857  0.076-  13 2.12   7 2.34
  91  0.411  0.871  0.596-  46 1.61   6 2.42  16 2.46
  92  0.290  0.842  0.814-  24 1.96   6 2.04  33 2.11
  93  0.803  0.104  0.564-  29 1.71  12 2.23
  94  0.899  0.372  0.482-  34 1.75  10 2.40
  95  0.155  0.568  0.463-  48 1.48
  96  0.282  0.647  0.112-  47 1.68   3 2.45
  97  0.831  0.582  0.580-  34 1.95   8 2.26   4 2.42
  98  0.238  0.561  0.693-  38 1.64   2 2.41
  99  0.561  0.724  0.960-  45 1.61  35 1.87
 100  0.810  0.783  0.314-  28 1.58   4 2.27
[...]
 121  0.261  0.462  0.143-  47 1.65  17 2.16  21 2.35
 122  0.577  0.598  0.818-  35 1.69  15 2.27
 123  0.128  0.099  0.442-  54 1.60  18 2.27
 124  0.137  0.932  0.056-  39 1.75  40 2.08   3 2.28
 125  0.802  0.984  0.252-  43 1.54  11 1.89
 126  0.835  0.521  0.380-  34 1.83  22 2.40   4 2.45
 127  0.638  0.909  0.450-  53 1.61  43 2.54
 128  0.967  0.071  0.444-  29 1.69  18 2.10
 129  0.549  0.082  0.287-  44 1.70   7 2.49
 130  0.722  0.141  0.935-  52 1.68  19 2.51
 131  0.230  0.754  0.965-  33 1.69   3 2.12
 132  0.642  0.993  0.646-  50 1.81  23 2.06
 133  0.337  0.614  0.493-  38 1.91  48 2.26   9 2.46
 134  0.929  0.890  0.021-  39 1.51  11 2.38
 135  0.531  0.129  0.663-  50 1.61  20 2.07

IMPORTANT INFORMATION: All symmetrisations will be switched off!
NOSYMM: (Re-)initialisation of all symmetry stuff for point group C_1.

Automatic generation of k-mesh.
 generate k-points for:    2    2    2
Space group operators:
 irot       det(A)        alpha          n_x          n_y          n_z        tau_x        tau_y        tau_z
    1     1.000000     0.000000     1.000000     0.000000     0.000000     0.000000     0.000000     0.000000

 Subroutine IBZKPT returns following result:

 Found      8 irreducible k-points:

 Following reciprocal coordinates:
            Coordinates               Weight
  0.000000  0.000000  0.000000      1.000000
  0.500000  0.000000  0.000000      1.000000
  0.000000  0.500000  0.000000      1.000000
  0.500000  0.500000  0.000000      1.000000
  0.000000  0.000000  0.500000      1.000000
  0.500000  0.000000  0.500000      1.000000
  0.000000  0.500000  0.500000      1.000000
  0.500000  0.500000  0.500000      1.000000

 Following cartesian coordinates:
            Coordinates               Weight
  0.000000  0.000000  0.000000      1.000000
  0.035682  0.000000  0.000000      1.000000
  0.000000  0.035682  0.000000      1.000000
  0.035682  0.035682  0.000000      1.000000
  0.000000  0.000000  0.035682      1.000000
  0.035682  0.000000  0.035682      1.000000
  0.000000  0.035682  0.035682      1.000000
  0.035682  0.035682  0.035682      1.000000

 SYSTEM =  unknown system
 POSCAR =  Ca Si  O

 Startparameter for this run:
   NWRITE =      2    write-flag & timer
   PREC   = a         normal or accurate (medium, high low for compatibility)
   ISTART =      0    job   : 0-new  1-cont  2-samecut
   ICHARG =      2    charge: 1-file 2-atom 10-const
   ISPIN  =      1    spin polarized calculation?
   LNONCOLLINEAR =      F non collinear calculations
   LSORBIT =      F    spin-orbit coupling
   INIWAV =      1    electr: 0-lowe 1-rand  2-diag
[...]
     0.000000000  0.000000000 14.012776000     0.000000000  0.000000000  0.071363447

  length of vectors
    14.012776000 14.012776000 14.012776000     0.071363447  0.071363447  0.071363447

 FORCES acting on ions
    electron-ion (+dipol)            ewald-force                    non-local-force                 convergence-correction
   -.205E+03 -.185E+02 0.533E+02   0.204E+03 0.247E+02 -.572E+02   0.139E+01 -.385E+01 0.283E+01   -.132E-02 -.526E-03 0.139E-02
   0.266E+03 0.607E+02 0.955E+02   -.257E+03 -.642E+02 -.920E+02   -.789E+01 -.564E-01 -.506E+01   0.110E-02 0.108E-03 0.514E-03
   -.226E+03 0.569E+02 -.242E+02   0.224E+03 -.622E+02 0.252E+02   0.353E+01 0.374E+01 0.375E+00   0.287E-02 -.187E-02 0.575E-03
   -.243E+03 0.108E+02 -.129E+03   0.239E+03 -.133E+02 0.123E+03   0.409E+01 0.225E+01 0.437E+01   -.121E-02 0.847E-03 0.817E-03
   0.129E+03 -.254E+03 -.464E+02   -.126E+03 0.250E+03 0.414E+02   -.305E+01 0.353E+01 0.342E+01   0.491E-04 -.822E-04 0.378E-03
   0.117E+03 -.758E+02 0.471E+02   -.115E+03 0.728E+02 -.459E+02   -.243E+01 0.234E+01 -.200E+01   0.386E-03 0.281E-03 -.118E-03
   0.710E+02 -.151E+03 -.933E+02   -.715E+02 0.149E+03 0.979E+02   0.130E+01 0.183E+01 -.292E+01   -.430E-03 0.527E-03 -.114E-03
   -.205E+03 -.315E+03 -.439E+01   0.205E+03 0.314E+03 0.155E+01   0.296E+01 0.188E+01 0.262E+01   -.696E-04 -.488E-03 0.926E-03
   -.776E+02 0.372E+03 0.267E+03   0.756E+02 -.361E+03 -.263E+03   0.148E+01 -.793E+01 -.439E+01   -.120E-02 -.633E-03 -.142E-02
   -.201E+03 -.815E+02 0.346E+03   0.195E+03 0.825E+02 -.338E+03   0.521E+01 0.116E+01 -.755E+01   0.133E-02 -.123E-02 -.372E-03
   -.371E+02 -.374E+02 0.608E+02   0.353E+02 0.340E+02 -.597E+02   0.337E+01 0.339E+01 -.374E+01   0.720E-04 0.173E-02 -.361E-03
   -.105E+03 0.452E+02 0.438E+02   0.102E+03 -.428E+02 -.474E+02   0.273E+01 -.133E+01 0.316E+01   0.379E-03 -.101E-02 0.640E-04
   0.142E+03 0.220E+03 -.110E+03   -.142E+03 -.222E+03 0.107E+03   -.228E+01 -.904E+00 0.158E+01   -.156E-02 -.300E-03 -.581E-03
   -.267E+03 0.274E+03 0.419E+02   0.260E+03 -.268E+03 -.390E+02   0.741E+01 -.711E+01 0.150E+00   -.791E-03 0.130E-02 -.504E-03
   0.236E+03 -.600E+01 0.116E+03   -.235E+03 0.105E+02 -.110E+03   -.130E+01 -.267E+01 -.461E+01   -.296E-03 0.492E-03 0.519E-03
   -.119E+03 -.139E+03 0.114E+03   0.121E+03 0.135E+03 -.108E+03   0.185E+01 0.397E+01 -.348E+01   0.300E-03 0.475E-03 -.524E-05
   0.141E+03 -.118E+03 -.168E+03   -.138E+03 0.116E+03 0.164E+03   -.376E+01 0.150E+01 0.277E+01   0.176E-02 -.674E-03 0.184E-03
   -.465E+01 -.375E+03 0.121E+03   0.469E+01 0.365E+03 -.116E+03   -.170E+00 0.862E+01 -.502E+01   0.743E-03 -.651E-05 -.169E-03
   -.527E+02 -.664E+02 -.786E+01   0.524E+02 0.606E+02 0.117E+02   0.465E+00 0.539E+01 -.254E+01   0.217E-03 -.176E-03 0.116E-03
   0.202E+03 -.141E+03 0.354E+03   -.200E+03 0.140E+03 -.348E+03   -.649E+00 0.438E+00 -.699E+01   -.513E-03 -.100E-02 -.725E-03
   -.140E+03 -.813E+02 0.317E+02   0.140E+03 0.854E+02 -.279E+02   0.809E+00 -.276E+01 -.338E+01   -.998E-03 0.633E-03 0.173E-02
   -.138E+03 0.132E+03 0.389E+01   0.136E+03 -.133E+03 -.269E+01   0.246E+01 0.154E+01 -.877E+00   -.143E-02 -.125E-02 -.105E-02
   -.990E+02 0.266E+03 0.114E+03   0.989E+02 -.260E+03 -.110E+03   0.852E+00 -.616E+01 -.456E+01   -.162E-03 0.791E-03 0.556E-03
   -.667E+02 0.170E+03 0.168E+02   0.614E+02 -.170E+03 -.170E+02   0.644E+01 -.578E+00 0.122E+01   0.294E-03 -.116E-03 0.173E-03
   -.839E+01 -.121E+03 -.172E+03   0.809E+01 0.122E+03 0.176E+03   0.138E-01 -.219E+01 -.193E+01   -.140E-03 -.514E-03 0.318E-03
   0.129E+03 -.678E+02 -.246E+03   -.131E+03 0.656E+02 0.236E+03   0.625E+00 0.263E+01 0.760E+01   0.125E-02 0.164E-02 0.361E-03
   0.313E+03 -.109E+02 0.210E+02   -.309E+03 0.105E+02 -.176E+02   -.337E+01 -.221E+00 -.387E+01   0.485E-03 -.938E-03 0.492E-03
   -.412E+01 0.698E+02 0.285E+02   0.139E+02 -.696E+02 -.307E+02   -.841E+01 -.469E+01 0.858E-01   -.472E-03 0.413E-03 -.833E-04
   -.399E+02 0.364E+02 -.138E+02   0.423E+02 -.353E+02 0.123E+02   0.368E+00 -.132E+01 0.227E+01   0.180E-03 0.222E-03 0.887E-04
   -.141E+02 0.126E+02 -.700E+02   0.625E+01 -.188E+02 0.577E+02   0.599E+01 0.766E+01 0.122E+02   0.137E-03 0.184E-03 0.377E-03
   0.389E+02 0.423E+02 0.105E+03   -.374E+02 -.445E+02 -.102E+03   -.359E+01 -.220E+00 0.192E+01   0.680E-04 -.483E-03 0.245E-03
   0.274E+02 0.794E+02 0.288E+02   -.293E+02 -.761E+02 -.167E+02   0.185E+01 -.103E+02 -.230E+02   -.596E-03 -.772E-04 -.117E-03
   0.133E+02 -.183E+02 0.633E+02   -.128E+02 0.696E+01 -.596E+02   0.578E+01 0.665E+01 -.643E+01   0.339E-03 0.285E-03 -.313E-03
   0.221E+02 -.275E+02 0.896E+02   -.143E+02 0.240E+02 -.943E+02   -.419E+01 0.385E+01 0.145E+01   0.113E-03 -.368E-03 0.454E-04
   0.498E+01 0.988E+02 -.816E+02   -.491E+01 -.980E+02 0.682E+02   0.185E+01 0.328E+00 0.872E+01   -.319E-03 0.218E-03 0.610E-04
   0.239E+02 -.724E+02 -.879E+02   -.177E+02 0.685E+02 0.920E+02   -.948E+01 0.116E+02 -.274E+01   0.488E-03 -.575E-03 0.295E-03
   -.913E+02 -.145E+02 -.818E+02   0.886E+02 0.215E+02 0.852E+02   0.168E+01 -.463E+01 -.766E+01   -.323E-03 -.854E-04 0.317E-03
   0.346E+02 0.357E+02 -.519E+02   -.369E+02 -.412E+02 0.551E+02   -.422E+01 0.156E+02 -.374E+01   -.105E-03 0.174E-03 -.807E-04
   0.155E+02 -.850E+01 -.110E+02   -.283E+02 0.659E+01 0.998E+01   0.163E+02 -.294E+01 0.302E+01   0.118E-03 0.152E-02 -.616E-03
   -.624E+00 -.748E+02 0.264E+02   0.335E+01 0.700E+02 -.938E+01   0.851E+00 0.423E+01 -.164E+02   0.154E-03 0.855E-03 -.184E-03
   0.391E+02 0.119E+03 0.304E+02   -.536E+02 -.113E+03 -.223E+02   0.188E+02 -.251E+01 -.957E+01   0.314E-02 -.432E-03 -.547E-03
   -.121E+02 -.604E+02 0.215E+02   0.182E+02 0.655E+02 -.132E+02   -.761E+01 -.310E+01 -.957E+01   0.334E-03 -.482E-03 0.277E-03
   0.662E+02 -.538E+01 -.937E+02   -.519E+02 0.177E+02 0.807E+02   -.111E+02 -.206E+02 0.183E+02   -.119E-03 0.340E-03 0.119E-04
   0.931E+02 -.106E+03 -.162E+02   -.966E+02 0.113E+03 0.250E+02   0.477E+01 -.115E+02 -.784E+01   -.328E-03 -.572E-04 -.194E-04
   0.259E+02 -.418E+02 0.551E+02   -.120E+02 0.384E+02 -.436E+02   -.108E+02 0.725E+01 -.123E+02   -.173E-03 0.181E-03 -.674E-04
   -.232E+02 0.174E+02 0.261E+02   0.290E+02 -.193E+02 -.120E+02   -.132E+02 0.350E+01 -.161E+02   -.488E-04 0.260E-03 0.107E-03
   -.527E+02 0.972E+02 -.277E+02   0.525E+02 -.915E+02 0.217E+02   0.129E+01 -.215E+01 0.509E+01   0.112E-02 0.464E-03 -.130E-02
   0.463E+02 0.490E+02 0.271E+02   -.503E+02 -.565E+02 -.182E+02   0.113E+02 0.842E+01 -.136E+02   0.846E-03 -.289E-03 -.201E-03
   -.673E+02 -.859E+01 0.823E+00   0.696E+02 0.195E+02 -.295E+01   -.227E+01 -.151E+02 0.452E+01   0.158E-03 -.332E-03 0.111E-03
   0.194E+01 0.171E+02 -.373E+01   -.729E+01 -.121E+02 0.167E+01   0.753E+01 -.568E+01 -.209E+01   -.311E-04 -.193E-03 0.565E-05
   -.661E+02 -.638E+02 0.296E+02   0.686E+02 0.666E+02 -.255E+02   -.648E+00 0.610E+00 0.123E+01   -.119E-03 -.156E-03 -.250E-03
   0.953E+02 0.718E+01 -.905E+02   -.882E+02 -.573E+01 0.830E+02   -.973E+01 -.357E+01 0.636E+01   -.558E-04 -.245E-03 0.142E-03
   0.180E+02 0.158E+02 0.145E+02   -.179E+02 -.136E+02 -.870E+01   0.634E+01 -.109E+01 -.573E+01   -.329E-03 0.425E-03 0.109E-03
   0.107E+02 -.545E+02 0.107E+02   -.900E+01 0.482E+02 -.253E+02   -.341E+01 0.662E+01 0.102E+02   0.695E-04 0.182E-03 -.374E-03
   -.150E+03 -.132E+03 -.268E+03   0.154E+03 0.120E+03 0.303E+03   -.486E+01 0.789E+01 -.301E+02   -.190E-03 0.637E-03 -.104E-03
   0.954E+02 0.101E+03 -.218E+03   -.106E+03 -.802E+02 0.263E+03   0.916E+01 -.163E+02 -.351E+02   -.116E-02 -.140E-03 -.731E-03
   0.130E+03 -.406E+02 0.268E+03   -.143E+03 0.497E+02 -.284E+03   0.136E+02 -.586E+01 0.142E+02   0.164E-03 -.628E-03 0.347E-03
   0.874E+02 0.588E+02 -.103E+03   -.795E+02 -.471E+02 0.109E+03   -.891E+01 -.127E+02 -.560E+01   0.291E-02 0.684E-03 -.119E-03
   0.860E+02 -.705E+02 0.286E+02   -.108E+03 0.634E+02 -.106E+02   0.222E+02 0.675E+01 -.172E+02   0.108E-03 -.321E-03 -.496E-04
   -.210E+02 -.139E+03 0.127E+02   0.262E+02 0.170E+03 -.245E+02   -.608E+01 -.305E+02 0.107E+02   0.487E-03 -.466E-03 0.222E-03
[...]
   0.153E+03 0.482E+02 -.318E+01   -.169E+03 -.475E+02 -.129E+02   0.168E+02 -.207E+01 0.178E+02   -.203E-03 0.586E-03 0.252E-03
   -.123E+03 -.102E+03 0.390E+02   0.108E+03 0.104E+03 -.617E+02   0.181E+02 -.199E+01 0.242E+02   0.311E-03 0.443E-03 -.382E-03
   0.935E+01 -.979E+02 0.643E+02   0.675E+01 0.105E+03 -.689E+02   -.183E+02 -.640E+01 0.509E+01   0.190E-03 0.173E-02 -.205E-03
   -.876E+02 0.292E+02 0.443E+01   0.106E+03 -.380E+02 -.158E+02   -.169E+02 0.634E+01 0.983E+01   -.184E-03 0.853E-03 -.168E-04
   -.378E+02 0.103E+03 0.991E+02   0.458E+02 -.102E+03 -.115E+03   -.977E+01 -.115E+01 0.195E+02   -.187E-03 -.834E-03 -.640E-04
   0.828E+02 -.100E+03 -.874E+02   -.706E+02 0.129E+03 0.897E+02   -.138E+02 -.306E+02 0.155E+00   -.317E-03 0.578E-03 0.178E-03
   -.213E+02 0.121E+02 0.517E+01   0.416E+02 -.114E+02 -.107E+02   -.234E+02 0.410E+00 0.578E+01   0.370E-03 0.333E-03 0.240E-04
   0.279E+03 -.977E+02 -.129E+03   -.289E+03 0.815E+02 0.142E+03   0.804E+01 0.165E+02 -.158E+02   -.585E-03 0.394E-03 0.637E-04
   -.751E+00 0.998E+02 0.505E+01   0.921E+01 -.112E+03 -.195E+02   -.892E+01 0.113E+02 0.143E+02   0.269E-03 -.314E-03 0.149E-04
   -.625E+02 0.251E+03 0.101E+03   0.759E+02 -.269E+03 -.883E+02   -.148E+02 0.204E+02 -.159E+02   0.158E-02 -.795E-03 0.749E-03
   0.745E+02 -.315E+02 0.523E+02   -.656E+02 0.328E+02 -.688E+02   -.120E+02 -.273E+00 0.206E+02   -.579E-04 0.860E-05 0.864E-04
   -.392E+02 0.945E+02 0.946E+02   0.465E+02 -.859E+02 -.104E+03   -.862E+01 -.111E+02 0.104E+02   -.119E-03 0.192E-04 -.360E-03
   0.137E+03 0.434E+02 -.126E+01   -.174E+03 -.412E+02 -.119E+01   0.348E+02 -.131E+00 0.347E+01   -.146E-03 0.167E-02 -.747E-03
   0.184E+03 -.940E+02 0.338E+02   -.190E+03 0.116E+03 -.437E+02   0.511E+01 -.213E+02 0.115E+02   -.451E-05 -.534E-03 -.257E-03
   0.457E+02 0.763E+00 0.125E+03   -.284E-12 -.469E-12 0.853E-13   -.458E+02 -.787E+00 -.125E+03   0.130E-01 0.237E-02 -.384E-03

 POSITION                                       TOTAL-FORCE (eV/Angst)
      2.99414      2.70052     12.32416         0.012784      2.312662     -1.120604
      1.47489      9.39392      9.61287         0.929208     -3.594010     -1.489577
      3.37625     11.43958      1.44164         1.486153     -1.550319      1.353617
     11.67977      9.59983      6.18283        -0.076268     -0.241420     -1.216607
      6.53478      0.53376     13.77392         0.106580      0.078811     -1.594591
      3.77411     12.76366      9.62667         0.351004     -0.679246     -0.808752
      7.70868     13.46800      2.20062         0.763314      0.155828      1.682549
     11.31756      6.99218     10.03747         2.190788      1.046873     -0.220263
      5.53126      6.30793      6.59274        -0.481125      2.445865     -0.839129
      0.96930      5.53095      6.78645        -1.177650      2.236064      0.158866
     12.29240     14.00493      1.97234         1.568781     -0.008376     -2.617374
     12.90167      2.75354      8.67331         0.146239      1.121627     -0.520894
      7.31267     10.42830      2.02514        -1.706889     -2.490240     -1.044129
     12.00002     11.03747     11.98376        -0.118861     -0.769805      3.102260
      7.83639      6.88409      9.77723        -0.329292      1.782380      0.852382
      4.51102     11.58825      6.32195         3.613511      0.872176      2.363568
      1.69480      5.72431      1.52458        -1.212099     -0.708847     -1.221249
      0.29546      2.26457      4.72668        -0.121977     -1.456975      0.143453
     11.14718      0.73501     11.17582         0.225322     -0.459656      1.307463
      8.07449      2.33528      7.38321         1.258533     -0.357042     -0.387802
      5.17139      5.20534      0.72378         0.009729      1.329312      0.476239
     10.75777      7.66206      3.14471        -0.217570      0.151406      0.323765
     10.35456     12.36251      9.03869         0.827604     -0.835939     -0.401593
      5.81074     11.59264     12.25486         1.066899     -1.252048      1.056072
     10.84796      5.95672     12.92534        -0.287171     -1.363405      1.612299
      2.17810     12.55396      4.81134        -1.593418      0.429197     -2.012917
      8.25981      3.78971     11.30528         0.628402     -0.628611     -0.494882
      9.81147     11.10240      4.09985         1.420000     -4.436157     -2.164802
     12.22622      0.34499      7.05008         2.811715     -0.190087      0.777090
      0.71235      1.51585     13.47315        -1.883738      1.418238     -0.023985
     10.05900      4.68905      9.00601        -2.105558     -2.380919      4.551020
      7.96891      7.07353      1.95823        -0.039862     -7.002221    -10.845973
      2.24636     11.34183     12.37867         6.363770     -4.640574     -2.651855
     11.52727      6.56965      7.00135         3.578231      0.328756     -3.341114
      9.08269      8.93470     12.71503         1.921180      1.078441     -4.729413
     12.73281      3.73741      0.82279        -3.315049      7.707674      1.335379
      3.86024      2.54958      1.26471        -0.987873      2.382053     -4.242633
      4.63277      8.05379      8.72646        -6.478335     10.100656     -0.556690
      0.49037     12.19396      0.26875         3.451530     -4.845277      1.954176
      2.42953      0.22527      2.40995         3.576648     -0.556459      0.582229
      0.99342      9.73286      2.56464         4.350390      3.079838     -1.442909
      0.28259      4.52034     12.31617        -1.512702      2.039617     -1.224545
     10.15917      0.13630      4.57162         3.212810     -8.220747      5.322606
      8.55423      2.51965      3.47057         1.309863     -4.387493      0.971538
      8.80075     11.44261     13.20882         3.075420      3.862380     -0.725749
      6.49680     10.77261      8.30732        -7.432013      1.541798     -1.943523
      3.51260      7.94916      2.73976         1.076376      3.544533     -0.910211
      2.87197      8.96838      5.66599         7.319653      0.989028     -4.664099
      0.96634      5.34433      9.80024         0.045914     -4.153518      2.392537
      7.66745      0.46884     10.14601         2.183587     -0.691085     -4.155614
      3.46842      2.20608      9.33014         1.853507      3.415465      5.314631
      9.60815      3.03901      0.28544        -2.566036     -2.114296     -1.184433
      8.33338     11.25550      6.16882         6.447295      1.156118      0.053558
      2.65507      1.05652      7.50174        -1.680821      0.374875     -4.374052
      3.58124      1.68218      2.43827        -1.014609     -3.547669      4.640326
      7.69250      7.69604      3.18998        -1.821291      5.010633      9.289299
     10.28729      5.71862      7.87438         0.878520      3.278885     -2.331030
      1.94837     11.09337      3.12006        -0.963570     -1.007882      0.192634
      6.57411      0.08463     11.21179        -0.234871     -0.342176      0.757961
      1.05394      6.76600      9.19517        -0.869715      1.082907     -1.104208
[...]
      3.66424      6.47753      2.00473         0.075987     -0.138384      1.306203
      8.09067      8.38370     11.46143         1.201446     -1.374926      1.748075
      1.78840      1.38828      6.19457         2.310506      0.317082      1.487676
      1.91757     13.05941      0.77879        -2.168159      0.636023      0.523591
     11.23891     13.79002      3.52995         1.386433     -2.388511     -1.550809
     11.69396      7.30749      5.33112        -1.821740     -0.056812      3.155658
      8.94050     12.73620      6.30086        -1.521598     -1.744206      2.364297
     13.55090      1.00080      6.22809        -3.086396      1.087666      0.301791
      7.69604      1.15325      4.01938        -2.510914      0.280320     -2.642878
     10.11656      1.98033     13.09510        -0.454289     -1.324049     -0.175605
      3.21858     10.57064     13.52913        -1.422902      2.000262     -2.761144
      8.99994     13.91674      9.05194        -3.076848      1.061652      3.978388
      4.72267      8.60837      6.90504        -1.350822     -2.512337      0.549204
     13.01703     12.47385      0.29756        -2.650709      2.072753      1.012089
      7.44735      1.81287      9.28750        -1.246187      0.682062      1.578459
    total drift:                               -0.026996     -0.021424     -0.014149

  FREE ENERGIE OF THE ION-ELECTRON SYSTEM (eV)
  free  energy   TOTEN  =      -878.88767606 eV

  energy  without entropy=     -878.86638203  energy(sigma->0) =     -878.87702904