 vasp.5.4.4.18Apr17-6-g9f103f2a35 (build Mar 16 2023 09:39:13) complex

 executed on             LinuxIFC date 2024.04.29  19:16:49

 INCAR:
 POTCAR:    PAW_PBE Ca_sv 06Sep2000
 POTCAR:    PAW_PBE Si 05Jan2001
 POTCAR:    PAW_PBE O 08Apr2002
 POTCAR:    PAW_PBE Ca_sv 06Sep2000
   VRHFIN =Ca: 3s3p4s

   TITEL  = PAW_PBE Ca_sv 06Sep2000
   POMASS =   40.078; ZVAL   =   10.000    mass and valenz
   ENMAX  =  266.622; ENMIN  =  199.967 eV

   TITEL  = PAW_PBE Si 05Jan2001
   POMASS =   28.085; ZVAL   =    4.000    mass and valenz
   ENMAX  =  245.345; ENMIN  =  184.009 eV

   TITEL  = PAW_PBE O 08Apr2002
   POMASS =   16.000; ZVAL   =    6.000    mass and valenz
   ENMAX  =  400.000; ENMIN  =  300.000 eV

 Optimization of the real space projectors (new method)

 maximal supplied QI-value         = 16.25
 optimisation between [QCUT,QGAM] = [ 12.51, 25.03] = [ 43.85,175.40] Ry
 Optimized for a Real-space Cutoff    1.47 Angstroem

   l    n(q)    QCUT    max X(q) W(low)/X(q) W(high)/X(q)  e(spline)
   0     11    12.514    11.817    0.25E-04    0.32E-05    0.87E-07
   0     11    12.514     8.461    0.39E-04    0.59E-05    0.18E-06
   1     11    12.514     3.957    0.97E-05    0.57E-05    0.28E-07
   1     11    12.514     4.314    0.42E-04    0.14E-04    0.23E-06
   2     10    12.514    14.565    0.79E-04    0.50E-03    0.16E-05
   2     10    12.514    14.552    0.75E-04    0.48E-03    0.15E-05
 Optimization of the real space projectors (new method)

[...]

   l    n(q)    QCUT    max X(q) W(low)/X(q) W(high)/X(q)  e(spline)
   0      9    12.501   159.560    0.10E-03    0.83E-04    0.71E-07
   0      9    12.501   115.863    0.99E-04    0.81E-04    0.70E-07
   1      8    12.501    88.339    0.20E-03    0.25E-03    0.76E-07
   1      8    12.501    48.592    0.20E-03    0.24E-03    0.75E-07
 Optimization of the real space projectors (new method)

 maximal supplied QI-value         = 24.76
 optimisation between [QCUT,QGAM] = [ 12.38, 25.00] = [ 42.90,175.06] Ry
 Optimized for a Real-space Cutoff    1.16 Angstroem

   l    n(q)    QCUT    max X(q) W(low)/X(q) W(high)/X(q)  e(spline)
   0      9    12.378    20.381    0.16E-03    0.67E-05    0.31E-06
   0      9    12.378    15.268    0.17E-03    0.81E-05    0.33E-06
   1      8    12.378     5.964    0.20E-03    0.16E-03    0.30E-06
   1      8    12.378     5.382    0.18E-03    0.14E-03    0.26E-06
  PAW_PBE Ca_sv 06Sep2000               :
  PAW_PBE Si 05Jan2001                  :
  PAW_PBE O 08Apr2002                   :

 POSCAR: Ca Si  O
  positions in direct lattice
 exchange correlation table for  LEXCH =        8
   RHO(1)=    0.500       N(1)  =     2000
   RHO(2)=  100.500       N(2)  =     4000

 ion  position               nearest neighbor table
   1  0.932  0.459  0.952- 130 2.12 121 2.12  76 2.19  63 2.20  29 3.02  52 3.04  42 3.08
   2  0.241  0.240  0.857- 109 2.12 108 2.17  67 2.48  42 2.87  53 2.92
   3  0.246  0.810  0.418-  61 2.06 125 2.28  78 2.30  70 2.35  58 2.43  72 2.45 128 2.47  83 2.55
                            30 2.60  54 2.99
   4  0.526  0.770  0.489-  66 2.07 122 2.16  56 2.16  59 2.20  70 2.30  85 2.48  51 2.61  30 3.12

   5  0.689  0.217  0.112- 107 2.17 104 2.18 133 2.21 131 2.35  18 2.71  49 3.08  44 3.12
   6  0.047  0.605  0.420-  72 2.09  58 2.10  64 2.38 128 2.46  33 3.11
   7  0.101  0.354  0.619- 106 2.04  80 2.19 114 2.37 129 2.54 124 2.54  29 2.79  28 3.12
   8  0.134  0.117  0.278-  75 2.20  74 2.22  78 2.55  50 3.03  25 3.11  47 3.16
   9  0.963  0.807  0.018-  63 2.14  93 2.28 135 2.38  62 2.43  54 2.87  52 3.04  15 3.09
  10  0.976  0.108  0.727-  94 2.16 106 2.19 120 2.27 102 2.33 108 2.36  39 2.75  28 2.87  22 3.16

  11  0.997  0.901  0.536-  79 2.06  94 2.20 128 2.33  99 2.38  72 2.40  39 2.83  19 3.06  45 3.11
                            28 3.15
  12  0.501  0.874  0.943-  55 1.86  57 1.91  71 2.16 111 2.30  90 2.47
  13  0.392  0.519  0.601- 129 2.14  66 2.17 103 2.18  59 2.26  96 2.31 119 2.53  21 2.72  35 2.92

[...]

  27  0.782  0.713  0.273-  84 2.07  93 2.14  85 2.15  23 3.10
  28  0.176  0.099  0.582- 106 1.48  94 1.79  78 1.92  87 1.96 134 2.29 120 2.37  47 2.66  10 2.87
                             7 3.12  11 3.15
  29  0.936  0.510  0.697-  76 1.55 114 1.64 124 1.69  64 1.81  43 2.69   7 2.79   1 3.02  41 3.05
                            33 3.08
  30  0.352  0.629  0.341-  66 1.56  77 1.63  58 1.66 125 1.81   3 2.60  23 3.12   4 3.12  20 3.14

[...]

  40  0.305  0.889  0.137-  81 1.56 132 1.63  71 1.65  61 1.74 125 2.31  53 3.03  54 3.04
  41  0.677  0.472  0.696- 103 1.55  82 1.61 113 1.62 117 1.73  48 2.77  49 2.99  29 3.05  17 3.12
                            14 3.16
  42  0.190  0.478  0.893- 121 1.58  67 1.69 119 1.76  91 2.04   2 2.87  46 2.88   1 3.08
  43  0.862  0.411  0.502- 101 1.67  64 1.79  89 1.81  80 1.86 113 1.88 114 2.06  38 2.61  29 2.69
                            32 3.13
  44  0.745  0.956  0.098-  73 1.64 107 1.72  93 1.75  57 1.81   5 3.12  18 3.15  19 3.16
  45  0.747  0.987  0.582-  65 1.53  79 1.54 116 1.65 122 1.79  22 2.71  51 3.05  11 3.11  19 3.16

[...]

  51  0.739  0.728  0.545-  99 1.44  56 1.50 122 1.68 117 2.28   4 2.61  45 3.05
  52  0.043  0.594  0.146- 115 1.51  63 1.59 135 1.71 110 1.72  50 2.89  32 2.90   9 3.04   1 3.04
                            54 3.15
  53  0.198  0.003  0.928-  86 1.59  81 1.61 108 1.65 118 1.69  39 2.66   2 2.92  40 3.03
  54  0.067  0.847  0.238- 135 1.52 128 1.56 105 1.62  61 1.88   9 2.87   3 2.99  40 3.04  52 3.15

  55  0.562  0.007  0.877-  31 1.71  12 1.86  22 2.14
  56  0.662  0.643  0.486-  51 1.50  24 2.16   4 2.16
  57  0.645  0.863  0.023-  44 1.81  12 1.91
  58  0.209  0.619  0.344-  30 1.66   6 2.10   3 2.43
  59  0.472  0.689  0.651-  35 1.58  48 1.67   4 2.20  13 2.26
  60  0.481  0.357  0.466-  21 2.02  36 2.19  24 2.28  17 2.44
  61  0.222  0.890  0.262-  40 1.74  54 1.88   3 2.06
  62  0.951  0.879  0.822-  39 1.63   9 2.43
  63  0.986  0.625  0.026-  52 1.59   9 2.14   1 2.20
  64  0.899  0.552  0.552-  43 1.79  29 1.81   6 2.38
  65  0.644  0.044  0.639-  45 1.53  26 2.08  22 2.28
  66  0.426  0.627  0.453-  30 1.56   4 2.07  13 2.17
  67  0.291  0.412  0.972-  42 1.69  20 2.23   2 2.48  14 2.52
  68  0.395  0.596  0.966-  46 1.71  20 2.36  14 2.50
  69  0.484  0.198  0.733-  31 1.68  21 2.26  26 2.44
  70  0.411  0.924  0.446-  47 1.79   4 2.30   3 2.35  16 2.37  26 2.54
  71  0.446  0.891  0.119-  40 1.65  12 2.16  23 2.47
  72  0.101  0.724  0.544-  33 1.53   6 2.09  11 2.40   3 2.45
  73  0.844  0.009  0.013-  44 1.64  18 2.13
  74  0.321  0.081  0.294-  47 1.69   8 2.22  25 2.42
  75  0.148  0.221  0.121-  50 1.78  25 2.20   8 2.20
  76  0.868  0.555  0.802-  29 1.55   1 2.19  15 2.44
  77  0.433  0.535  0.277-  30 1.63  20 1.97  24 2.43
  78  0.198  0.999  0.452-  47 1.91  28 1.92   3 2.30   8 2.55
  79  0.858  0.942  0.638-  45 1.54  11 2.06
  80  0.998  0.338  0.461-  38 1.74  43 1.86   7 2.19
  81  0.253  0.980  0.054-  40 1.56  53 1.61
  82  0.722  0.407  0.810-  49 1.55  41 1.61
  83  0.325  0.847  0.620-  35 1.59  26 2.54   3 2.55
  84  0.659  0.587  0.242-  34 1.62  27 2.07  23 2.16  24 2.19
  85  0.616  0.790  0.296-  23 2.03  27 2.15   4 2.48  16 2.51
  86  0.319  0.028  0.869-  53 1.59
  87  0.340  0.124  0.608-  21 1.95  28 1.96  26 2.00  47 2.12
  88  0.574  0.410  0.092-  34 1.70  20 2.28  14 2.56
  89  0.822  0.469  0.363-  32 1.71  43 1.81
  90  0.633  0.797  0.795-  48 1.69  15 1.97  12 2.47
  91  0.161  0.644  0.942-  46 1.64  42 2.04
  92  0.361  0.336  0.291-  37 1.68  36 1.88  20 2.51
  93  0.830  0.847  0.157-  44 1.75  27 2.14   9 2.28
  94  0.104  0.989  0.664-  39 1.62  28 1.79  10 2.16  11 2.20
  95  0.586  0.603  0.871-  48 1.56  15 2.37  14 2.41
  96  0.263  0.636  0.697-  33 1.59  35 1.71  13 2.31
  97  0.632  0.301  0.362-  36 1.72  17 2.24  24 2.29
  98  0.075  0.767  0.743-  39 1.54  33 1.60
  99  0.859  0.750  0.522-  51 1.44  11 2.38
 100  0.170  0.397  0.290-  50 1.48  37 1.60
 101  0.822  0.274  0.497-  38 1.63  43 1.67  17 2.18
 102  0.803  0.177  0.801-  49 1.62  22 2.01  10 2.33
 103  0.543  0.463  0.698-  41 1.55  13 2.18  14 2.35  48 2.55
 104  0.518  0.177  0.179-  36 1.78   5 2.18  25 2.25
 105  0.993  0.960  0.203-  54 1.62  19 2.25
 106  0.134  0.188  0.663-  28 1.48   7 2.04  10 2.19
 107  0.731  0.059  0.201-  44 1.72   5 2.17  19 2.27
 108  0.114  0.104  0.876-  53 1.65   2 2.17  10 2.36
 109  0.398  0.188  0.933-  31 1.63   2 2.12  25 2.28
 110  0.152  0.498  0.120-  52 1.72  50 1.83
 111  0.369  0.771  0.837-  35 1.58  46 1.77  12 2.30
 112  0.733  0.561  0.037-  34 1.56
 113  0.717  0.427  0.570-  41 1.62  43 1.88  17 2.23  24 2.57
 114  0.904  0.375  0.670-  29 1.64  43 2.06   7 2.37
[...]
 121  0.083  0.398  0.868-  42 1.58   1 2.12
 122  0.685  0.860  0.522-  51 1.68  45 1.79   4 2.16
 123  0.922  0.178  0.305-  38 1.60  19 2.11
 124  0.074  0.557  0.696-  33 1.63  29 1.69   7 2.54
 125  0.378  0.769  0.278-  30 1.81   3 2.28  40 2.31  23 2.41
 126  0.981  0.342  0.168-  50 1.57  32 1.73  18 2.44
 127  0.479  0.134  0.471-  47 1.77  36 2.38  26 2.40  17 2.50  21 2.51
 128  0.042  0.808  0.364-  54 1.56  11 2.33   6 2.46   3 2.47
 129  0.265  0.434  0.500-  37 1.50  13 2.14  21 2.47   7 2.54
 130  0.851  0.296  0.962-  49 1.73  18 2.11   1 2.12
 131  0.623  0.219  0.920-  31 1.67  49 1.73   5 2.35
 132  0.281  0.791  0.039-  46 1.55  40 1.63
 133  0.793  0.369  0.158-  32 1.49  34 1.94   5 2.21
 134  0.226  0.241  0.456-  37 1.71  28 2.29  21 2.48  47 2.51
 135  0.075  0.734  0.173-  54 1.52  52 1.71   9 2.38

IMPORTANT INFORMATION: All symmetrisations will be switched off!
NOSYMM: (Re-)initialisation of all symmetry stuff for point group C_1.

Automatic generation of k-mesh.
 generate k-points for:    2    2    2
Space group operators:
 irot       det(A)        alpha          n_x          n_y          n_z        tau_x        tau_y        tau_z
    1     1.000000     0.000001     1.000000     0.000000     0.000000     0.000000     0.000000     0.000000

 Subroutine IBZKPT returns following result:

 Found      8 irreducible k-points:

 Following reciprocal coordinates:
            Coordinates               Weight
  0.000000  0.000000  0.000000      1.000000
  0.500000  0.000000  0.000000      1.000000
  0.000000  0.500000  0.000000      1.000000
  0.500000  0.500000  0.000000      1.000000
  0.000000  0.000000  0.500000      1.000000
  0.500000  0.000000  0.500000      1.000000
  0.000000  0.500000  0.500000      1.000000
  0.500000  0.500000  0.500000      1.000000

 Following cartesian coordinates:
            Coordinates               Weight
  0.000000  0.000000  0.000000      1.000000
  0.042999  0.000000  0.000000      1.000000
  0.000000  0.042999  0.000000      1.000000
  0.042999  0.042999  0.000000      1.000000
  0.000000  0.000000  0.042999      1.000000
  0.042999  0.000000  0.042999      1.000000
  0.000000  0.042999  0.042999      1.000000
  0.042999  0.042999  0.042999      1.000000

 SYSTEM =  unknown system
 POSCAR =  Ca Si  O

 Startparameter for this run:
   NWRITE =      2    write-flag & timer
   PREC   = a         normal or accurate (medium, high low for compatibility)
[...]
     0.000000000  0.000000000 11.628173330     0.000000000  0.000000000  0.085998030

  length of vectors
    11.628173330 11.628173330 11.628173330     0.085998030  0.085998030  0.085998030

 FORCES acting on ions
    electron-ion (+dipol)            ewald-force                    non-local-force                 convergence-correction
   -.113E+02 0.127E+02 -.319E+02   0.105E+02 -.105E+02 0.282E+02   -.476E+00 -.996E+00 0.404E+01   0.189E-03 -.295E-03 -.693E-03
   0.741E+02 -.378E+02 -.476E+02   -.731E+02 0.360E+02 0.487E+02   -.109E+01 0.220E+01 -.217E+01   -.855E-03 0.767E-03 -.173E-03
   0.373E+02 0.502E+02 -.837E+02   -.359E+02 -.471E+02 0.827E+02   -.113E+01 -.290E+01 0.349E+01   -.218E-03 0.208E-03 0.173E-03
   -.327E+02 -.156E+03 -.163E+02   0.317E+02 0.156E+03 0.907E+01   -.738E+00 0.237E+01 0.399E+01   0.326E-03 -.593E-03 -.267E-03
   0.546E+02 0.436E+02 0.234E+02   -.624E+02 -.423E+02 -.202E+02   0.533E+01 -.132E+00 -.284E+01   0.549E-03 0.487E-03 -.662E-03
   0.103E+03 0.130E+03 0.679E+02   -.999E+02 -.124E+03 -.644E+02   -.403E+01 -.576E+01 -.339E+01   -.447E-03 -.117E-03 0.472E-03
   -.140E+01 -.864E+02 -.876E+02   0.189E+01 0.858E+02 0.871E+02   0.778E+00 0.279E+01 0.762E+00   -.332E-03 0.105E-03 0.132E-02
   0.113E+03 -.450E+01 0.827E+02   -.109E+03 0.138E+01 -.829E+02   -.342E+01 0.121E+01 0.135E+01   -.249E-03 0.585E-04 -.193E-03
   0.280E+02 -.864E+02 0.981E+02   -.273E+02 0.866E+02 -.990E+02   -.987E-01 0.154E+01 -.649E+00   -.201E-03 -.256E-03 -.821E-03
   0.155E+03 -.910E+02 -.229E+03   -.155E+03 0.931E+02 0.231E+03   -.220E+01 -.250E+00 0.754E+00   -.921E-04 0.772E-03 0.694E-03
   0.470E+02 0.217E+02 0.673E+02   -.480E+02 -.285E+02 -.665E+02   0.157E+01 0.386E+01 -.260E+01   -.156E-03 -.186E-03 0.796E-03
   0.981E+02 0.303E+02 -.273E+01   -.987E+02 -.284E+02 0.480E+01   -.463E+01 -.508E+01 -.228E+01   0.416E-03 0.256E-03 0.482E-06
   0.559E+02 0.272E+02 -.103E+03   -.569E+02 -.262E+02 0.101E+03   0.555E+00 -.154E+01 0.247E+01   -.823E-04 0.994E-04 0.558E-03
   0.192E+01 0.870E+02 -.586E+02   -.346E+01 -.815E+02 0.587E+02   0.831E+00 -.437E+01 0.208E+00   -.116E-04 -.562E-04 -.213E-03
   -.226E+03 -.833E+02 -.129E+03   0.222E+03 0.789E+02 0.128E+03   0.636E+01 0.231E+01 0.304E+01   0.116E-02 -.566E-03 -.420E-04
   -.116E+03 -.475E+02 0.142E+03   0.116E+03 0.425E+02 -.143E+03   0.116E+01 0.338E+01 -.358E+00   0.335E-03 -.998E-04 -.248E-03
   -.646E+02 0.130E+03 -.140E+03   0.648E+02 -.130E+03 0.134E+03   -.132E+01 -.181E+01 0.565E+01   0.813E-03 0.429E-03 0.536E-03
   -.178E+03 0.895E+02 0.736E+02   0.180E+03 -.913E+02 -.777E+02   0.534E+00 0.964E+00 0.440E+01   -.369E-04 0.298E-03 -.123E-02
   0.168E+02 0.119E+03 0.174E+02   -.227E+02 -.117E+03 -.229E+02   0.457E+01 -.515E+01 0.361E+01   -.163E-03 -.318E-04 -.260E-03
   0.651E+02 0.174E+02 0.862E+02   -.644E+02 -.150E+02 -.876E+02   -.186E+01 -.281E+01 -.812E+00   0.537E-04 -.301E-03 -.243E-03
   0.382E+02 -.731E+02 -.191E+03   -.354E+02 0.694E+02 0.188E+03   -.285E+01 0.544E+01 0.449E+01   -.369E-03 -.834E-04 0.774E-03
   -.999E+02 0.112E+03 -.105E+03   0.977E+02 -.112E+03 0.107E+03   0.262E+01 -.367E+01 0.129E+00   0.808E-03 0.549E-03 0.381E-03
   0.302E+02 0.855E+01 0.266E+03   -.311E+02 -.161E+01 -.260E+03   -.121E+01 -.491E+01 -.747E+01   0.623E-03 -.233E-03 0.146E-03
   -.532E+02 0.419E+02 0.696E+02   0.509E+02 -.424E+02 -.687E+02   0.114E+01 -.818E-01 -.245E-01   0.318E-03 0.457E-03 0.116E-05
   -.218E+02 0.884E+01 0.828E+02   0.246E+02 -.122E+02 -.840E+02   -.138E+01 0.206E+01 0.517E+00   -.454E-04 0.470E-03 -.476E-03
   -.307E+02 0.187E+03 -.184E+03   0.300E+02 -.184E+03 0.184E+03   0.886E+00 -.475E+01 0.180E+01   0.121E-03 0.527E-03 0.251E-03
   -.202E+03 -.565E+02 0.667E+01   0.195E+03 0.615E+02 -.830E+01   0.778E+01 -.375E+01 0.307E+01   -.140E-03 -.436E-03 -.352E-03
   -.295E+02 0.573E+02 0.515E+02   0.290E+02 -.488E+02 -.406E+02   0.566E+01 -.134E+02 -.153E+02   -.209E-03 0.214E-03 0.357E-03
   -.235E+02 -.452E+02 -.237E+02   0.178E+02 0.446E+02 0.289E+02   0.633E+01 0.229E+01 -.772E+01   0.528E-04 -.133E-03 0.318E-03
   0.718E+02 0.118E+02 0.754E+02   -.662E+02 -.120E+02 -.738E+02   -.528E+01 0.193E+01 -.592E+01   0.245E-03 -.199E-03 0.183E-04
   -.130E+02 0.199E+02 -.359E+02   0.768E+01 -.179E+02 0.344E+02   0.256E+01 -.334E+01 0.414E+00   0.118E-03 0.170E-03 -.510E-04
   -.327E+02 0.980E+01 -.458E+02   0.255E+02 -.121E+02 0.409E+02   0.106E+02 0.330E+01 0.102E+02   -.111E-03 0.367E-04 -.225E-03
   -.174E+01 0.420E+01 -.326E+02   -.331E+01 -.309E+00 0.301E+02   0.284E+01 -.469E+01 0.509E+01   -.467E-03 -.228E-03 0.363E-03
   -.828E+01 0.478E+02 0.109E+02   0.549E+01 -.366E+02 -.214E+02   0.453E+00 -.129E+02 0.739E+01   0.138E-03 0.106E-04 0.300E-04
   0.310E+02 -.465E+02 -.587E+02   -.348E+02 0.532E+02 0.557E+02   -.159E+01 -.446E+01 0.222E+01   -.233E-03 -.284E-03 0.122E-03
   0.393E+01 0.401E+02 0.575E+02   0.539E+01 -.377E+02 -.573E+02   -.855E+01 -.673E+00 0.297E+01   0.698E-04 0.117E-03 0.632E-04
   0.259E+02 -.983E+01 0.649E+02   -.268E+02 0.949E+01 -.560E+02   0.251E+01 -.483E+01 -.106E+02   0.415E-04 0.109E-03 0.176E-03
   -.342E+00 0.192E+02 0.610E+02   -.424E-01 -.181E+02 -.564E+02   -.752E+00 0.421E+01 -.489E+01   -.104E-03 0.194E-03 0.325E-03
   -.347E+02 -.452E+02 -.114E+02   0.268E+02 0.328E+02 0.206E+02   0.550E+01 0.111E+02 -.540E+01   -.194E-03 -.975E-04 0.141E-03
   0.106E+02 -.123E+02 -.341E+02   -.538E+01 0.126E+02 0.250E+02   -.175E+01 -.390E+01 0.118E+02   0.131E-04 -.631E-04 -.530E-04
   -.567E+02 0.154E+02 -.344E+02   0.473E+02 -.164E+02 0.302E+02   0.106E+02 0.400E+01 0.266E+01   0.320E-03 -.132E-03 0.128E-03
   0.162E+02 -.776E+02 -.449E+02   -.149E+02 0.644E+02 0.399E+02   0.308E+01 0.144E+02 0.343E+01   -.305E-03 -.179E-03 -.209E-03
   -.283E+02 -.364E+02 0.250E+02   0.280E+02 0.337E+02 -.241E+02   -.297E+00 0.380E+01 0.114E+01   -.677E-04 0.323E-04 0.416E-03
   0.745E+02 0.333E+01 0.166E+02   -.659E+02 -.561E+01 -.186E+02   -.771E+01 -.272E+01 0.219E+01   0.183E-03 -.968E-04 -.201E-03
   -.293E+02 0.637E+01 -.862E+01   0.263E+02 -.385E+01 0.794E+01   0.543E+00 -.459E+01 -.613E+01   0.160E-03 0.109E-03 0.302E-03
   0.108E+02 0.223E+02 0.191E+02   -.118E+02 -.260E+02 -.102E+02   0.361E+01 0.608E+00 -.891E+01   -.415E-03 -.345E-03 -.120E-03
   0.244E+02 -.265E+02 0.105E+02   -.176E+02 0.210E+02 -.176E+02   -.586E+01 0.352E+01 0.663E+01   0.767E-04 0.104E-03 0.126E-03
   0.554E+02 -.371E+02 -.622E+01   -.453E+02 0.354E+02 0.185E+02   -.593E+01 0.306E+01 -.115E+02   0.183E-03 -.324E-03 -.686E-05
   0.165E+02 0.126E+01 -.634E+01   -.872E+01 -.492E+01 0.378E+01   -.395E+01 -.739E+00 0.509E+01   0.431E-03 0.963E-04 -.856E-04
   -.169E+02 0.257E+02 0.800E+02   0.152E+02 -.252E+02 -.738E+02   0.318E+01 -.188E+01 -.138E+02   -.234E-03 0.153E-03 -.399E-03
   -.368E+02 -.112E+02 -.112E+03   0.451E+02 0.116E+02 0.961E+02   -.109E+02 0.746E+00 0.188E+02   0.285E-04 -.382E-03 0.101E-03
   -.751E+02 -.603E+00 -.226E+02   0.659E+02 0.275E+00 0.109E+02   0.153E+02 0.416E+01 0.519E+01   -.131E-03 -.738E-04 -.393E-03
   0.724E+02 -.781E+01 -.471E+02   -.623E+02 0.889E+01 0.387E+02   -.834E+01 -.166E+01 0.567E+01   -.413E-03 0.100E-03 -.179E-03
   0.534E+01 -.505E+02 0.740E+02   -.987E+01 0.479E+02 -.659E+02   0.726E+01 0.771E+01 -.513E+01   -.109E-03 -.125E-03 -.151E-03
   -.297E+00 -.591E+02 -.280E+02   0.658E+01 0.434E+02 0.291E+02   -.605E+01 0.236E+02 -.390E+01   0.373E-03 0.544E-03 -.146E-03
   -.929E+02 0.294E+02 -.333E+00   0.763E+02 -.537E+02 -.145E+02   0.150E+02 0.219E+02 0.133E+02   -.121E-04 -.571E-03 0.630E-04
   -.114E+03 0.104E+02 -.618E+02   0.108E+03 -.211E+02 0.572E+02   0.126E+02 0.124E+02 0.830E+01   0.868E-03 0.969E-04 0.322E-03
   0.281E+02 0.679E+02 0.100E+03   -.478E+02 -.706E+02 -.104E+03   0.217E+02 0.248E+01 0.373E+01   -.297E-03 -.297E-03 -.620E-04
   -.376E+02 -.457E+02 -.743E+02   0.461E+02 0.375E+02 0.458E+02   -.544E+01 0.694E+01 0.304E+02   0.173E-03 -.545E-03 0.184E-03
   -.925E+01 -.170E+02 0.538E+02   0.105E+02 0.202E+02 -.562E+02   -.170E+01 -.220E+01 0.254E+01   0.132E-03 0.237E-03 -.442E-03
[...]
   -.357E+02 -.609E+02 -.420E+01   0.248E+02 0.716E+02 -.102E+02   0.106E+02 -.105E+02 0.169E+02   0.161E-03 -.142E-03 0.145E-03
   0.699E+01 -.553E+02 0.943E+02   -.108E+02 0.568E+02 -.123E+03   0.514E+01 -.131E+01 0.287E+02   -.174E-03 0.120E-03 -.475E-03
   0.238E+02 -.248E+01 -.646E+02   -.117E+02 -.101E+02 0.756E+02   -.141E+02 0.106E+02 -.118E+02   -.263E-04 -.193E-03 0.614E-03
   -.832E+01 -.251E+01 0.116E+03   0.150E+02 0.202E+02 -.123E+03   -.682E+01 -.224E+02 0.773E+01   0.279E-03 0.241E-03 -.374E-03
   -.229E+02 0.400E+02 0.334E+02   0.642E+01 -.580E+02 -.464E+02   0.151E+02 0.195E+02 0.144E+02   -.529E-03 0.240E-04 -.573E-03
   -.102E+03 0.130E+02 0.985E+02   0.116E+03 -.603E+01 -.911E+02   -.151E+02 -.679E+01 -.113E+02   0.157E-03 0.288E-03 -.359E-03
   0.124E+03 0.270E+01 0.206E+02   -.129E+03 -.131E+02 0.604E+01   0.384E+01 0.106E+02 -.245E+02   -.223E-03 -.265E-03 0.396E-03
   0.117E+03 -.918E+02 -.380E+01   -.118E+03 0.111E+03 0.308E+02   -.222E+00 -.151E+02 -.237E+02   -.139E-03 0.214E-03 0.397E-03
   -.488E+02 0.288E+02 0.387E+02   0.635E+02 -.275E+02 -.304E+02   -.181E+02 -.180E+01 -.892E+01   0.161E-03 -.498E-06 -.491E-03
   0.151E+02 -.508E+01 -.514E+02   -.163E+02 0.556E+01 0.677E+02   0.287E+01 0.160E+01 -.161E+02   0.489E-03 0.332E-03 -.295E-03
   0.511E+02 0.535E+02 -.186E+02   -.588E+02 -.480E+02 0.223E+02   0.709E+01 -.653E+01 -.211E+01   -.342E-03 -.161E-03 -.636E-04
   0.456E+02 0.258E+02 0.172E+02   -.593E+02 -.491E+02 -.396E+02   0.767E+01 0.238E+02 0.204E+02   -.201E-03 0.242E-03 -.376E-03
   0.853E+02 0.489E+02 0.650E+02   -.899E+02 -.615E+02 -.572E+02   0.419E+01 0.112E+02 -.887E+01   -.102E-03 -.242E-03 0.439E-03
   -.496E+02 0.230E+02 0.531E+02   0.610E+02 -.320E+02 -.646E+02   -.113E+02 0.442E+01 0.892E+01   -.132E-03 -.307E-03 -.497E-03
   -.226E+02 0.219E+01 -.575E+02   0.711E-14 -.284E-12 -.171E-12   0.226E+02 -.220E+01 0.575E+02   0.588E-03 -.512E-04 0.183E-02

 POSITION                                       TOTAL-FORCE (eV/Angst)
     10.84084      5.33779     11.06503        -1.297898      1.149138      0.254447
      2.80342      2.78761      9.96239        -0.112927      0.418841     -1.047472
      2.86618      9.42410      4.86344         0.314463      0.189108      2.424199
      6.12050      8.95248      5.68187        -1.732840      2.407275     -3.233473
      8.00883      2.52668      1.29690        -2.494538      1.136992      0.331287
      0.54292      7.03198      4.88794        -1.311243      0.209825      0.187406
      1.17068      4.11665      7.19630         1.275679      2.280433      0.211514
      1.55595      1.35559      3.23317         0.133696     -1.917581      1.137530
     11.19433      9.37933      0.20528         0.607424      1.771106     -1.582953
     11.34699      1.25096      8.45691        -2.380252      1.783769      1.963250
     11.58870     10.47902      6.22846         0.620080     -2.892896     -1.852595
      5.83052     10.16691     10.96248        -5.270264     -3.212498     -0.203450
      4.55928      6.03382      6.99291        -0.492705     -0.544591      0.028646
      5.71351      4.88526     10.32655        -0.708423      1.199644      0.289043
      8.79116      8.31316     10.21736         2.042698     -2.098570      1.985449
      6.33508     11.55700      3.59266         0.468622     -1.669107     -0.881625
      7.47381      2.91591      6.36098        -1.119901     -1.995576     -0.411731
     10.61558      1.94390      0.86266         3.008121     -0.923178      0.278119
     10.03334      0.10581      3.91716        -1.317158     -2.726813     -1.924255
      4.54010      5.47899      1.46417        -1.121656     -0.436921     -2.206204
      4.46597      3.31438      6.88012        -0.049330      1.713327      1.079055
      8.52843      0.22364      9.44249         0.394026     -3.413196      1.550423
      6.25847      8.19991      1.91209        -2.057831      2.031654     -0.813488
      6.99036      5.73599      4.59010        -1.124989     -0.582250      0.816461
      3.89159      2.20980      1.36655         1.386819     -1.260560     -0.631596
      5.43449      0.14303      7.41074         0.133180     -2.355047      1.546901
      9.09353      8.28632      3.17146         0.475561      1.235758      1.435198
      2.04263      1.14676      6.76967         5.143977     -4.916723     -4.412866
     10.88399      5.92865      8.10411         0.616760      1.694941     -2.538558
      4.09215      7.31748      3.96982         0.264676      1.702006     -4.338136
      5.96697      1.69023     10.05105        -2.785944     -1.342248     -1.090749
     10.21743      4.96830      2.71169         3.347531      1.022248      5.271174
      1.60980      7.86482      7.68452        -2.209234     -0.791186      2.607449
      7.94675      5.74196      1.64388        -2.335864     -1.785192     -3.111378
      4.19509      8.66947      8.18389        -5.425544      2.285982     -0.732403
      5.83164      2.98692      3.58826         0.768045      1.727636      3.206517
      3.02692      4.27815      4.52875         1.649976     -5.177918     -1.667685
     10.81331      2.40304      5.10360        -1.136447      5.317471     -0.258243
      0.89832     10.43878      8.89920        -2.314332     -1.300033      3.838860
      3.54191     10.33905      1.59719         3.440320     -3.555520      2.782222
      7.86929      5.48402      8.09522         1.137875      3.000879     -1.522120
      2.20526      5.56117     10.37957         4.365537      1.231812     -1.573296
     10.02026      4.78011      5.83472        -0.579478      1.017766      2.056465
      8.66694     11.11096      1.13523         0.883292     -5.006081      0.242139
      8.69133     11.48200      6.76712        -2.442895     -2.081845     -6.808652
      3.38755      8.11259     10.98920         2.568470     -3.084084     -0.065762
      4.04947      0.74983      5.07121         0.858936     -2.041310     -0.557453
      6.58380      7.82452      8.81728         4.154622      1.303238      0.793261
      8.62008      3.32233     10.01584         3.835719     -4.392786      2.525139
      1.33500      4.16305      2.11400         1.437837     -1.359882     -7.664514
      8.59386      8.46193      6.33799        -2.542351      1.173534      2.616769
      0.50086      6.90403      1.70322         6.163300      3.834406     -6.438430
      2.30652      0.02912     10.79457         1.757969     -0.576369     -2.701598
      0.77865      9.85277      2.76751         2.731199      5.103216      2.981488
      6.53681      0.08300     10.19890         0.234622      7.915042     -2.808250
      7.69792      7.47877      5.64881        -1.568129     -2.461017     -1.551376
      7.49821     10.03433      0.26191         6.508083      1.750539      3.729048
      2.43337      7.19956      3.99828         2.024643     -0.226973     -0.048209
      5.48979      8.00700      7.57077         3.011817     -1.269878      1.929036
      5.58792      4.14960      5.42430        -0.490906      0.996931      0.155293
[...]
      0.96322      4.63134     10.09652        -1.272479     -1.075114      0.657175
      7.96742      9.99719      6.07428        -0.266691      0.184741      2.474105
     10.72181      2.06402      3.54464         1.304200      0.149182     -0.017670
      0.85706      6.47424      8.09902        -1.910025     -1.907264     -0.795474
      4.39001      8.94602      3.23164        -0.173434     -4.654182      1.200171
     11.40787      3.97201      1.95623        -1.308821      1.423349      1.354111
      5.57241      1.55777      5.47805        -0.482087      0.216478     -3.874446
      0.48312      9.39939      4.22699        -1.803675      0.238311      2.125445
      3.07592      5.05137      5.80899        -1.328903      3.662128      3.344497
      9.89346      3.44397     11.18704        -3.372701     -0.485669     -0.630614
      7.24019      2.54483     10.70159         1.745551      2.084336      0.152926
      3.26317      9.20226      0.45650        -0.520699     -1.042038      1.583633
      9.21831      4.29559      1.83657        -6.058949      0.566101     -1.937192
      2.62644      2.80720      5.29796        -0.481005     -1.431874     -1.105545
      0.87118      8.54076      2.01511         0.168934     -4.590799     -2.613979
    total drift:                                0.001664     -0.006546      0.000606

  FREE ENERGIE OF THE ION-ELECTRON SYSTEM (eV)
  free  energy   TOTEN  =      -920.96588799 eV

  energy  without entropy=     -920.96588799  energy(sigma->0) =     -920.96588799