 vasp.5.4.4.18Apr17-6-g9f103f2a35 (build Mar 16 2023 09:39:13) complex

 executed on             LinuxIFC date 2024.04.29  19:48:32

 INCAR:
 POTCAR:    PAW_PBE Ca_sv 06Sep2000
 POTCAR:    PAW_PBE Si 05Jan2001
 POTCAR:    PAW_PBE O 08Apr2002
 POTCAR:    PAW_PBE Ca_sv 06Sep2000
   VRHFIN =Ca: 3s3p4s

   TITEL  = PAW_PBE Ca_sv 06Sep2000
   POMASS =   40.078; ZVAL   =   10.000    mass and valenz
   ENMAX  =  266.622; ENMIN  =  199.967 eV

   TITEL  = PAW_PBE Si 05Jan2001
   POMASS =   28.085; ZVAL   =    4.000    mass and valenz
   ENMAX  =  245.345; ENMIN  =  184.009 eV

   TITEL  = PAW_PBE O 08Apr2002
   POMASS =   16.000; ZVAL   =    6.000    mass and valenz
   ENMAX  =  400.000; ENMIN  =  300.000 eV

 Optimization of the real space projectors (new method)

 maximal supplied QI-value         = 16.25
 optimisation between [QCUT,QGAM] = [ 12.51, 25.03] = [ 43.85,175.40] Ry
 Optimized for a Real-space Cutoff    1.47 Angstroem

   l    n(q)    QCUT    max X(q) W(low)/X(q) W(high)/X(q)  e(spline)
   0     11    12.514    11.817    0.25E-04    0.32E-05    0.87E-07
   0     11    12.514     8.461    0.39E-04    0.59E-05    0.18E-06
   1     11    12.514     3.957    0.97E-05    0.57E-05    0.28E-07
   1     11    12.514     4.314    0.42E-04    0.14E-04    0.23E-06
   2     10    12.514    14.565    0.79E-04    0.50E-03    0.16E-05
   2     10    12.514    14.552    0.75E-04    0.48E-03    0.15E-05
 Optimization of the real space projectors (new method)

[...]

   l    n(q)    QCUT    max X(q) W(low)/X(q) W(high)/X(q)  e(spline)
   0      9    12.501   159.560    0.10E-03    0.83E-04    0.71E-07
   0      9    12.501   115.863    0.99E-04    0.81E-04    0.70E-07
   1      8    12.501    88.339    0.20E-03    0.25E-03    0.76E-07
   1      8    12.501    48.592    0.20E-03    0.24E-03    0.75E-07
 Optimization of the real space projectors (new method)

 maximal supplied QI-value         = 24.76
 optimisation between [QCUT,QGAM] = [ 12.38, 25.00] = [ 42.90,175.06] Ry
 Optimized for a Real-space Cutoff    1.16 Angstroem

   l    n(q)    QCUT    max X(q) W(low)/X(q) W(high)/X(q)  e(spline)
   0      9    12.378    20.381    0.16E-03    0.67E-05    0.31E-06
   0      9    12.378    15.268    0.17E-03    0.81E-05    0.33E-06
   1      8    12.378     5.964    0.20E-03    0.16E-03    0.30E-06
   1      8    12.378     5.382    0.18E-03    0.14E-03    0.26E-06
  PAW_PBE Ca_sv 06Sep2000               :
  PAW_PBE Si 05Jan2001                  :
  PAW_PBE O 08Apr2002                   :

 POSCAR: Ca Si  O
  positions in direct lattice
 exchange correlation table for  LEXCH =        8
   RHO(1)=    0.500       N(1)  =     2000
   RHO(2)=  100.500       N(2)  =     4000

 ion  position               nearest neighbor table
   1  0.471  0.807  0.501-  63 2.15 101 2.17  61 2.22 105 2.39  58 2.51  43 2.74  32 3.06
   2  0.991  0.658  0.254-  66 2.21  59 2.29  68 2.31  94 2.36  97 2.38
   3  0.191  0.127  0.575-  83 2.17 110 2.27  60 2.28  25 3.07   4 3.11   7 3.15
   4  0.078  0.335  0.451- 121 2.00 106 2.41 110 2.48  88 2.52  38 2.61   3 3.11  45 3.13
   5  0.910  0.382  0.089-  69 2.04  68 2.19  89 2.29  80 2.56  42 2.77  51 2.79  38 2.80  17 2.99

   6  0.916  0.473  0.744-  79 2.12  87 2.15 132 2.32  89 2.38  45 2.82  51 2.91  50 2.99  48 3.10

[...]

   8  0.585  0.277  0.428-  85 2.03  64 2.14  77 2.23  62 2.39  70 2.48 108 2.52  53 2.83  30 3.04
                            52 3.14  16 3.15
   9  0.217  0.642  0.761- 115 2.06 104 2.26  78 2.34 132 2.37  44 2.94  22 3.08  34 3.13
  10  0.424  0.929  0.006- 128 2.13  73 2.31 124 2.33  91 2.42  28 2.94  33 2.94  40 3.01  32 3.07

[...]

  13  0.077  0.781  0.015- 124 2.22  59 2.31 100 2.34 134 2.39 115 2.47 114 2.56  40 2.90  19 2.96
                            41 3.05  51 3.12
  14  0.646  0.612  0.846-  79 2.14  76 2.18 120 2.33 129 2.33  28 2.99  34 3.07  26 3.17
  15  0.900  0.762  0.745- 100 2.05  98 2.12  57 2.18  90 2.21  46 2.62  50 3.04  47 3.08  44 3.16
                            23 3.17
  16  0.527  0.541  0.415-  92 2.14 127 2.20 109 2.24  61 2.36  63 2.37  77 2.39  64 2.42  53 2.85
                            48 2.95  34 3.07  35 3.14   8 3.15
  17  0.827  0.202  0.253-  62 2.05  72 2.42  69 2.42  88 2.48   5 2.99  54 2.99  39 3.02  49 3.10

[...]

  31  0.620  0.599  0.137- 133 1.51  92 1.60  76 1.61 111 1.66  24 2.85  26 2.95
  32  0.472  0.813  0.238-  75 1.58  61 1.64  73 1.80 105 1.90 111 2.05  33 2.83  40 2.91   1 3.06
                            10 3.07  27 3.08
  33  0.549  0.039  0.196- 108 1.72 107 1.75  55 1.83  73 1.87 105 2.19  32 2.83  29 2.89  10 2.94
                            54 3.13
  34  0.457  0.561  0.669- 120 1.54  63 1.61  78 1.68  67 1.92  77 2.46  52 3.02  28 3.04  16 3.07
                            14 3.07   9 3.13
  35  0.348  0.387  0.284-  86 1.58 109 1.66 119 1.77  85 1.78  38 2.90  12 2.97  27 3.00  25 3.03
                            16 3.14
  36  0.104  0.033  0.303- 110 1.61  74 1.64 123 1.87  95 1.89  99 2.21  40 2.77  25 3.07
  37  0.456  0.246  0.872- 131 1.62 102 1.69  96 1.74  65 1.75  21 2.81  12 2.97  18 3.09
  38  0.104  0.378  0.232-  69 1.46 106 1.64  82 1.74  86 1.76   4 2.61   5 2.80  35 2.90  12 3.13

  39  0.859  0.945  0.230-  56 1.56  97 1.64  99 1.69  72 1.70  95 1.95  11 2.91  17 3.02  20 3.03
                            29 3.14
  40  0.238  0.879  0.179-  75 1.46  74 1.65  59 1.68 124 1.79  36 2.77  13 2.90  32 2.91  27 3.01
                            10 3.01
  41  0.150  0.529  0.004- 134 1.53  82 1.58 104 1.61 114 1.67  51 3.05  13 3.05
  42  0.011  0.243  0.924-  89 1.56  80 1.62 116 1.63 112 1.77  19 2.65   5 2.77   7 2.83  45 2.96

  43  0.245  0.864  0.470-  60 1.58 123 1.61 101 1.65 126 1.91   1 2.74  44 2.85
  44  0.142  0.874  0.692- 115 1.69  93 1.74  57 1.76 126 1.85  43 2.85   9 2.94  15 3.16
  45  0.958  0.244  0.675- 121 1.65  87 1.66 112 1.75  81 1.90  49 2.59   6 2.82   7 2.92  42 2.96
                             4 3.13
  46  0.818  0.952  0.835- 113 1.57 130 1.58 122 1.62  98 1.90  15 2.62  47 2.62  11 2.78  54 3.02

  47  0.669  0.877  0.684- 103 1.64  58 1.70  84 1.80  98 1.83 113 1.85  46 2.62  28 2.97  15 3.08
                            30 3.12
  48  0.733  0.542  0.563- 127 1.75  79 1.75  64 1.77  90 2.21 125 2.31  53 2.80  50 2.87  16 2.95
                             6 3.10
  49  0.825  0.162  0.516- 135 1.52  88 1.57  81 1.63  71 1.68  45 2.59  29 2.94  17 3.10
  50  0.967  0.618  0.538-  66 1.52  90 1.58 125 1.60 132 1.75  48 2.87   6 2.99  15 3.04  23 3.04
                            22 3.06
  51  0.897  0.588  0.965- 129 1.57  68 1.62 100 1.67 114 1.71   5 2.79   6 2.91  41 3.05  13 3.12

[...]

  55  0.402  0.091  0.183-  33 1.83  25 2.23
  56  0.750  0.920  0.305-  39 1.56  29 1.82  20 2.00
  57  0.000  0.880  0.638-  44 1.76  23 2.00  15 2.18
  58  0.553  0.790  0.700-  28 1.59  47 1.70   1 2.51
  59  0.141  0.775  0.203-  40 1.68   2 2.29  13 2.31  27 2.34
  60  0.296  0.965  0.544-  43 1.58   3 2.28
  61  0.528  0.729  0.336-  32 1.64   1 2.22  20 2.28  16 2.36
  62  0.706  0.329  0.271-  53 1.61  17 2.05  24 2.28   8 2.39
  63  0.421  0.638  0.560-  34 1.61   1 2.15  16 2.37  22 2.44
  64  0.682  0.422  0.485-  48 1.77  53 1.80   8 2.14  16 2.42
  65  0.367  0.289  0.759-  37 1.75  52 1.77   7 2.20
  66  0.031  0.676  0.440-  50 1.52   2 2.21
  67  0.328  0.459  0.654-  52 1.88  34 1.92
  68  0.898  0.570  0.103-  51 1.62   5 2.19   2 2.31
  69  0.006  0.302  0.212-  38 1.46   5 2.04  17 2.42
  70  0.567  0.077  0.502-  30 1.76  29 1.82   8 2.48
  71  0.707  0.193  0.594-  49 1.68  30 1.70
  72  0.801  0.036  0.130-  54 1.63  39 1.70  17 2.42
  73  0.564  0.889  0.141-  32 1.80  33 1.87  10 2.31
  74  0.213  0.014  0.215-  36 1.64  40 1.65
  75  0.345  0.814  0.191-  40 1.46  32 1.58  27 2.34
  76  0.605  0.538  0.014-  31 1.61  26 2.13  14 2.18  24 2.49
  77  0.486  0.390  0.547-  52 1.59   8 2.23  16 2.39  34 2.46
  78  0.418  0.654  0.772-  28 1.65  34 1.68   9 2.34
  79  0.748  0.537  0.713-  48 1.75   6 2.12  14 2.14
  80  0.910  0.181  0.999-  42 1.62  54 2.11   5 2.56
  81  0.947  0.120  0.569-  49 1.63  45 1.90
  82  0.143  0.432  0.098-  41 1.58  38 1.74  12 2.45
  83  0.290  0.271  0.509-  52 1.74   3 2.17  25 2.42
  84  0.684  0.877  0.529-  47 1.80  29 1.95
  85  0.466  0.291  0.302-  35 1.78   8 2.03  25 2.41  24 2.55
  86  0.236  0.312  0.269-  35 1.58  38 1.76  12 2.53
  87  0.835  0.315  0.692-  45 1.66   6 2.15  18 2.18
  88  0.871  0.270  0.450-  49 1.57  17 2.48   4 2.52
  89  0.989  0.374  0.908-  42 1.56   5 2.29   6 2.38
  90  0.856  0.686  0.576-  50 1.58  48 2.21  15 2.21  23 2.41
  91  0.346  0.886  0.818-  28 1.78  21 2.16  10 2.42
  92  0.612  0.524  0.253-  31 1.60  53 2.04  16 2.14  24 2.46
  93  0.190  1.000  0.758-  44 1.74  21 2.54
  94  0.840  0.525  0.276-  53 1.69   2 2.36
  95  0.012  0.989  0.177-  36 1.89  39 1.95  19 2.53
  96  0.365  0.138  0.920-  37 1.74  21 2.32  12 2.50
  97  0.881  0.814  0.183-  39 1.64  11 2.32   2 2.38
  98  0.737  0.812  0.810-  47 1.83  46 1.90  15 2.12
  99  0.927  0.985  0.351-  39 1.69  23 2.15  36 2.21
 100  0.912  0.722  0.916-  51 1.67  15 2.05  13 2.34
 101  0.312  0.747  0.424-  43 1.65   1 2.17  22 2.31  27 2.50
 102  0.488  0.356  0.962-  37 1.69  24 2.18  26 2.30
 103  0.585  0.989  0.698-  47 1.64  30 1.74  21 2.30
 104  0.218  0.495  0.888-  41 1.61   9 2.26   7 2.53
 105  0.494  0.936  0.343-  32 1.90  33 2.19  29 2.25   1 2.39
 106  0.132  0.485  0.320-  38 1.64   4 2.41  27 2.56
 107  0.607  0.067  0.060-  54 1.74  33 1.75
 108  0.625  0.101  0.307-  33 1.72  29 1.80   8 2.52
 109  0.343  0.497  0.375-  35 1.66  16 2.24  22 2.27  27 2.31
 110  0.128  0.137  0.391-  36 1.61   3 2.27   4 2.48  25 2.49
 111  0.493  0.658  0.158-  31 1.66  32 2.05  26 2.53
 112  0.035  0.180  0.787-  45 1.75  42 1.77   7 2.34
 113  0.781  0.987  0.710-  46 1.57  47 1.85
 114  0.040  0.582  0.928-  41 1.67  51 1.71  13 2.56
[...]
 121  0.047  0.340  0.620-  45 1.65   4 2.00   7 2.31
 122  0.726  0.015  0.918-  46 1.62  54 1.70  11 2.50
 123  0.131  0.915  0.410-  43 1.61  36 1.87
 124  0.228  0.897  0.026-  40 1.79  13 2.22  10 2.33  19 2.39
 125  0.915  0.497  0.498-  50 1.60  48 2.31
 126  0.173  0.765  0.580-  44 1.85  43 1.91  22 2.35
 127  0.663  0.651  0.486-  48 1.75  20 2.16  16 2.20
 128  0.497  0.779  0.930-  28 1.55  10 2.13
 129  0.793  0.507  0.933-  51 1.57  14 2.33
 130  0.948  0.962  0.872-  46 1.58  19 2.12
 131  0.560  0.185  0.802-  37 1.62  30 1.99  18 2.30  21 2.52
 132  0.057  0.580  0.652-  50 1.75   6 2.32   9 2.37
 133  0.694  0.704  0.154-  31 1.51  11 2.19  20 2.29
 134  0.212  0.632  0.057-  41 1.53  27 2.32  13 2.39
 135  0.778  0.057  0.454-  49 1.52  29 1.57

IMPORTANT INFORMATION: All symmetrisations will be switched off!
NOSYMM: (Re-)initialisation of all symmetry stuff for point group C_1.

Automatic generation of k-mesh.
 generate k-points for:    2    2    2
Space group operators:
 irot       det(A)        alpha          n_x          n_y          n_z        tau_x        tau_y        tau_z
    1     1.000000     0.000001     1.000000     0.000000     0.000000     0.000000     0.000000     0.000000

 Subroutine IBZKPT returns following result:

[...]
     0.000000000  0.000000000 11.628173330     0.000000000  0.000000000  0.085998030

  length of vectors
    11.628173330 11.628173330 11.628173330     0.085998030  0.085998030  0.085998030

 FORCES acting on ions
    electron-ion (+dipol)            ewald-force                    non-local-force                 convergence-correction
   0.351E+02 -.192E+03 -.173E+03   -.334E+02 0.188E+03 0.170E+03   0.419E+00 0.502E+01 0.435E+01   0.520E-03 -.248E-04 0.698E-05
   -.137E+02 0.116E+02 -.283E+02   0.115E+02 -.106E+02 0.291E+02   0.160E+01 -.956E+00 -.897E+00   -.190E-03 0.383E-03 -.120E-03
   0.878E+02 0.713E+02 -.136E+03   -.875E+02 -.765E+02 0.133E+03   -.181E+01 0.263E+01 0.377E+01   -.492E-03 -.832E-04 0.103E-02
   0.214E+02 0.366E+01 0.609E+02   -.250E+02 -.404E+01 -.583E+02   0.250E+01 0.142E+00 -.388E+01   -.509E-03 -.675E-04 0.660E-03
   0.101E+03 0.662E+02 -.106E+02   -.101E+03 -.613E+02 0.828E+01   -.259E+01 -.318E+01 0.654E+00   -.516E-03 -.187E-03 -.546E-03
   -.592E+02 0.116E+02 -.207E+02   0.594E+02 -.119E+02 0.186E+02   0.184E+01 0.121E+01 0.220E+01   0.729E-04 0.309E-04 0.253E-03
   -.305E+02 0.379E+02 -.630E+02   0.341E+02 -.322E+02 0.643E+02   -.206E+01 -.292E+01 -.974E-01   -.302E-04 -.270E-03 0.233E-03
   -.201E+02 0.788E+02 -.394E+02   0.171E+02 -.808E+02 0.405E+02   0.337E+01 -.967E+00 0.393E+00   0.435E-03 0.346E-04 0.154E-03
   -.614E+02 0.942E+01 -.375E+02   0.573E+02 -.872E+01 0.396E+02   0.364E+01 -.173E+01 -.225E+01   -.421E-03 -.144E-03 0.660E-04
   0.375E+02 -.153E+03 0.726E+02   -.398E+02 0.151E+03 -.749E+02   0.933E+00 0.299E+01 0.167E+01   0.292E-03 0.444E-03 0.876E-04
   0.745E+01 -.254E+02 0.132E+03   -.848E+01 0.209E+02 -.126E+03   0.213E+00 0.334E+01 -.535E+01   0.180E-03 0.246E-03 -.960E-05
   -.466E+02 0.152E+03 0.568E+02   0.463E+02 -.155E+03 -.582E+02   0.167E+01 0.154E+01 0.128E+01   0.700E-04 -.104E-03 -.711E-03
   0.389E+02 -.974E+02 0.331E+02   -.343E+02 0.956E+02 -.349E+02   -.446E+01 0.117E+01 0.774E+00   -.540E-03 -.200E-05 -.637E-03
   0.157E+02 -.700E+02 0.752E+01   -.150E+02 0.647E+02 -.724E+01   -.947E+00 0.554E+01 -.535E-01   0.456E-03 -.199E-03 0.624E-04
   -.467E+02 0.565E+01 0.519E+01   0.520E+02 -.561E+01 -.588E+01   -.168E+01 -.963E+00 -.746E+00   -.911E-05 -.980E-04 0.340E-03
   0.235E+02 0.586E+02 -.490E+02   -.274E+02 -.542E+02 0.492E+02   0.139E+01 -.340E+01 0.150E+00   0.587E-03 -.772E-04 -.725E-04
   -.147E+03 0.242E+02 0.526E+02   0.146E+03 -.248E+02 -.476E+02   0.217E+01 -.154E+01 -.355E+01   -.291E-03 -.287E-03 -.211E-03
   0.162E+02 0.448E+02 -.805E+00   -.171E+02 -.454E+02 0.972E+00   0.726E-01 0.166E+01 0.989E-01   0.107E-03 -.186E-03 0.143E-03
   -.842E+02 -.331E+02 0.102E+02   0.860E+02 0.315E+02 -.878E+01   0.457E-01 0.496E+00 -.664E+00   -.422E-03 0.846E-04 -.656E-03
   -.161E+03 0.955E+02 -.301E+02   0.155E+03 -.983E+02 0.263E+02   0.535E+01 -.809E+00 0.279E+01   -.181E-03 0.897E-04 -.881E-04
   0.995E+02 0.495E+02 -.496E+02   -.104E+03 -.541E+02 0.534E+02   0.190E+01 0.310E+01 -.289E+01   -.226E-03 0.270E-03 0.285E-04
   0.124E+03 0.107E+03 -.637E+02   -.121E+03 -.104E+03 0.643E+02   -.305E+01 -.247E+01 0.240E-01   -.296E-04 0.134E-03 0.348E-03
   -.696E+02 -.164E+02 0.346E+01   0.747E+02 0.203E+02 -.137E+01   -.473E+01 -.317E+01 -.271E+01   -.316E-03 0.229E-03 0.343E-03
   -.355E+02 0.172E+03 0.838E+02   0.337E+02 -.172E+03 -.843E+02   0.135E+01 -.702E+00 0.937E+00   0.228E-03 -.702E-04 -.263E-03
   0.248E+02 0.102E+03 -.322E+01   -.225E+02 -.101E+03 -.140E+01   -.127E+01 -.127E+01 0.399E+01   0.381E-03 0.866E-04 0.116E-04
   0.150E+03 -.610E+02 0.161E+03   -.149E+03 0.604E+02 -.158E+03   -.289E+01 0.195E+01 -.395E+01   0.228E-03 -.387E-03 -.735E-04
   0.607E+02 0.154E+02 0.378E+02   -.595E+02 -.147E+02 -.408E+02   -.406E+00 -.843E+00 0.194E+01   0.180E-03 0.205E-03 -.247E-03
   0.435E+02 -.574E+02 0.107E+02   -.434E+02 0.570E+02 -.161E+01   -.581E+01 0.261E+01 -.807E+01   0.460E-04 0.104E-03 0.425E-04
   0.672E+02 0.438E+02 -.172E+01   -.622E+02 -.322E+02 0.555E+01   -.926E+01 -.108E+02 -.332E+01   0.193E-03 0.590E-04 -.258E-04
   -.557E+02 -.170E+02 -.883E+02   0.526E+02 0.148E+02 0.770E+02   0.539E+01 0.371E+00 0.862E+01   0.156E-03 0.118E-03 0.108E-03
   -.607E+02 0.414E+02 0.624E+02   0.581E+02 -.299E+02 -.603E+02   -.137E+01 -.980E+01 -.216E+01   0.113E-03 0.418E-04 0.372E-04
   0.230E+02 -.516E+02 0.361E+02   -.180E+02 0.482E+02 -.319E+02   0.238E+01 0.195E+01 -.321E+01   0.259E-03 -.259E-04 -.109E-05
   0.373E+02 -.437E+02 0.283E+02   -.388E+02 0.476E+02 -.319E+02   -.794E+00 -.382E+01 0.249E+01   0.285E-03 -.267E-04 -.803E-04
   -.311E+02 0.173E+02 0.651E+00   0.308E+02 -.187E+02 0.371E+01   -.478E+01 -.113E+01 -.527E+01   0.649E-04 -.196E-03 -.131E-03
   0.132E+01 0.363E+02 0.226E+01   0.336E+00 -.328E+02 -.277E+01   0.481E+01 -.604E+00 0.129E+00   0.269E-03 0.950E-04 -.827E-04
   0.449E+02 -.302E+02 0.231E+02   -.411E+02 0.319E+02 -.227E+02   -.932E+01 -.630E+01 -.302E+00   -.274E-03 -.525E-04 -.126E-03
   -.426E+00 -.846E+01 -.622E+02   -.899E+00 0.540E+01 0.616E+02   -.145E+01 0.315E+01 0.116E+01   0.891E-04 0.167E-04 -.221E-04
   0.830E+01 0.170E+02 -.769E+01   -.143E+02 -.167E+02 0.899E+01   0.145E+02 0.591E+01 -.224E+01   -.118E-03 -.456E-04 -.179E-03
   -.727E+02 -.441E+02 0.642E+02   0.757E+02 0.373E+02 -.575E+02   0.495E+01 0.753E+01 -.750E+01   -.221E-03 0.137E-03 -.252E-03
   0.337E+02 -.850E+02 -.152E+02   -.348E+02 0.796E+02 0.953E+01   -.918E+01 0.849E+01 0.224E+00   -.902E-04 -.531E-04 -.101E-03
   0.121E+02 0.404E+02 0.285E+01   -.417E+01 -.327E+02 -.606E+01   -.871E+01 -.744E+01 -.129E+01   -.119E-03 -.301E-04 -.250E-03
   0.549E+01 0.548E+02 0.422E+02   -.593E+01 -.492E+02 -.353E+02   0.371E+00 -.738E+01 -.668E+01   -.834E-04 -.131E-03 -.223E-03
   0.261E+01 -.335E+02 0.165E+02   -.496E+01 0.354E+02 -.149E+02   -.152E+01 -.617E+01 -.245E+00   -.124E-03 -.181E-03 0.117E-03
   -.410E+02 -.711E+02 0.162E+02   0.350E+02 0.697E+02 -.804E+01   0.328E+01 0.107E+01 -.593E+01   -.228E-03 0.118E-03 0.201E-03
   0.193E+02 0.925E+02 -.311E+02   -.204E+02 -.856E+02 0.295E+02   0.168E+00 -.899E+01 -.631E-02   0.140E-03 -.173E-03 0.246E-03
   -.294E+02 -.448E+02 -.265E+02   0.333E+02 0.537E+02 0.227E+02   -.390E+01 -.720E+01 0.360E+01   0.992E-04 0.156E-03 0.919E-04
   -.347E+02 0.380E+02 -.939E+01   0.281E+02 -.300E+02 0.939E+01   0.703E+01 -.531E+01 -.161E+01   0.263E-03 0.195E-03 -.608E-04
   -.245E+02 0.285E+02 -.340E+02   0.203E+02 -.235E+02 0.344E+02   0.612E+01 -.219E+01 -.171E+00   0.794E-04 -.552E-04 -.582E-04
   -.330E+02 -.243E+02 -.604E+02   0.359E+02 0.239E+02 0.533E+02   -.286E+01 0.206E+01 0.927E+01   -.179E-03 -.143E-03 0.109E-03
   -.240E+02 0.187E+02 -.110E+02   0.228E+02 -.192E+02 0.400E+01   0.304E+01 -.220E+01 0.993E+01   -.182E-03 -.429E-04 0.225E-03
   0.187E+02 -.105E+02 0.161E+02   -.206E+02 0.107E+02 -.985E+01   0.434E+01 0.306E+01 -.414E+01   0.537E-04 0.835E-04 -.164E-03
   0.452E+02 0.137E+02 -.359E+02   -.390E+02 -.748E+01 0.295E+02   -.678E+01 -.421E+01 0.686E+01   0.172E-03 0.657E-05 0.245E-03
   -.841E+02 -.212E+02 -.383E+02   0.893E+02 0.214E+02 0.283E+02   -.262E+01 0.301E+01 0.734E+01   0.308E-04 0.880E-04 0.157E-03
   -.427E+02 -.310E+02 0.577E+02   0.326E+02 0.320E+02 -.555E+02   0.788E+01 -.264E+01 -.315E+01   0.969E-04 -.103E-03 -.499E-04
   0.475E+02 -.466E+02 0.118E+03   -.655E+02 0.511E+02 -.123E+03   0.223E+02 -.550E+01 0.500E+01   0.328E-03 -.422E-04 -.293E-03
   0.310E+02 -.405E+02 0.389E+02   -.431E+02 0.332E+02 -.375E+02   0.597E+01 0.833E+01 0.156E+01   -.482E-03 0.473E-03 -.212E-04
   -.660E+02 -.147E+03 -.407E+02   0.540E+02 0.152E+03 0.371E+02   0.148E+02 -.407E+01 0.537E+01   0.281E-03 0.499E-03 0.411E-03
   0.247E+01 0.150E+02 0.233E+01   -.212E+01 -.284E+02 -.209E+02   0.202E+01 0.132E+02 0.167E+02   0.499E-03 0.928E-04 -.491E-04
   0.670E+02 -.452E+02 -.621E+02   -.824E+02 0.325E+02 0.672E+02   0.159E+02 0.140E+02 -.410E+01   -.914E-04 0.666E-04 0.120E-04
   -.530E+02 -.361E+02 -.471E+02   0.649E+02 0.551E+02 0.647E+02   -.971E+01 -.178E+02 -.175E+02   -.186E-03 0.398E-05 0.330E-03
[...]
   0.555E+02 -.638E+02 0.656E+02   -.839E+02 0.634E+02 -.687E+02   0.300E+02 0.740E+00 0.326E+01   -.118E-04 0.408E-04 0.211E-03
   0.394E+02 -.122E+02 0.822E+01   -.640E+02 0.949E+01 -.862E+01   0.243E+02 0.401E+01 -.195E+01   -.731E-04 -.356E-04 -.210E-04
   -.347E+02 -.760E+02 0.980E+02   0.374E+02 0.770E+02 -.119E+03   -.270E+01 -.482E+00 0.240E+02   -.859E-04 0.251E-03 -.271E-03
   0.197E+02 0.952E+02 0.667E+02   -.247E+02 -.122E+03 -.795E+02   0.213E+01 0.249E+02 0.137E+02   -.110E-02 -.325E-03 0.209E-03
   -.104E+01 -.518E+02 -.368E+02   -.847E+01 0.352E+02 0.326E+02   0.120E+02 0.205E+02 0.589E+01   -.208E-03 0.333E-03 0.334E-03
   -.618E+02 -.478E+01 -.124E+03   0.538E+02 0.238E+02 0.119E+03   0.933E+01 -.230E+02 0.846E+01   0.636E-03 -.630E-03 0.598E-03
   -.311E+02 0.109E+02 -.527E+02   0.389E+02 -.155E+02 0.845E+02   -.461E+01 0.298E+01 -.300E+02   0.435E-03 -.101E-03 0.270E-03
   0.568E+02 0.839E+02 -.775E+01   -.815E+02 -.101E+03 0.776E+01   0.249E+02 0.159E+02 -.274E+01   -.218E-03 -.310E-03 -.190E-03
   -.469E+02 -.624E+02 0.212E+02   0.754E+02 0.650E+02 -.192E+02   -.299E+02 -.411E+01 -.176E+01   0.412E-03 -.512E-04 -.468E-04
   -.858E+02 0.237E+02 -.785E+02   0.103E+03 -.359E+02 0.770E+02   -.144E+02 0.120E+02 0.645E+00   0.228E-03 0.557E-04 -.462E-04
   -.486E+02 0.419E+02 -.355E+02   0.605E+02 -.465E+02 0.488E+02   -.130E+02 0.521E+01 -.144E+02   -.106E-04 -.642E-04 0.490E-03
   -.762E+02 0.433E+00 0.723E+02   0.940E+02 0.245E+02 -.665E+02   -.142E+02 -.224E+02 -.637E+01   0.340E-03 0.451E-03 -.840E-04
   -.783E+02 -.564E+02 0.438E+02   0.949E+02 0.832E+02 -.329E+02   -.149E+02 -.246E+02 -.949E+01   0.484E-04 0.206E-03 -.600E-04
   -.772E+02 -.208E+02 -.391E+02   0.913E+02 0.563E+01 0.322E+02   -.136E+02 0.142E+02 0.611E+01   -.190E-03 -.366E-03 -.167E-03
   -.705E+02 0.569E+02 -.136E+02   -.568E-12 -.281E-12 -.313E-12   0.705E+02 -.569E+02 0.136E+02   0.145E-02 0.994E-03 -.134E-03

 POSITION                                       TOTAL-FORCE (eV/Angst)
      5.47600      9.37895      5.82971         2.061484      0.996711      0.487178
     11.52617      7.64675      2.95818        -0.583535      0.055002     -0.081626
      2.21603      1.47661      6.68863        -1.511546     -2.558233      0.622179
      0.90358      3.89721      5.24819        -1.093639     -0.234531     -1.247612
     10.58695      4.44721      1.03082        -2.871246      1.727645     -1.683217
     10.65251      5.49628      8.64645         2.064679      0.912782      0.118857
      2.09109      3.70043      8.91099         1.501333      2.791088      1.133029
      6.80166      3.21697      4.98033         0.415017     -3.039656      1.536756
      2.52766      7.46765      8.85082        -0.452133     -1.024397     -0.142651
      4.93527     10.80039      0.07046        -1.307599      1.622861     -0.698740
      8.73498      9.71327      0.37795        -0.809500     -1.112266      1.271392
      3.33318      3.27843      0.69007         1.341837     -1.077401     -0.099679
      0.89716      9.08153      0.17308         0.102895     -0.652136     -1.005961
      7.51453      7.12155      9.83918        -0.218693      0.296651      0.222666
     10.46418      8.86499      8.65733         3.698114     -0.921088     -1.444252
      6.12694      6.29276      4.82432        -2.505153      0.952715      0.406041
      9.62089      2.35373      2.93826         1.500834     -2.173206      1.496543
      8.26808      3.59614      9.68327        -0.899252      1.003345      0.266162
      0.94822      0.37158     11.33734         1.796947     -1.130014      0.768574
      8.40393      8.76599      3.98780        -0.692283     -3.632489     -0.996604
      4.67831      0.55063      8.67663        -3.022336     -1.461911      0.937360
      2.63072      6.81761      5.84118         0.131321      0.072843      0.676821
     10.56067     10.10044      5.73516         0.313279      0.711486     -0.622667
      6.72969      4.16052      1.46225        -0.473642     -0.735893      0.493004
      3.95831      1.59429      4.16453         1.001057     -0.915211     -0.625528
      4.92637      6.30189     11.47865        -1.867478      1.328288     -0.404891
      3.23065      7.35793      2.85814         0.795544     -0.105872     -1.065935
      5.36429      9.13245      9.32128        -5.728181      2.200611      0.973377
      7.73491     11.57211      4.79045        -4.186508      0.817907      0.510122
      6.80930      1.48806      7.47635         2.290051     -1.802247     -2.635284
      7.21498      6.96325      1.59862        -3.918166      1.715348     -0.058941
      5.48361      9.45259      2.77107         7.441982     -1.470119      0.973212
      6.38728      0.45922      2.28096        -2.363647      0.080441     -1.155423
      5.31546      6.51771      7.77817        -5.093118     -2.584814     -0.916473
      4.04675      4.49990      3.29910         6.463917      2.911089     -0.384856
      1.21489      0.38258      3.52316        -5.582976     -4.579069      0.117419
      5.30287      2.86411     10.13888        -2.774833      0.081957      0.593505
      1.20968      4.39176      2.69876         8.486916      6.176643     -0.941216
      9.98437     10.99194      2.67346         7.892162      0.678901     -0.841428
      2.76260     10.22305      2.07933       -10.327544      3.126838     -5.480729
      1.74284      6.15208      0.04227        -0.740373      0.268037     -4.491398
      0.12334      2.82227     10.74659        -0.068534     -1.721733      0.247618
      2.84457     10.04635      5.46161        -3.881221     -4.314946      1.407671
      1.65208     10.16285      8.04957        -2.742516     -0.375807      2.272859
     11.13756      2.83789      7.84831        -0.898756     -2.173436     -1.619625
      9.51599     11.07166      9.70554         0.033238      1.666229     -0.170370
      7.77860     10.19249      7.94843         0.421799      2.717235     -1.608566
      8.52862      6.30468      6.54086         1.900839      2.757749      0.244917
      9.58877      1.88281      6.00555         0.018321      1.631436      2.174044
     11.24737      7.18261      6.25326         1.880644     -2.762600      2.968559
     10.43570      6.83372     11.21744         2.411933      3.255909      2.078725
      4.52753      3.68450      7.10141        -0.641744      2.016082      0.461442
      8.60108      5.15969      3.98650         2.496040      3.171337     -2.673218
      8.67170      1.28959      0.30714        -2.236647     -1.626191     -0.959611
      4.66899      1.05586      2.12378         4.283794     -1.043718     -0.363163
      8.72277     10.69252      3.54140        -6.110580      0.997891      2.972805
      0.00535     10.22786      7.42258         2.856458      0.925372      1.799186
      6.42753      9.18403      8.14125         2.371486     -0.314274     -1.923934
      1.64278      9.00690      2.35849         0.546141      1.314175      1.017852
      3.43882     11.21802      6.33154         2.221966      1.173494      0.133903
[...]
      0.55051      3.95152      7.21489         0.347785     -1.700705      3.201766
      8.43982      0.17778     10.67208         1.655435      0.389268      0.208311
      1.52612     10.64409      4.76321        -0.214930      1.267126     -2.353675
      2.65010     10.43113      0.30561        -0.021224      0.507880      2.869441
     10.64526      5.77508      5.79387        -2.853268     -1.651604      0.885431
      2.01696      8.90094      6.74348         2.477988      3.932642      1.669240
      7.71346      7.57288      5.65144         1.385157     -4.066228      3.103192
      5.77858      9.05659     10.80981         3.186388     -1.587035      1.779266
      9.22380      5.90030     10.85304         0.217669     -1.443336     -2.728180
     11.02760     11.18961     10.13591        -1.441322     -1.524203      0.297674
      6.50831      2.15664      9.32609         2.342311     -0.207291     -0.826922
      0.66556      6.73915      7.58358        -1.075997      0.575570     -1.086310
      8.07450      8.18386      1.79443         3.696019      2.619938     -0.538116
      2.46371      7.34804      0.66619         1.742562      2.207698      1.467874
      9.04458      0.66460      5.28276         0.475772     -0.986151     -0.824045
    total drift:                                0.006944     -0.017974     -0.003949

  FREE ENERGIE OF THE ION-ELECTRON SYSTEM (eV)
  free  energy   TOTEN  =      -930.86568255 eV

  energy  without entropy=     -930.86568255  energy(sigma->0) =     -930.86568255