 vasp.5.4.4.18Apr17-6-g9f103f2a35 (build Oct 31 2019 15:01:46) complex

 executed on             LinuxIFC date 2024.04.29  11:12:15

 INCAR:
 POTCAR:    PAW_PBE Ca_sv 06Sep2000
 POTCAR:    PAW_PBE Si 05Jan2001
 POTCAR:    PAW_PBE O 08Apr2002
 POTCAR:    PAW_PBE Ca_sv 06Sep2000
   VRHFIN =Ca: 3s3p4s

   TITEL  = PAW_PBE Ca_sv 06Sep2000
   POMASS =   40.078; ZVAL   =   10.000    mass and valenz
   ENMAX  =  266.622; ENMIN  =  199.967 eV

   TITEL  = PAW_PBE Si 05Jan2001
   POMASS =   28.085; ZVAL   =    4.000    mass and valenz
   ENMAX  =  245.345; ENMIN  =  184.009 eV

   TITEL  = PAW_PBE O 08Apr2002
   POMASS =   16.000; ZVAL   =    6.000    mass and valenz
   ENMAX  =  400.000; ENMIN  =  300.000 eV

 Optimization of the real space projectors (new method)

 maximal supplied QI-value         = 16.25
 optimisation between [QCUT,QGAM] = [ 12.51, 25.03] = [ 43.85,175.40] Ry
 Optimized for a Real-space Cutoff    1.47 Angstroem

   l    n(q)    QCUT    max X(q) W(low)/X(q) W(high)/X(q)  e(spline)
   0     11    12.514    11.817    0.25E-04    0.32E-05    0.87E-07
   0     11    12.514     8.461    0.39E-04    0.59E-05    0.18E-06
   1     11    12.514     3.957    0.97E-05    0.57E-05    0.28E-07
   1     11    12.514     4.314    0.42E-04    0.14E-04    0.23E-06
   2     10    12.514    14.565    0.79E-04    0.50E-03    0.16E-05
   2     10    12.514    14.552    0.75E-04    0.48E-03    0.15E-05
 Optimization of the real space projectors (new method)

[...]

   l    n(q)    QCUT    max X(q) W(low)/X(q) W(high)/X(q)  e(spline)
   0      9    12.501   159.560    0.10E-03    0.83E-04    0.71E-07
   0      9    12.501   115.863    0.99E-04    0.81E-04    0.70E-07
   1      8    12.501    88.339    0.20E-03    0.25E-03    0.76E-07
   1      8    12.501    48.592    0.20E-03    0.24E-03    0.75E-07
 Optimization of the real space projectors (new method)

 maximal supplied QI-value         = 24.76
 optimisation between [QCUT,QGAM] = [ 12.38, 25.00] = [ 42.90,175.06] Ry
 Optimized for a Real-space Cutoff    1.16 Angstroem

   l    n(q)    QCUT    max X(q) W(low)/X(q) W(high)/X(q)  e(spline)
   0      9    12.378    20.381    0.16E-03    0.67E-05    0.31E-06
   0      9    12.378    15.268    0.17E-03    0.81E-05    0.33E-06
   1      8    12.378     5.964    0.20E-03    0.16E-03    0.30E-06
   1      8    12.378     5.382    0.18E-03    0.14E-03    0.26E-06
  PAW_PBE Ca_sv 06Sep2000               :
  PAW_PBE Si 05Jan2001                  :
  PAW_PBE O 08Apr2002                   :

 POSCAR: Ca Si  O
  positions in direct lattice
 exchange correlation table for  LEXCH =        8
   RHO(1)=    0.500       N(1)  =     2000
   RHO(2)=  100.500       N(2)  =     4000

 ion  position               nearest neighbor table
   1  0.029  0.592  0.705-  69 1.96 126 2.18  29 3.04
   2  0.362  0.026  0.882-  81 2.09
   3  0.414  0.614  0.589-  80 2.26  56 2.31 134 2.36  37 3.02  51 3.13
   4  0.809  0.011  0.248- 111 2.31  47 2.89
   5  0.259  0.750  0.286- 112 1.88  57 2.26  83 2.45  87 2.47  44 2.98
   6  0.642  0.665  0.376-  63 2.39  84 2.43 107 2.45  44 2.98
   7  0.590  0.310  0.887-  79 2.24  71 2.27  97 2.54
   8  0.072  0.979  0.219- 111 2.36  76 2.40
   9  0.475  0.275  0.144-  97 2.24  65 2.31
  10  0.706  0.773  0.707- 127 2.14 123 2.20 103 2.48  54 2.83  38 2.96  33 3.13
  11  0.260  0.971  0.514- 105 2.36  94 2.55  86 2.56
  12  0.105  0.430  0.905-  88 2.27  74 2.27  82 2.36
  13  0.657  0.071  0.669- 131 2.18 132 2.21  98 2.55  28 3.02  38 3.07
  14  0.896  0.092  0.962- 122 1.89  61 1.90  66 2.17  17 2.92
  15  0.676  0.522  0.644- 134 2.32  73 2.32 124 2.42 121 2.42 107 2.48
  16  0.449  0.572  0.098-  75 2.00 125 2.15
  17  0.874  0.256  0.817-  62 1.97  71 2.04  74 2.37 122 2.57  36 2.84  14 2.92
  18  0.746  0.311  0.356-  96 2.07  77 2.18 104 2.46  32 2.97
  19  0.493  0.147  0.402- 105 2.19  68 2.28
  20  0.021  0.693  0.190-  85 1.87  87 2.32  95 2.33  67 2.33 102 2.44  53 2.52  47 2.81  21 3.09

  21  0.105  0.531  0.333-  87 2.08 102 2.12  70 2.37 106 2.39  35 2.69  20 3.09
  22  0.382  0.288  0.575-  58 2.14  98 2.31  24 3.02  28 3.09
  23  0.882  0.313  0.130-  77 2.33 119 2.36 130 2.44
  24  0.185  0.243  0.472- 113 1.95  94 2.42  52 2.94  22 3.02
  25  0.916  0.141  0.584-  62 2.57
  26  0.096  0.931  0.866-  64 2.40  60 2.43 133 2.52  43 3.12  42 3.13
  27  0.577  0.849  0.973- 101 2.16 109 2.28
  28  0.611  0.286  0.611- 104 1.42  98 1.61  79 1.69  73 1.69  13 3.02  39 3.04  22 3.09
  29  0.926  0.413  0.610- 129 1.62  69 1.71 121 1.75  62 2.05   1 3.04
  30  0.245  0.388  0.137- 106 1.54  75 1.72  88 1.76  65 2.35
  31  0.276  0.139  0.204-  99 1.54  76 1.67  65 1.72 100 1.84  49 2.98
  32  0.663  0.462  0.213- 125 1.54  96 1.84  63 1.90 119 2.13  18 2.97
  33  0.482  0.843  0.691- 123 1.59 118 1.62 131 1.78  78 1.82  91 2.48  46 2.60  10 3.13
  34  0.705  0.567  0.962-  59 1.49 116 1.56 128 1.75  92 1.76  36 2.50 109 2.56  48 2.78
  35  0.066  0.676  0.468-  70 1.62  87 1.65 110 1.91  86 2.29  21 2.69
  36  0.837  0.449  0.898-  74 1.60  92 1.65 128 2.10  71 2.11  34 2.50  17 2.84
  37  0.314  0.594  0.792-  80 1.57  55 1.60  72 1.63  93 1.77  45 2.81  51 3.00   3 3.02
  38  0.828  0.949  0.765- 103 1.50 132 1.78 122 1.79  10 2.96  13 3.07
  39  0.535  0.425  0.447-  58 1.43 124 1.53  56 1.66  73 2.29  28 3.04
  40  0.537  0.014  0.203-  68 1.51 101 1.90 100 2.13
  41  0.125  0.133  0.699- 115 1.56 108 1.56  94 1.58  60 1.74  52 3.14
  42  0.084  0.715  0.957-  90 1.56  64 1.67  85 1.76 117 2.16  43 2.36  45 3.10  26 3.13
  43  0.194  0.820  0.047- 114 1.60 117 1.72 133 1.78 112 1.89  64 1.97  85 2.25  42 2.36  45 2.44
                            26 3.12
  44  0.472  0.804  0.331-  57 1.63  89 1.64  83 1.71  84 1.76  46 2.86   6 2.98   5 2.98
  45  0.305  0.770  0.910- 114 1.61  64 1.66  81 1.72  55 2.42  43 2.44  72 2.46 118 2.52  37 2.81
                            42 3.10
  46  0.564  0.866  0.515-  91 1.73 123 1.84  84 1.91  33 2.60  44 2.86
  47  0.839  0.799  0.213- 135 1.58 111 1.62  67 1.64  95 2.06  20 2.81   4 2.89  53 2.89
  48  0.545  0.628  0.842- 109 1.52 134 1.75  72 1.79  59 1.81  34 2.78
  49  0.118  0.204  0.059- 130 1.51  66 1.74  99 1.74  88 2.41  31 2.98
  50  0.624  0.097  0.989- 120 1.46  97 1.66  61 1.81 101 2.25
  51  0.234  0.752  0.652-  55 1.57 126 1.63  78 1.96  37 3.00   3 3.13
  52  0.161  0.362  0.656- 113 1.71 115 1.77  82 1.78  69 2.23  24 2.94  41 3.14
  53  0.871  0.585  0.228- 102 1.58  95 1.71 119 1.80  63 1.98  67 2.24  20 2.52  47 2.89
  54  0.839  0.707  0.555- 110 1.45 107 1.51 127 1.64  10 2.83
  55  0.260  0.693  0.752-  51 1.57  37 1.60  45 2.42
  56  0.457  0.522  0.449-  39 1.66   3 2.31
  57  0.366  0.855  0.367-  44 1.63   5 2.26
  58  0.470  0.340  0.451-  39 1.43  22 2.14
  59  0.619  0.530  0.900-  34 1.49  48 1.81
  60  0.032  0.055  0.748-  41 1.74  26 2.43
  61  0.758  0.120  0.989-  50 1.81  14 1.90
  62  0.849  0.297  0.677-  17 1.97  29 2.05  25 2.57
  63  0.722  0.589  0.235-  32 1.90  53 1.98   6 2.39
  64  0.180  0.777  0.906-  45 1.66  42 1.67  43 1.97  26 2.40
  65  0.324  0.258  0.227-  31 1.72   9 2.31  30 2.35
  66  0.045  0.159  0.961-  49 1.74  14 2.17
  67  0.860  0.717  0.123-  47 1.64  53 2.24  20 2.33
  68  0.586  0.092  0.270-  40 1.51  19 2.28
  69  0.020  0.446  0.690-  29 1.71   1 1.96  52 2.23
  70  0.144  0.587  0.498-  35 1.62  21 2.37
  71  0.746  0.340  0.827-  17 2.04  36 2.11   7 2.27
  72  0.412  0.629  0.857-  37 1.63  48 1.79  45 2.46
  73  0.554  0.400  0.616-  28 1.69  39 2.29  15 2.32
  74  0.939  0.389  0.916-  36 1.60  12 2.27  17 2.37
  75  0.351  0.462  0.126-  30 1.72  16 2.00
  76  0.189  0.099  0.285-  31 1.67   8 2.40
  77  0.829  0.208  0.260-  18 2.18  23 2.33
  78  0.369  0.802  0.624-  33 1.82  51 1.96
  79  0.648  0.274  0.732-  28 1.69   7 2.24
  80  0.353  0.516  0.714-  37 1.57   3 2.26
  81  0.297  0.886  0.853-  45 1.72   2 2.09
  82  0.199  0.443  0.756-  52 1.78  12 2.36
  83  0.428  0.771  0.215-  44 1.71   5 2.45
  84  0.591  0.840  0.377-  44 1.76  46 1.91   6 2.43
  85  0.108  0.678  0.081-  42 1.76  20 1.87  43 2.25
  86  0.126  0.834  0.501-  35 2.29  11 2.56
  87  0.096  0.687  0.348-  35 1.65  21 2.08  20 2.32   5 2.47
  88  0.211  0.353  0.014-  30 1.76  12 2.27  49 2.41
  89  0.452  0.725  0.423-  44 1.64
  90  0.010  0.743  0.870-  42 1.56
  91  0.486  0.965  0.550-  46 1.73  33 2.48
  92  0.780  0.468  0.006-  36 1.65  34 1.76
  93  0.225  0.595  0.891-  37 1.77
  94  0.145  0.107  0.585-  41 1.58  24 2.42  11 2.55
  95  0.889  0.686  0.305-  53 1.71  47 2.06  20 2.33
  96  0.641  0.328  0.242-  32 1.84  18 2.07
  97  0.590  0.203  0.045-  50 1.66   9 2.24   7 2.54
  98  0.525  0.203  0.625-  28 1.61  22 2.31  13 2.55
  99  0.232  0.154  0.098-  31 1.54  49 1.74
 100  0.401  0.091  0.172-  31 1.84  40 2.13
 101  0.602  0.961  0.088-  40 1.90  27 2.16  50 2.25
 102  0.972  0.525  0.246-  53 1.58  21 2.12  20 2.44
 103  0.788  0.874  0.839-  38 1.50  10 2.48
 104  0.655  0.283  0.515-  28 1.42  18 2.46
 105  0.336  0.114  0.441-  19 2.19  11 2.36
[...]
 121  0.846  0.513  0.580-  29 1.75  15 2.42
 122  0.861  0.063  0.827-  38 1.79  14 1.89  17 2.57
 123  0.562  0.783  0.625-  33 1.59  46 1.84  10 2.20
 124  0.637  0.473  0.473-  39 1.53  15 2.42
 125  0.574  0.479  0.142-  32 1.54  16 2.15
 126  0.115  0.726  0.666-  51 1.63   1 2.18
 127  0.856  0.725  0.675-  54 1.64  10 2.14
 128  0.782  0.592  0.858-  34 1.75  36 2.10
 129  0.996  0.371  0.520-  29 1.62
 130  0.046  0.234  0.142-  49 1.51  23 2.44
 131  0.553  0.953  0.716-  33 1.78  13 2.18
 132  0.799  0.991  0.641-  38 1.78  13 2.21
 133  0.222  0.944  0.007-  43 1.78  26 2.52
 134  0.542  0.610  0.711-  48 1.75  15 2.32   3 2.36
 135  0.725  0.825  0.227-  47 1.58

IMPORTANT INFORMATION: All symmetrisations will be switched off!
NOSYMM: (Re-)initialisation of all symmetry stuff for point group C_1.

Automatic generation of k-mesh.
 generate k-points for:    2    2    2
Space group operators:
 irot       det(A)        alpha          n_x          n_y          n_z        tau_x        tau_y        tau_z
    1     1.000000     0.000001     1.000000     0.000000     0.000000     0.000000     0.000000     0.000000

 Subroutine IBZKPT returns following result:

 Found      8 irreducible k-points:

 Following reciprocal coordinates:
            Coordinates               Weight
  0.000000  0.000000  0.000000      1.000000
  0.500000  0.000000  0.000000      1.000000
  0.000000  0.500000  0.000000      1.000000
  0.500000  0.500000  0.000000      1.000000
  0.000000  0.000000  0.500000      1.000000
  0.500000  0.000000  0.500000      1.000000
  0.000000  0.500000  0.500000      1.000000
  0.500000  0.500000  0.500000      1.000000

 Following cartesian coordinates:
            Coordinates               Weight
  0.000000  0.000000  0.000000      1.000000
  0.037563  0.000000  0.000000      1.000000
  0.000000  0.037563  0.000000      1.000000
  0.037563  0.037563  0.000000      1.000000
  0.000000  0.000000  0.037563      1.000000
  0.037563  0.000000  0.037563      1.000000
  0.000000  0.037563  0.037563      1.000000
  0.037563  0.037563  0.037563      1.000000

 SYSTEM =  unknown system
 POSCAR =  Ca Si  O

[...]
     0.000000000  0.000000000 13.310935620     0.000000000  0.000000000  0.075126199

  length of vectors
    13.310935620 13.310935620 13.310935620     0.075126199  0.075126199  0.075126199

 FORCES acting on ions
    electron-ion (+dipol)            ewald-force                    non-local-force                 convergence-correction
   0.836E+02 -.966E+02 -.488E+02   -.822E+02 0.995E+02 0.471E+02   -.176E+01 0.112E+01 0.213E+01   0.133E-02 0.172E-02 -.104E-02
   -.464E+02 -.412E+03 -.377E+02   0.432E+02 0.406E+03 0.360E+02   0.288E+01 0.615E+01 0.142E+01   -.228E-02 -.307E-02 0.255E-03
   0.170E+03 0.534E+02 0.207E+03   -.166E+03 -.578E+02 -.208E+03   -.281E+01 0.363E+01 -.762E+00   -.579E-03 0.150E-02 -.134E-02
   -.118E+02 -.135E+03 -.168E+03   0.104E+02 0.135E+03 0.168E+03   -.345E+00 0.977E+00 0.510E+00   0.105E-02 -.109E-02 0.199E-02
   -.882E+02 0.127E+03 -.128E+03   0.907E+02 -.120E+03 0.127E+03   -.107E+00 -.809E+01 0.305E+01   -.252E-03 0.155E-02 0.141E-02
   -.779E+01 -.488E+02 0.113E+03   0.102E+02 0.473E+02 -.113E+03   -.173E+01 0.575E+00 0.343E+00   -.898E-03 0.145E-02 0.215E-03
   0.367E+03 0.524E+02 -.144E+03   -.358E+03 -.523E+02 0.139E+03   -.734E+01 0.709E+00 0.383E+01   -.454E-02 0.837E-03 0.537E-02
   0.114E+03 -.227E+03 -.186E+03   -.108E+03 0.223E+03 0.185E+03   -.379E+01 0.266E+01 -.278E-01   0.597E-03 -.113E-02 0.158E-02
   0.651E+02 -.460E+02 0.809E+02   -.646E+02 0.436E+02 -.779E+02   -.295E+00 0.266E+01 -.172E+01   -.106E-02 -.153E-03 0.512E-03
   -.158E+03 -.164E+03 0.858E+00   0.159E+03 0.162E+03 0.213E+01   -.194E+01 0.119E+01 -.675E+00   -.368E-03 0.583E-03 -.118E-02
   0.136E+03 -.108E+02 0.255E+02   -.136E+03 0.146E+02 -.286E+02   0.737E-01 -.306E+01 0.229E+01   -.219E-02 -.271E-02 -.981E-03
   -.580E+02 0.696E+02 -.138E+03   0.628E+02 -.709E+02 0.137E+03   -.304E+01 0.162E+01 0.914E+00   0.181E-02 0.614E-03 0.117E-03
   -.528E+02 -.378E+02 0.114E+03   0.467E+02 0.348E+02 -.113E+03   0.336E+01 0.353E+01 -.665E+00   0.612E-03 -.572E-02 -.180E-02
   -.110E+03 0.157E+03 -.305E+03   0.110E+03 -.158E+03 0.303E+03   0.410E+01 -.954E+00 0.535E+01   0.171E-02 -.141E-02 0.876E-03
   -.120E+03 0.559E+02 -.754E+02   0.118E+03 -.583E+02 0.711E+02   0.249E+01 0.130E+01 0.358E+01   -.334E-03 0.361E-02 -.195E-02
   0.819E+02 -.871E+02 -.344E+02   -.800E+02 0.824E+02 0.382E+02   -.724E+00 0.655E+01 -.371E+01   -.878E-03 0.109E-02 0.358E-03
   -.169E+03 0.150E+03 -.713E+02   0.165E+03 -.146E+03 0.659E+02   0.530E+01 -.597E+01 0.586E+01   0.505E-02 -.237E-02 0.599E-04
   -.245E+03 0.138E+03 -.113E+03   0.243E+03 -.142E+03 0.110E+03   0.280E+01 0.328E+01 0.479E+01   0.651E-03 -.436E-03 -.895E-03
   -.106E+03 0.105E+03 0.596E+02   0.994E+02 -.107E+03 -.581E+02   0.509E+01 0.135E+01 -.275E+00   -.600E-03 -.153E-02 -.164E-02
   0.914E+01 -.226E+02 -.113E+01   -.950E+01 0.259E+02 0.217E+01   -.408E+00 -.399E+00 0.194E+01   0.858E-03 0.124E-02 0.128E-02
   -.179E+03 0.332E+03 -.458E+02   0.176E+03 -.334E+03 0.441E+02   0.377E+01 -.212E+01 0.166E+01   0.331E-03 0.170E-02 0.399E-03
   0.199E+03 0.733E+02 -.177E+03   -.191E+03 -.734E+02 0.175E+03   -.649E+01 0.139E+00 0.289E+01   -.301E-02 0.965E-03 -.117E-02
   -.870E+02 0.126E+03 -.626E+02   0.874E+02 -.126E+03 0.697E+02   -.226E+00 -.477E+00 -.587E+01   0.100E-02 -.408E-03 0.190E-02
   0.154E+03 0.103E+03 0.331E+03   -.154E+03 -.108E+03 -.330E+03   -.960E+00 -.107E+00 -.410E+01   -.745E-03 -.923E-03 -.483E-03
   0.156E+01 0.179E+03 0.389E+03   0.186E-01 -.177E+03 -.383E+03   -.766E+00 -.185E+01 -.457E+01   0.188E-02 -.243E-02 -.243E-02
   0.174E+03 -.198E+03 0.145E+03   -.170E+03 0.198E+03 -.144E+03   -.257E+01 0.334E+00 -.139E+01   0.223E-02 -.868E-03 0.128E-03
   -.412E+02 -.487E+02 -.197E+03   0.437E+02 0.484E+02 0.196E+03   -.197E+01 -.452E+00 0.344E+00   -.141E-02 -.580E-03 -.216E-03
   -.435E+02 0.613E+02 -.448E+02   0.395E+02 -.613E+02 0.369E+02   -.183E+01 0.330E+01 0.185E+02   -.478E-03 0.713E-03 -.305E-02
   0.550E+02 0.509E+02 0.515E+02   -.483E+02 -.482E+02 -.600E+02   -.823E+01 -.311E+01 0.756E+01   0.818E-03 0.469E-03 -.665E-03
   -.408E+02 0.284E+02 -.680E+00   0.323E+02 -.204E+02 0.497E+01   0.113E+02 -.790E+01 -.626E+01   -.768E-04 0.670E-04 0.157E-04
   -.480E+01 0.520E+02 -.570E+02   -.877E+00 -.470E+02 0.557E+02   0.882E+01 -.478E+01 0.621E+01   -.375E-03 -.525E-03 0.936E-05
   -.723E+01 0.313E+02 -.697E+02   -.114E+01 -.293E+02 0.614E+02   0.133E+02 -.133E+01 0.789E+01   -.907E-04 0.365E-03 0.355E-03
   0.508E+02 -.838E+02 0.239E+02   -.462E+02 0.849E+02 -.154E+02   -.690E+01 0.367E+01 -.602E+01   -.450E-03 -.114E-03 0.295E-03
   -.651E+02 -.188E+02 -.644E+02   0.577E+02 0.253E+02 0.672E+02   0.136E+02 -.313E+01 0.859E+00   -.381E-03 0.102E-02 0.484E-03
   0.572E+02 -.867E+02 -.693E+02   -.438E+02 0.803E+02 0.627E+02   -.123E+02 0.120E+02 0.716E+01   0.446E-03 0.129E-02 -.139E-03
   -.422E+02 -.569E+02 0.453E+02   0.413E+02 0.518E+02 -.371E+02   -.317E+01 0.562E+01 -.913E+01   0.917E-03 0.132E-02 0.615E-03
   0.181E+02 0.125E+03 -.472E+02   -.158E+02 -.129E+03 0.421E+02   -.509E+01 0.535E+00 0.772E+01   -.248E-03 0.576E-03 0.418E-04
   -.959E+02 0.149E+02 0.748E+02   0.873E+02 -.169E+02 -.642E+02   0.105E+02 0.989E+01 -.129E+02   0.400E-03 -.649E-03 -.570E-03
   0.116E+02 0.426E+00 0.160E+03   -.174E+02 0.282E+01 -.152E+03   0.663E+01 0.577E+01 -.469E+01   -.592E-03 0.104E-02 -.546E-03
   0.388E+02 0.997E+02 0.124E+02   -.343E+02 -.948E+02 -.398E+01   -.771E+01 -.820E+01 -.130E+02   -.236E-03 -.413E-03 0.379E-03
   0.287E+02 0.503E+02 -.915E+02   -.176E+02 -.529E+02 0.835E+02   -.109E+02 -.287E+01 0.942E+01   0.184E-03 -.634E-03 -.262E-03
   0.111E+03 0.136E+03 -.192E+02   -.117E+03 -.129E+03 0.116E+02   0.501E+01 -.702E+01 0.981E+01   0.535E-03 0.479E-03 0.783E-04
   -.289E+02 -.400E+02 -.861E+02   0.282E+02 0.496E+02 0.888E+02   -.221E+01 -.280E+01 0.331E+01   0.290E-03 0.540E-03 -.107E-03
   -.796E+02 -.695E+02 0.109E+03   0.671E+02 0.648E+02 -.105E+03   0.956E+01 0.473E+01 -.545E+01   -.677E-03 -.108E-03 0.649E-03
   -.146E+03 0.528E+02 -.332E+01   0.136E+03 -.418E+02 0.947E+01   0.936E+01 -.923E+01 -.102E+02   -.177E-03 0.100E-02 -.332E-03
   -.112E+03 -.771E+02 0.955E+02   0.112E+03 0.855E+02 -.934E+02   -.161E+01 -.667E+01 -.317E+01   -.127E-03 -.401E-03 -.400E-03
   0.386E+02 -.101E+03 -.187E+02   -.459E+02 0.997E+02 0.152E+02   0.662E+01 -.366E+01 0.421E+01   0.351E-03 0.194E-03 0.638E-03
   0.650E+02 0.764E+02 -.632E+02   -.555E+02 -.670E+02 0.587E+02   -.114E+02 -.134E+02 -.416E+00   -.586E-03 0.821E-03 0.294E-04
   -.656E+02 -.355E+01 0.520E+02   0.519E+02 0.292E+01 -.421E+02   0.155E+02 -.655E+00 -.134E+02   0.411E-03 -.380E-03 0.252E-03
   -.304E+02 0.126E+01 -.557E+02   0.226E+02 -.540E+00 0.483E+02   0.146E+02 0.300E+01 0.141E+02   -.435E-03 -.712E-03 0.650E-03
   0.214E+02 -.119E+03 0.154E+03   -.315E+02 0.112E+03 -.146E+03   0.829E+01 0.950E+01 -.973E+01   -.431E-03 0.545E-03 -.417E-03
   -.465E+02 0.250E+02 -.374E+02   0.501E+02 -.222E+02 0.379E+02   -.614E+01 0.820E-01 0.862E+00   0.108E-03 0.155E-03 -.828E-04
   0.529E+02 0.363E+02 0.737E+01   -.457E+02 -.403E+02 -.920E+00   -.139E+02 0.311E+01 -.625E+01   0.263E-03 0.567E-03 0.367E-03
   -.303E+02 -.145E+03 0.517E+02   0.318E+02 0.138E+03 -.495E+02   -.306E+01 0.554E+01 0.441E+01   0.495E-03 0.694E-03 -.501E-03
   0.562E+02 -.304E+02 0.588E+02   -.696E+02 0.360E+02 -.428E+02   0.157E+02 -.475E+01 -.156E+02   -.431E-04 0.838E-03 0.733E-04
   0.176E+03 -.191E+02 0.199E+03   -.194E+03 0.369E+02 -.202E+03   0.177E+02 -.176E+02 0.349E+01   -.387E-04 0.126E-02 -.291E-03
   0.729E+02 -.190E+03 -.528E+01   -.922E+02 0.202E+03 0.145E+02   0.186E+02 -.881E+01 -.863E+01   -.506E-03 -.774E-03 0.479E-03
   0.135E+03 0.601E+02 0.204E+03   -.160E+03 -.873E+02 -.206E+03   0.198E+02 0.174E+02 -.510E+00   -.643E-03 0.129E-02 -.103E-02
   0.148E+03 0.170E+03 -.275E+02   -.163E+03 -.193E+03 0.140E+02   0.483E+01 0.200E+02 0.872E+01   -.853E-03 0.196E-02 0.869E-03
   0.146E+02 0.816E+02 0.676E+02   -.321E+02 -.935E+02 -.599E+02   0.194E+02 0.136E+02 -.858E+01   0.105E-02 -.103E-02 -.668E-03
[...]
   0.189E+02 0.791E+02 0.977E+02   -.158E+02 -.663E+02 -.975E+02   -.527E+01 -.162E+02 -.570E+01   0.112E-02 -.137E-02 -.184E-03
   -.665E+02 -.230E+02 0.128E+03   0.820E+02 -.275E+01 -.134E+03   -.147E+02 0.249E+02 0.220E+01   -.491E-03 0.618E-03 -.594E-03
   -.134E+03 -.176E+02 0.150E+03   0.163E+03 0.303E+02 -.141E+03   -.246E+02 -.113E+02 -.120E+02   -.683E-03 0.125E-02 -.970E-03
   0.911E+02 0.549E+02 0.107E+02   -.111E+03 -.514E+02 -.306E+02   0.176E+02 -.359E+01 0.186E+02   -.412E-03 0.627E-03 0.519E-03
   0.121E+03 -.162E+03 0.774E+02   -.146E+03 0.162E+03 -.751E+02   0.252E+02 0.255E+00 -.327E+01   0.834E-04 0.113E-02 -.101E-02
   -.166E+03 -.115E+03 -.602E+02   0.177E+03 0.117E+03 0.891E+02   -.110E+02 -.110E+01 -.302E+02   0.622E-03 0.763E-03 -.896E-03
   -.177E+03 -.967E+02 0.339E+02   0.186E+03 0.114E+03 -.531E+02   -.661E+01 -.203E+02 0.200E+02   -.602E-04 0.167E-02 0.245E-03
   0.127E+02 0.107E+03 0.253E+03   0.494E+01 -.113E+03 -.274E+03   -.186E+02 0.529E+01 0.210E+02   0.616E-03 0.129E-03 -.589E-03
   0.423E+02 0.145E+02 -.182E+03   -.615E+02 -.532E+01 0.212E+03   0.168E+02 -.822E+01 -.284E+02   0.538E-03 -.468E-03 0.659E-03
   -.414E+01 -.154E+03 -.496E+02   0.844E+01 0.167E+03 0.556E+02   -.404E+01 -.153E+02 -.602E+01   -.808E-03 -.193E-02 -.229E-03
   -.117E+03 0.532E+02 0.241E+03   0.116E+03 -.525E+02 -.262E+03   0.271E+01 -.207E+01 0.237E+02   0.758E-03 -.149E-02 -.148E-02
   -.604E+02 -.269E+03 -.111E+03   0.649E+02 0.288E+03 0.110E+03   -.496E+01 -.200E+02 0.119E+01   0.255E-03 -.831E-03 -.333E-03
   0.515E+01 0.605E+02 -.889E+01   -.869E+01 -.630E+02 -.917E+01   0.477E+01 0.293E+01 0.210E+02   -.818E-03 0.139E-02 -.288E-03
   0.114E+03 -.120E+03 -.704E+01   -.149E+03 0.123E+03 0.877E+01   0.363E+02 -.747E+00 -.116E+01   0.272E-03 0.226E-04 0.872E-03
   -.104E+03 0.815E+02 -.333E+01   0.284E-13 0.881E-12 -.551E-12   0.104E+03 -.815E+02 0.332E+01   0.130E-02 0.136E-01 -.315E-02

 POSITION                                       TOTAL-FORCE (eV/Angst)
      0.38883      7.88036      9.38769        -0.349842      3.993573      0.474811
      4.81579      0.35204     11.74556        -0.329286     -0.120249     -0.288283
      5.50853      8.17811      7.84348         1.247518     -0.796530     -1.369987
     10.77056      0.14693      3.30392        -1.716556      0.923131      0.021109
      3.44952      9.98710      3.81101         2.354450     -1.169020      2.898619
      8.54185      8.85226      5.00600         0.724462     -0.933858      0.025718
      7.85241      4.12494     11.80105         1.670132      0.781196     -1.166382
      0.95740     13.03472      2.90869         2.149367     -1.207306     -0.499458
      6.32427      3.66316      1.91311         0.207438      0.219819      1.324111
      9.39282     10.28875      9.40809        -0.306304     -0.540366      2.308866
      3.45971     12.92967      6.84842         0.365121      0.667452     -0.832862
      1.39105      5.72095     12.05187         1.833332      0.336306     -0.400928
      8.74069      0.94875      8.90909        -2.740814      0.580489      0.389169
     11.92289      1.22766     12.80263         3.784035     -1.422885      3.247291
      8.99668      6.94181      8.56626         0.218190     -1.044300     -0.783489
      5.98309      7.61744      1.30053         1.134453      1.878225      0.050801
     11.62859      3.40202     10.87117         1.171087     -1.610783      0.426712
      9.92585      4.14440      4.74382         1.002490     -0.371307      1.791415
      6.56270      1.96285      5.35291        -1.294673      0.059307      1.205602
      0.27526      9.22936      2.53173        -0.770070      2.898150      2.991004
      1.40409      7.07314      4.42864         0.982223     -4.158765     -0.046668
      5.08268      3.83253      7.65053         1.366794      0.013289      1.026368
     11.73426      4.16752      1.73106         0.136260      0.268207      1.266053
      2.46162      3.23726      6.27754        -1.408006     -4.853049     -2.756452
     12.18658      1.87633      7.77805         0.818210      0.674821      1.364576
      1.27930     12.39709     11.52193         0.726561      0.039505      0.334621
      7.68393     11.29946     12.95310         0.489945     -0.702783     -0.829814
      8.13320      3.80943      8.13912        -5.781976      3.316562     10.571928
     12.32027      5.49469      8.11548        -1.530049     -0.466781     -0.942902
      3.26347      5.16546      1.82889         2.760515      0.113193     -1.963757
      3.66851      1.85638      2.71757         3.139842      0.211709      4.900566
      8.81881      6.14497      2.84094         4.969105      0.709808     -0.430130
      6.41594     11.21711      9.19247        -2.329715      4.773148      2.472269
      9.38338      7.54608     12.79900         6.161464      3.412741      3.694260
      0.87882      9.00057      6.22325         1.099803      5.587112      0.599911
     11.13976      5.97916     11.94867        -3.998480      0.508718     -0.914637
      4.18240      7.91144     10.54809        -2.788203     -3.597647      2.613390
     11.02044     12.63327     10.17734         1.873864      7.925577     -2.329375
      7.12708      5.65839      5.94957         0.812188      9.013795      3.047547
      7.14991      0.17985      2.70702        -3.214940     -3.298732     -4.652044
      1.66295      1.77342      9.30433         0.226463     -5.496266      1.367843
      1.11623      9.51365     12.73441        -1.087468      0.314805      2.132126
      2.58686     10.90843      0.62318        -2.896845      6.869013      5.971575
      6.28387     10.70132      4.40875        -2.887591      0.032205     -1.401614
      4.05744     10.24891     12.10669         0.071310      1.753491     -4.096573
      7.50726     11.53014      6.85742        -1.598356      1.762861     -1.080445
     11.17256     10.63694      2.82882        -0.745526     -4.643102      0.766854
      7.25978      8.35980     11.20436        -1.803336     -3.921049     -4.933099
      1.57171      2.71763      0.78724         1.781653     -1.294538     -3.525814
      8.31084      1.29078     13.16598         6.777536      3.718622      6.752408
      3.11208     10.00367      8.68212        -1.725212      2.582194     -2.376288
      2.14888      4.81951      8.73765        -2.591200      2.952221      1.390536
     11.58870      7.78395      3.03220        -6.708637     -0.888132      0.192863
     11.16837      9.40449      7.38515        -1.582960     -1.697994      6.562528
      3.45510      9.22598     10.00344         2.341363      0.882124      0.410051
      6.07758      6.94598      5.97119         0.174598      0.229288     -0.329481
      4.87378     11.37657      4.88508        -0.742043      2.834392      0.602867
      6.25118      4.52857      5.99726        -5.256748     -9.765639     -2.007296
      8.24004      7.04906     11.97927        -9.394413     -3.370801     -4.754734
      0.42992      0.73454      9.95415         1.876569      1.741687     -0.877603
[...]
     11.26170      6.82475      7.71944         2.255508     -2.739086      2.120225
     11.45852      0.84055     11.00772        -2.156989     -3.413705     -5.428326
      7.48658     10.42252      8.32192         0.707591     -0.834868     -3.477994
      8.47264      6.29872      6.29551         4.337762      1.416333     -2.365767
      7.63811      6.38029      1.88571        -2.242601     -0.089265     -1.330874
      1.52755      9.66247      8.86244         0.557424      0.652561     -0.971724
     11.39355      9.64622      8.98735        -0.089508      0.680169     -1.372795
     10.41088      7.88201     11.42685         2.159570     -3.044556      0.758537
     13.25354      4.94414      6.91519        -0.989871     -1.189360     -0.650412
      0.61434      3.10895      1.89177        -2.417123      0.997781      2.273621
      7.36568     12.68304      9.53237         0.263275     -1.565751     -0.009094
     10.64178     13.19629      8.52656         1.246701     -1.356039      2.571285
      2.95151     12.56194      0.08679        -0.433130     -0.586162      0.089926
      7.21403      8.11324      9.46838         1.228919      0.456359      2.982173
      9.64729     10.97902      3.02171         0.579792      2.028897      0.581056
    total drift:                               -0.016998      0.005065     -0.005068

  FREE ENERGIE OF THE ION-ELECTRON SYSTEM (eV)
  free  energy   TOTEN  =      -870.47699220 eV

  energy  without entropy=     -870.41374747  energy(sigma->0) =     -870.44536983