 vasp.5.4.4.18Apr17-6-g9f103f2a35 (build Oct 31 2019 15:01:46) complex

 executed on             LinuxIFC date 2024.04.30  01:24:33

 INCAR:
 POTCAR:    PAW_PBE Ca_sv 06Sep2000
 POTCAR:    PAW_PBE Si 05Jan2001
 POTCAR:    PAW_PBE O 08Apr2002
 POTCAR:    PAW_PBE Ca_sv 06Sep2000
   VRHFIN =Ca: 3s3p4s

   TITEL  = PAW_PBE Ca_sv 06Sep2000
   POMASS =   40.078; ZVAL   =   10.000    mass and valenz
   ENMAX  =  266.622; ENMIN  =  199.967 eV

   TITEL  = PAW_PBE Si 05Jan2001
   POMASS =   28.085; ZVAL   =    4.000    mass and valenz
   ENMAX  =  245.345; ENMIN  =  184.009 eV

   TITEL  = PAW_PBE O 08Apr2002
   POMASS =   16.000; ZVAL   =    6.000    mass and valenz
   ENMAX  =  400.000; ENMIN  =  300.000 eV

 Optimization of the real space projectors (new method)

 maximal supplied QI-value         = 16.25
 optimisation between [QCUT,QGAM] = [ 12.51, 25.03] = [ 43.85,175.40] Ry
 Optimized for a Real-space Cutoff    1.47 Angstroem

   l    n(q)    QCUT    max X(q) W(low)/X(q) W(high)/X(q)  e(spline)
   0     11    12.514    11.817    0.25E-04    0.32E-05    0.87E-07
   0     11    12.514     8.461    0.39E-04    0.59E-05    0.18E-06
   1     11    12.514     3.957    0.97E-05    0.57E-05    0.28E-07
   1     11    12.514     4.314    0.42E-04    0.14E-04    0.23E-06
   2     10    12.514    14.565    0.79E-04    0.50E-03    0.16E-05
   2     10    12.514    14.552    0.75E-04    0.48E-03    0.15E-05
 Optimization of the real space projectors (new method)

[...]

   l    n(q)    QCUT    max X(q) W(low)/X(q) W(high)/X(q)  e(spline)
   0      9    12.501   159.560    0.10E-03    0.83E-04    0.71E-07
   0      9    12.501   115.863    0.99E-04    0.81E-04    0.70E-07
   1      8    12.501    88.339    0.20E-03    0.25E-03    0.76E-07
   1      8    12.501    48.592    0.20E-03    0.24E-03    0.75E-07
 Optimization of the real space projectors (new method)

 maximal supplied QI-value         = 24.76
 optimisation between [QCUT,QGAM] = [ 12.38, 25.00] = [ 42.90,175.06] Ry
 Optimized for a Real-space Cutoff    1.16 Angstroem

   l    n(q)    QCUT    max X(q) W(low)/X(q) W(high)/X(q)  e(spline)
   0      9    12.378    20.381    0.16E-03    0.67E-05    0.31E-06
   0      9    12.378    15.268    0.17E-03    0.81E-05    0.33E-06
   1      8    12.378     5.964    0.20E-03    0.16E-03    0.30E-06
   1      8    12.378     5.382    0.18E-03    0.14E-03    0.26E-06
  PAW_PBE Ca_sv 06Sep2000               :
  PAW_PBE Si 05Jan2001                  :
  PAW_PBE O 08Apr2002                   :

 POSCAR: Ca Si  O
  positions in direct lattice
 exchange correlation table for  LEXCH =        8
   RHO(1)=    0.500       N(1)  =     2000
   RHO(2)=  100.500       N(2)  =     4000

 ion  position               nearest neighbor table
   1  0.571  0.134  0.538-  80 2.00  64 2.14 112 2.31  93 2.46  30 2.64  43 2.89  47 3.04  34 3.05
                            13 3.06
   2  0.782  0.276  0.345-  62 1.91 101 2.25  75 2.44  43 2.57  33 2.87   9 2.97  34 3.00
   3  0.424  0.765  0.571- 105 1.79  81 2.50  74 2.51  12 2.92  30 2.92  53 3.07
   4  0.170  0.112  0.663-  83 2.03  79 2.23  94 2.36  68 2.39   7 3.02  39 3.02
   5  0.633  0.505  0.238-  89 2.01 100 2.17  62 2.55  52 3.01  20 3.08  37 3.14  43 3.14
   6  0.349  0.422  0.562-  92 2.04  72 2.11 129 2.48 131 2.53  38 2.92  37 3.14
   7  0.089  0.191  0.441-  79 1.99  87 2.15 102 2.44  50 2.87   4 3.02  36 3.05  41 3.05
   8  0.753  0.251  0.961- 107 2.02 120 2.15  99 2.24 111 2.40 134 2.43  46 2.70
   9  0.942  0.336  0.168-  62 1.95  66 2.00 107 2.13  55 2.55  49 2.97   2 2.97  50 3.12
  10  0.403  0.630  0.034- 132 2.07 100 2.11  84 2.20 121 2.27  52 3.14  53 3.14
  11  0.917  0.884  0.558-  70 2.12  83 2.35 113 2.45 135 2.51  39 2.71  51 2.78
  12  0.628  0.848  0.471-  80 2.31 113 2.57   3 2.92
  13  0.686  0.305  0.685- 101 2.16 112 2.27 129 2.36   1 3.06  28 3.10  34 3.16
  14  0.321  0.446  0.274- 119 2.13 127 2.14  90 2.19  85 2.25  50 2.88  52 3.00
  15  0.898  0.481  0.464-  63 2.04  87 2.06  66 2.44 125 2.50  31 2.78  50 2.89
  16  0.323  0.928  0.203-  56 2.15 121 2.20 123 2.31 109 2.34
  17  0.100  0.418  0.966-  78 2.02 124 2.28 122 2.39  25 2.92  46 2.98
  18  0.893  0.002  0.033- 111 2.31 128 2.49
  19  0.018  0.680  0.912-  76 2.07  78 2.38  32 2.80  48 3.07
  20  0.660  0.574  0.994- 126 2.17 132 2.20 118 2.36 134 2.41   5 3.08  32 3.12
  21  0.049  0.802  0.171- 109 1.87  76 1.87  82 2.28  58 2.48  32 2.74  49 2.96
  22  0.522  0.558  0.758- 133 2.05  72 2.22 132 2.26  92 2.36  84 2.49  53 2.62  38 2.84
  23  0.116  0.645  0.524- 108 2.15 131 2.17  74 2.50  98 2.50  45 3.13
  24  0.098  0.372  0.682- 115 2.23 122 2.34  79 2.41
  25  0.328  0.404  0.889-  77 1.88  59 2.05  72 2.06  84 2.47  38 2.61  17 2.92  52 2.99
  26  0.341  0.205  0.115- 123 2.31 127 2.37 106 2.37  65 2.44  52 2.74  42 2.89  41 3.07
  27  0.572  0.935  0.057-  96 2.47 104 2.49  60 2.51  33 3.11
  28  0.853  0.461  0.802- 118 1.51  73 1.56 125 1.85  78 1.91  13 3.10  46 3.11
  29  0.715  0.870  0.801-  61 1.53 113 1.86  97 1.87 104 1.95  35 2.91
  30  0.397  0.005  0.566-  80 1.41  68 1.68  81 1.87  86 1.91   1 2.64   3 2.92
  31  0.772  0.626  0.589- 133 1.71  63 1.77 125 1.94  67 2.08  15 2.78  37 2.92
  32  0.868  0.694  0.088- 126 1.42 128 1.76  76 1.81  82 2.13  40 2.25  89 2.42  21 2.74  19 2.80
                            49 2.94  20 3.12
  33  0.672  0.127  0.196- 120 1.66  75 1.71 116 1.76  95 1.78   2 2.87  43 2.88  27 3.11
  34  0.823  0.133  0.544-  91 1.61  70 1.62 101 1.70  64 1.75  35 2.97   2 3.00   1 3.05  51 3.08
                            13 3.16
  35  0.879  0.043  0.765- 135 1.50 111 1.63  91 1.73  97 1.88  94 1.94  46 2.87  29 2.91  34 2.97

  36  0.100  0.095  0.208-  55 1.40 102 1.63 106 1.92 109 2.05   7 3.05  42 3.08
  37  0.578  0.523  0.491-  67 1.46  71 1.58  92 1.73  31 2.92   5 3.14   6 3.14
  38  0.288  0.562  0.749- 115 1.59  74 1.60  84 1.64  72 1.73  25 2.61  22 2.84   6 2.92
  39  0.110  0.870  0.671-  83 1.67 110 1.70 108 1.74  98 1.78  81 2.28  11 2.71   4 3.02  45 3.06

[...]

  42  0.195  0.081  0.972-  57 1.66  65 1.78 106 1.80  69 1.93  26 2.89  36 3.08
  43  0.570  0.279  0.348-  75 1.38  93 1.55  71 1.88 127 2.32   2 2.57  33 2.88   1 2.89  41 3.08
                             5 3.14
  44  0.570  0.088  0.843-  99 1.47 112 1.60  60 1.74  97 2.31  47 2.80
  45  0.180  0.876  0.428-  88 1.46  56 1.51 108 1.59  39 3.06  23 3.13
  46  0.958  0.238  0.874- 122 1.66 107 1.81  73 1.82 111 1.85  94 2.28   8 2.70  35 2.87  17 2.98
                            28 3.11
  47  0.420  0.216  0.722- 129 1.65  68 1.73  59 1.78 112 2.36  44 2.80   1 3.04
  48  0.225  0.826  0.919-  58 1.51 117 1.67 110 1.83  69 1.87  19 3.07
  49  0.029  0.561  0.211- 114 1.57  66 1.65  82 1.75 124 1.80  76 2.10  50 2.66  32 2.94  21 2.96
                             9 2.97
  50  0.100  0.413  0.357- 131 1.91  87 1.91  85 1.95  66 1.96 114 2.22  90 2.48  49 2.66   7 2.87
                            14 2.88  15 2.89   9 3.12
  51  0.865  0.972  0.352- 130 1.77 116 2.12  70 2.42  11 2.78  34 3.08  40 3.09
  52  0.474  0.386  0.088- 100 1.60 127 1.66 134 1.89  77 1.95  26 2.74  25 2.99  14 3.00   5 3.01
                            10 3.14
  53  0.473  0.759  0.820- 117 1.66 105 1.66 132 1.76 104 1.78  84 2.44  22 2.62   3 3.07  10 3.14

  54  0.472  0.705  0.294- 103 1.46 119 1.80 121 2.03
  55  1.000  0.145  0.236-  36 1.40   9 2.55
  56  0.286  0.862  0.364-  45 1.51  16 2.15
  57  0.083  0.037  0.908-  42 1.66
  58  0.187  0.770  0.024-  48 1.51  21 2.48
  59  0.435  0.276  0.856-  47 1.78  25 2.05
  60  0.459  0.020  0.905-  44 1.74  27 2.51
  61  0.764  0.783  0.879-  29 1.53
  62  0.791  0.367  0.217-   2 1.91   9 1.95   5 2.55
  63  0.876  0.646  0.489-  31 1.77  15 2.04
  64  0.718  0.047  0.493-  34 1.75   1 2.14
  65  0.280  0.191  0.923-  42 1.78  26 2.44
  66  0.967  0.459  0.276-  49 1.65  50 1.96   9 2.00  15 2.44
  67  0.673  0.587  0.454-  37 1.46  31 2.08
  68  0.367  0.095  0.668-  30 1.68  47 1.73   4 2.39
  69  0.288  0.952  0.982-  48 1.87  42 1.93
  70  0.929  0.055  0.522-  34 1.62  11 2.12  51 2.42
  71  0.594  0.406  0.434-  37 1.58  43 1.88
  72  0.375  0.450  0.732-  38 1.73  25 2.06   6 2.11  22 2.22
  73  0.907  0.346  0.783-  28 1.56  46 1.82
  74  0.270  0.660  0.661-  38 1.60  23 2.50   3 2.51
  75  0.609  0.243  0.247-  43 1.38  33 1.71   2 2.44
  76  0.017  0.679  0.083-  32 1.81  21 1.87  19 2.07  49 2.10
  77  0.321  0.409  0.044-  25 1.88  52 1.95
  78  0.997  0.492  0.857-  28 1.91  17 2.02  19 2.38
  79  0.194  0.257  0.550-   7 1.99   4 2.23  24 2.41
  80  0.508  0.981  0.538-  30 1.41   1 2.00  12 2.31
  81  0.285  0.911  0.615-  30 1.87  39 2.28   3 2.50
  82  0.939  0.668  0.247-  49 1.75  32 2.13  21 2.28  40 2.44
  83  0.075  0.987  0.607-  39 1.67   4 2.03  11 2.35
  84  0.351  0.604  0.861-  38 1.64  10 2.20  53 2.44  25 2.47  22 2.49
  85  0.161  0.374  0.212-  50 1.95  14 2.25
  86  0.300  0.079  0.465-  41 1.84  30 1.91
  87  0.989  0.338  0.442-  50 1.91  15 2.06   7 2.15
  88  0.068  0.909  0.396-  45 1.46
  89  0.711  0.649  0.204-  40 1.67   5 2.01  32 2.42
  90  0.270  0.301  0.371-  41 1.50  14 2.19  50 2.48
  91  0.795  0.058  0.650-  34 1.61  35 1.73
  92  0.463  0.547  0.573-  37 1.73   6 2.04  22 2.36
  93  0.462  0.250  0.412-  43 1.55  41 1.82   1 2.46
  94  0.984  0.151  0.709-  35 1.94  46 2.28   4 2.36
  95  0.585  0.050  0.286-  33 1.78
  96  0.665  0.850  0.217-  40 1.56  27 2.47
  97  0.747  0.016  0.843-  29 1.87  35 1.88 111 1.94  44 2.31
  98  0.032  0.746  0.683-  39 1.78  23 2.50
  99  0.587  0.178  0.922-  44 1.47   8 2.24
 100  0.496  0.512  0.121-  52 1.60  10 2.11   5 2.17
 101  0.757  0.256  0.528-  34 1.70  13 2.16   2 2.25
 102  0.188  0.180  0.266-  36 1.63  41 2.13   7 2.44
 103  0.455  0.816  0.339-  54 1.46
 104  0.567  0.863  0.864-  53 1.78  29 1.95  27 2.49
 105  0.506  0.794  0.691-  53 1.66   3 1.79
 106  0.151  0.174  0.080-  42 1.80  36 1.92  26 2.37
 107  0.910  0.254  0.015-  46 1.81   8 2.02   9 2.13
 108  0.135  0.821  0.539-  45 1.59  39 1.74  23 2.15
 109  0.132  0.932  0.171-  21 1.87  36 2.05  16 2.34
 110  0.167  0.895  0.797-  39 1.70  48 1.83
 111  0.869  0.113  0.879-  35 1.63  46 1.85  97 1.94  18 2.31   8 2.40
 112  0.600  0.143  0.727-  44 1.60  13 2.27   1 2.31  47 2.36
 113  0.741  0.847  0.651-  29 1.86  11 2.45  12 2.57
[...]
 121  0.372  0.756  0.169-  54 2.03  16 2.20  10 2.27
 122  0.089  0.265  0.842-  46 1.66  24 2.34  17 2.39
 123  0.376  0.099  0.270-  41 1.73  16 2.31  26 2.31
 124  0.139  0.519  0.120-  49 1.80  17 2.28
 125  0.871  0.524  0.664-  28 1.85  31 1.94  15 2.50
 126  0.821  0.587  0.072-  32 1.42  20 2.17
 127  0.447  0.338  0.213-  52 1.66  14 2.14  43 2.32  26 2.37
 128  0.811  0.827  0.105-  40 1.66  32 1.76  18 2.49
 129  0.493  0.309  0.655-  47 1.65  13 2.36   6 2.48
 130  0.819  0.833  0.345-  40 1.75  51 1.77
 131  0.160  0.474  0.489-  50 1.91  23 2.17   6 2.53
 132  0.521  0.660  0.915-  53 1.76  10 2.07  20 2.20  22 2.26
 133  0.662  0.607  0.676-  31 1.71  22 2.05
 134  0.607  0.382  0.007-  52 1.89  20 2.41   8 2.43
 135  0.922  0.926  0.761-  35 1.50  11 2.51

IMPORTANT INFORMATION: All symmetrisations will be switched off!
[...]
     0.000000000  0.000000000 12.093787620     0.000000000  0.000000000  0.082687081

  length of vectors
    12.093787620 12.093787620 12.093787620     0.082687081  0.082687081  0.082687081

 FORCES acting on ions
    electron-ion (+dipol)            ewald-force                    non-local-force                 convergence-correction
   0.293E+02 -.100E+02 0.605E+02   -.240E+02 0.731E+01 -.609E+02   -.327E+01 0.497E+01 0.685E-01   -.299E-02 0.154E-02 -.364E-02
   -.440E+02 0.701E+02 -.115E+03   0.460E+02 -.712E+02 0.113E+03   0.234E+00 -.150E+01 0.392E+01   0.181E-01 0.823E-02 -.447E-02
   0.475E+02 0.595E+02 0.229E+03   -.576E+02 -.606E+02 -.226E+03   0.325E+01 -.788E+00 -.808E+01   -.629E-02 -.702E-02 -.744E-02
   -.116E+03 -.320E+01 -.183E+03   0.112E+03 0.227E+01 0.182E+03   0.392E+01 0.104E+01 0.338E+01   -.578E-02 0.516E-02 -.110E-01
   -.668E+02 -.670E+02 -.101E+03   0.688E+02 0.684E+02 0.983E+02   -.120E+01 -.320E+01 0.318E+01   0.853E-03 0.194E-02 -.256E-02
   0.623E+02 -.631E+01 0.148E+03   -.624E+02 0.449E+01 -.145E+03   -.188E+01 -.114E+01 -.449E+01   -.114E-01 0.232E-02 -.116E-01
   0.160E+03 0.172E+03 0.424E+02   -.158E+03 -.170E+03 -.412E+02   -.210E+01 -.464E+01 -.204E+01   0.845E-02 0.153E-01 -.194E-01
   0.862E+02 -.130E+03 0.171E+02   -.925E+02 0.127E+03 -.125E+02   0.181E+01 0.380E+01 -.454E+01   0.155E-01 0.124E-01 0.542E-02
   -.314E+02 0.381E+02 0.132E+03   0.285E+02 -.415E+02 -.132E+03   0.513E+01 -.101E+00 -.152E+01   0.380E-01 0.183E-01 0.517E-02
   0.110E+03 -.184E+03 -.173E+03   -.112E+03 0.187E+03 0.173E+03   -.210E+01 -.961E+00 0.775E+00   -.181E-01 -.119E-01 0.106E-01
   0.135E+03 0.296E+03 0.101E+03   -.133E+03 -.294E+03 -.952E+02   -.197E+01 -.358E+01 -.435E+01   0.508E-02 -.522E-02 -.328E-02
   -.599E+02 0.151E+03 0.974E+02   0.630E+02 -.144E+03 -.980E+02   -.131E+01 -.518E+01 -.103E+00   0.753E-03 -.534E-02 -.323E-02
   -.983E+02 -.214E+03 -.710E+02   0.956E+02 0.210E+03 0.698E+02   0.210E+01 0.446E+01 0.252E+01   0.687E-02 0.809E-02 -.185E-02
   0.159E+02 -.292E+03 -.593E+02   -.171E+02 0.290E+03 0.569E+02   -.437E+00 0.351E+01 0.116E+01   -.491E-01 -.847E-02 -.182E-01
   0.122E+03 -.805E+02 -.101E+03   -.119E+03 0.819E+02 0.101E+03   -.361E+01 -.180E+01 0.904E-01   0.133E-01 -.847E-03 -.930E-02
   -.102E+03 0.190E+02 0.105E+03   0.993E+02 -.220E+02 -.102E+03   0.284E+01 0.307E+01 -.344E+01   -.107E-01 -.169E-02 0.776E-02
   0.263E+02 -.314E+02 -.756E+02   -.279E+02 0.328E+02 0.740E+02   0.293E+01 -.241E+01 0.237E+01   0.521E-02 0.217E-01 0.437E-01
   -.783E+02 0.199E+03 -.947E+02   0.765E+02 -.194E+03 0.911E+02   0.160E+01 -.364E+01 0.282E+01   0.808E-02 -.242E-02 0.553E-02
   0.965E+02 -.135E+03 0.201E+03   -.945E+02 0.132E+03 -.203E+03   -.118E+01 0.310E+01 -.145E+01   0.659E-02 -.138E-01 0.168E-01
   -.111E+03 -.143E+03 0.740E+02   0.112E+03 0.141E+03 -.758E+02   -.113E+01 0.193E+01 0.128E+01   0.518E-02 -.307E-02 0.464E-02
   -.669E+00 -.131E+03 -.111E+03   0.565E+01 0.132E+03 0.115E+03   -.383E+01 0.704E+00 0.156E+01   0.514E-02 -.189E-01 -.149E-02
   -.233E+03 0.153E+02 -.479E+01   0.232E+03 -.167E+02 0.308E+01   0.915E+00 -.879E+00 0.184E+01   -.222E-02 -.227E-02 0.848E-03
   0.455E+02 -.670E+01 0.672E+02   -.439E+02 0.877E+01 -.630E+02   -.206E+01 -.151E+01 -.281E+01   0.739E-03 -.858E-02 -.110E-01
   0.917E+02 -.749E+02 0.871E+02   -.904E+02 0.734E+02 -.851E+02   -.231E+01 0.101E+01 -.230E+01   -.166E-02 0.652E-02 -.471E-02
   0.534E+02 0.438E+02 -.425E+01   -.497E+02 -.486E+02 0.149E+01   -.492E+01 0.267E+01 -.646E+00   -.140E-01 0.173E-01 0.138E-01
   -.151E+03 0.184E+03 0.128E+03   0.146E+03 -.185E+03 -.127E+03   0.374E+01 0.321E+00 -.161E+01   -.223E-01 0.218E-01 0.286E-01
   0.451E+02 0.723E+02 -.832E+02   -.436E+02 -.723E+02 0.809E+02   -.124E+01 -.154E+00 0.179E+01   0.678E-02 -.107E-01 0.189E-01
   0.149E+02 -.146E+03 0.272E+02   -.182E+02 0.138E+03 -.217E+02   0.108E+02 0.130E+02 -.759E+01   0.347E-02 0.123E-02 0.195E-02
   0.248E+02 0.294E+02 0.308E+02   -.179E+02 -.372E+02 -.220E+02   -.758E+01 0.102E+02 -.111E+02   0.595E-02 -.248E-02 -.168E-02
   0.474E+02 0.500E+02 0.981E+00   -.419E+02 -.535E+02 -.123E+01   -.243E+02 0.417E+01 0.253E+01   -.289E-02 0.111E-03 -.455E-02
   -.969E+01 -.741E+02 -.346E+02   0.112E+02 0.720E+02 0.365E+02   0.299E+00 0.208E+01 -.243E+00   0.273E-02 -.145E-02 -.916E-03
   0.107E+02 -.105E+03 0.797E+02   -.135E+02 0.881E+02 -.804E+02   0.934E+01 0.223E+02 0.303E+01   0.702E-02 -.443E-02 0.132E-02
   0.397E+02 0.577E+02 0.265E+02   -.366E+02 -.671E+02 -.262E+02   -.207E+01 0.433E+01 0.149E+01   0.251E-02 0.171E-02 0.350E-03
   -.470E+02 -.104E+03 0.559E+02   0.446E+02 0.889E+02 -.516E+02   0.179E+00 0.112E+02 -.344E+01   0.319E-02 0.191E-02 -.114E-02
   -.160E+02 -.124E+01 -.128E+02   0.195E+02 -.964E+01 0.117E+02   -.429E+01 0.151E+02 -.209E+01   0.243E-02 0.542E-03 -.230E-03
   -.891E+01 0.186E+03 0.441E+02   0.554E+00 -.169E+03 -.381E+02   0.202E+02 -.216E+02 -.118E+02   0.354E-02 0.890E-02 0.379E-02
   0.206E+02 -.503E+02 -.358E+02   -.146E+02 0.518E+02 0.316E+02   -.152E+02 -.337E+01 0.814E+01   -.103E-02 0.786E-03 -.136E-02
   0.521E+02 -.692E+02 0.398E+02   -.570E+02 0.719E+02 -.377E+02   0.477E+01 -.123E+01 -.156E+01   -.323E-02 -.989E-03 0.127E-02
   -.192E+02 0.664E+02 -.962E+02   0.143E+02 -.653E+02 0.950E+02   0.483E+01 -.310E+01 0.245E+01   -.943E-03 -.233E-02 -.161E-02
   -.289E+02 0.144E+02 -.641E+02   0.116E+02 -.692E+01 0.612E+02   0.138E+02 -.696E+01 0.795E+01   0.356E-02 -.327E-02 -.794E-03
   -.480E+02 0.875E+02 -.246E+02   0.440E+02 -.837E+02 0.213E+02   0.597E+01 -.122E+02 0.260E+01   -.931E-02 0.578E-02 -.556E-02
   -.293E+02 0.727E+02 0.176E+01   0.233E+02 -.706E+02 -.723E+01   0.598E+01 -.193E+01 0.352E+01   -.673E-02 -.451E-03 0.752E-02
   -.305E+02 -.298E+02 -.619E+02   0.308E+02 0.185E+02 0.581E+02   -.652E+01 0.164E+02 0.152E+02   -.427E-02 0.297E-02 -.178E-02
   0.288E+02 0.145E+03 0.189E+02   -.311E+02 -.129E+03 -.792E+01   0.688E+00 -.210E+02 -.114E+02   0.810E-02 0.361E-02 -.580E-02
   -.606E+02 0.280E+02 0.478E+02   0.535E+02 -.297E+02 -.541E+02   0.101E+02 0.215E+01 0.959E+01   -.647E-03 -.169E-02 -.300E-02
   0.223E+01 0.140E+02 -.159E+02   0.466E+01 -.137E+02 0.160E+02   -.515E+01 -.289E+01 -.168E+01   0.132E-02 0.464E-02 0.268E-02
   0.697E+02 0.585E+02 -.282E+02   -.634E+02 -.500E+02 0.299E+02   -.383E+01 -.677E+01 0.216E+01   -.224E-02 0.476E-02 -.606E-02
   0.569E+02 -.296E+01 0.481E+02   -.544E+02 0.178E+01 -.374E+02   0.180E+01 0.885E+01 -.148E+02   -.473E-02 -.693E-02 0.386E-02
   0.391E+02 -.502E+02 0.635E+02   -.302E+02 0.502E+02 -.513E+02   -.762E+01 0.266E+01 -.139E+02   0.176E-01 -.120E-01 -.927E-02
   -.182E+02 -.320E+02 -.306E+02   0.181E+02 0.325E+02 0.306E+02   0.392E+00 0.117E+01 0.179E+00   0.790E-02 -.198E-02 -.205E-01
   -.154E+02 -.481E+01 0.492E+02   0.206E+02 0.570E+01 -.490E+02   -.610E+01 0.593E+00 -.170E+01   0.344E-02 -.603E-03 -.106E-02
   -.430E+02 0.906E+02 0.885E+02   0.462E+02 -.813E+02 -.819E+02   -.150E+01 -.759E+01 -.871E+01   -.665E-02 0.426E-02 0.399E-02
   -.167E+02 -.374E+02 0.649E+01   0.182E+02 0.450E+02 -.443E+01   -.123E+01 -.260E+01 0.184E+01   -.345E-02 -.808E-02 -.973E-03
   -.565E+02 0.469E+02 0.262E+02   0.511E+02 -.333E+02 -.215E+02   0.188E+01 -.196E+02 -.104E+02   -.397E-02 -.307E-02 -.966E-03
   0.128E+03 0.982E+02 -.132E+02   -.168E+03 -.783E+02 0.237E+02   0.291E+02 -.160E+02 -.763E+01   0.128E-01 0.119E-01 0.837E-03
   -.215E+02 0.105E+03 -.160E+01   0.537E+02 -.111E+03 -.130E+02   -.320E+02 0.495E+01 0.145E+02   -.449E-02 -.329E-02 -.292E-02
   0.218E+02 0.950E+02 -.285E+02   -.421E+02 -.105E+03 0.111E+02   0.208E+02 0.112E+02 0.197E+02   -.529E-02 -.893E-03 0.357E-02
   -.113E+02 0.321E+02 -.302E+02   0.533E+01 -.464E+02 0.635E+02   0.394E+01 0.115E+02 -.326E+02   -.649E-02 -.151E-01 0.788E-02
   -.778E+02 0.814E+02 -.396E+02   0.867E+02 -.804E+02 0.582E+02   -.872E+01 -.349E+01 -.232E+02   -.115E-02 0.159E-01 -.132E-02
   0.811E+02 0.347E+02 -.233E+02   -.105E+03 -.448E+02 0.306E+02   0.265E+02 0.114E+02 -.876E+01   -.438E-02 -.109E-02 0.456E-02
[...]
   -.877E+02 0.629E+02 -.216E+02   0.113E+03 -.668E+02 0.160E+02   -.258E+02 0.498E+01 0.714E+01   -.472E-02 0.969E-02 0.292E-02
   -.111E+03 0.145E+03 0.449E+02   0.121E+03 -.161E+03 -.522E+02   -.997E+01 0.181E+02 0.701E+01   -.126E-01 0.679E-02 0.174E-02
   -.711E+02 -.131E+03 0.705E+02   0.896E+02 0.131E+03 -.766E+02   -.218E+02 0.284E-01 0.470E+01   0.334E-03 -.269E-01 0.220E-01
   -.360E+01 -.816E+02 -.310E+02   0.188E+02 0.838E+02 0.241E+02   -.176E+02 -.245E+01 0.746E+01   0.457E-02 -.572E-03 -.434E-03
   -.288E+02 0.798E+02 0.920E+02   0.156E+02 -.122E+03 -.925E+02   0.110E+02 0.335E+02 -.375E+01   0.111E-01 -.266E-02 0.244E-02
   -.813E+02 0.529E+02 -.309E+01   0.782E+02 -.620E+02 0.235E+02   0.383E+01 0.801E+01 -.214E+02   -.165E-01 0.626E-02 0.114E-02
   0.703E+01 -.900E+02 0.104E+03   -.152E+02 0.116E+03 -.122E+03   0.125E+02 -.278E+02 0.157E+02   0.694E-02 -.580E-02 0.128E-02
   -.414E+02 -.405E+02 0.316E+02   0.521E+02 0.602E+02 -.400E+02   -.106E+02 -.210E+02 0.625E+01   -.239E-02 0.494E-02 -.422E-02
   -.142E+02 0.326E+02 -.510E+02   0.183E+02 -.413E+02 0.666E+02   -.354E+01 0.928E+01 -.154E+02   0.404E-02 -.518E-02 -.161E-02
   -.123E+02 -.815E+02 -.229E+02   0.185E+02 0.829E+02 0.334E+02   -.724E+01 -.278E+01 -.131E+02   -.111E-02 -.269E-02 -.138E-01
   -.148E+03 -.116E+03 -.417E+02   0.154E+03 0.110E+03 0.528E+02   -.349E+01 0.832E+01 -.137E+02   -.267E-02 -.780E-02 0.405E-02
   -.134E+03 -.636E+02 -.962E+01   0.122E+03 0.655E+02 0.241E+02   0.153E+02 -.184E+01 -.176E+02   0.233E-02 -.221E-02 -.225E-03
   -.244E+02 0.381E+02 0.313E+02   0.374E+02 -.412E+02 -.418E+02   -.167E+02 0.293E+01 0.128E+02   0.109E-02 0.712E-02 0.366E-02
   -.405E+02 0.214E+03 -.132E+03   0.544E+02 -.250E+03 0.134E+03   -.123E+02 0.321E+02 -.117E+01   0.260E-02 -.229E-02 0.587E-04
   -.457E+02 0.563E+02 0.155E+03   0.789E-12 -.171E-12 0.114E-12   0.456E+02 -.563E+02 -.155E+03   0.471E-02 0.422E-01 -.306E-01

 POSITION                                       TOTAL-FORCE (eV/Angst)
      6.90263      1.61845      6.51211         1.945609      2.261780     -0.410857
      9.45979      3.33554      4.17145         2.232853     -2.620034      1.548749
      5.13286      9.25537      6.90381        -6.834120     -1.920694     -5.191204
      2.05361      1.36030      8.02171         0.421197      0.116507      2.063245
      7.65615      6.11083      2.87524         0.804655     -1.790537      0.849702
      4.22098      5.10749      6.79781        -2.045161     -2.964614     -1.660963
      1.07455      2.31530      5.33435        -0.587721     -2.733394     -0.899354
      9.10184      3.04033     11.62189        -4.522399      0.983590      0.033285
     11.39043      4.06577      2.02915         2.215314     -3.501472     -2.064165
      4.86853      7.61881      0.40742        -3.540987      1.354758      1.075445
     11.09520     10.68896      6.74873        -0.093830     -1.686176      1.872208
      7.59775     10.25748      5.69730         1.800893      2.161677     -0.740361
      8.29627      3.68584      8.28316        -0.627452      0.101525      1.384062
      3.87955      5.39093      3.31882        -1.674348      1.085422     -1.252376
     10.85599      5.81128      5.61297        -0.806741     -0.366379     -0.494935
      3.90096     11.22701      2.45285        -0.346884      0.057971     -0.317641
      1.20639      5.05100     11.68511         1.336274     -1.031535      0.766131
     10.79830      0.02720      0.40144        -0.217665      1.602284     -0.812422
      0.21469      8.21923     11.02715         0.790097     -0.251163     -4.161145
      7.98407      6.94086     12.01930         0.275812     -0.727846     -0.484588
      0.59137      9.69649      2.07318         1.151724      1.324803      4.785564
      6.31677      6.74694      9.16791        -0.261312     -2.259490      0.136313
      1.40589      7.79563      6.33636        -0.440149      0.555075      1.322155
      1.18764      4.49879      8.24518        -0.933271     -0.545763     -0.357856
      3.96770      4.88235     10.75570        -1.298928     -2.042735     -3.388906
      4.12539      2.47971      1.39272        -1.604122     -0.428909     -0.353965
      6.92138     11.30850      0.68726         0.272036     -0.190089     -0.474027
     10.31146      5.57303      9.70281         7.594062      4.295518     -2.071023
      8.64773     10.52481      9.68661        -0.730567      2.368416     -2.265383
      4.79826      0.06433      6.84433       -18.744923      0.689072      2.274773
      9.33421      7.57635      7.12696         1.776575      0.065556      1.611883
     10.49630      8.39745      1.06426         6.541967      5.315074      2.278070
      8.12453      1.53840      2.37496         1.034885     -5.062383      1.758332
      9.94826      1.60845      6.57533        -2.236284     -3.434316      0.898983
     10.63168      0.51478      9.25332        -0.743710      4.175804     -3.190796
      1.21353      1.14861      2.51829        11.831437     -4.683685     -5.742617
      6.98696      6.32336      5.93532        -9.227406     -1.871519      3.990593
      3.48285      6.80265      9.05283        -0.190458      1.428784      0.555473
      1.33005     10.52361      8.11816        -0.118280     -1.991535      1.179331
      9.28620      9.35034      2.70269        -3.473431      0.507986      5.085356
      3.99918      2.32137      4.45565         1.882600     -8.483234     -0.661559
      2.35613      0.98559     11.76029        -0.057989      0.209007     -1.936471
      6.88878      3.37191      4.21442        -6.246633      5.149283     11.356764
      6.88858      1.06103     10.19956        -1.561268     -5.153001     -0.356760
      2.17522     10.59623      5.17994         3.036080      0.447927      3.311650
     11.58894      2.87485     10.57461         1.738409     -2.543610     -1.563557
      5.07715      2.61163      8.73252         2.379600      1.758815      3.934256
      2.72402      9.98364     11.10838         4.357430      7.662534     -4.048779
      0.35546      6.78624      2.54953         1.272271      2.712679     -1.714442
      1.20692      4.99196      4.31569         0.319661      1.654741      0.238034
     10.46606     11.75084      4.25408        -0.941055      1.481670     -1.566133
      5.72900      4.67219      1.06486         1.694658      1.691751     -2.146502
      5.71665      9.18197      9.91340         0.315577      5.024017      3.899662
      5.70680      8.52608      3.55487        -3.520765     -5.921067     -5.684701
     12.09017      1.75903      2.85655       -11.035844      3.951990      2.916452
      3.46155     10.42395      4.40348         0.181881     -0.636048     -0.154814
      0.99897      0.44185     10.97984         0.470023      1.013425      2.277052
      2.26637      9.30735      0.28849        -2.052104     -2.756742      0.709007
      5.25720      3.33495     10.35137         0.162538     -2.416517     -4.559023
      5.54783      0.23716     10.95043         2.850220      1.300808     -1.486928
[...]
      4.50336      9.14685      2.04152         3.025763     -2.455992      0.848095
      1.07666      3.19894     10.18297        -0.614845      1.051479      1.539787
      4.54826      1.19452      3.26804        -0.136855      1.977934     -0.338614
      1.68208      6.27357      1.45229        -3.195840      0.134232     -1.314758
     10.52899      6.33821      8.03192        -2.350233     -0.214736      0.592176
      9.93234      7.10431      0.86935        -2.251584     -8.328854     -4.251454
      5.40320      4.08209      2.58060         0.769110     -1.082524     -0.994701
      9.80770     10.00755      1.27315         4.288800     -2.135732     -2.003132
      5.96047      3.73778      7.91699        -0.003369     -1.270302     -2.190711
      9.90097     10.07652      4.17294         0.567403      0.541679      0.139221
      1.93117      5.73721      5.91773        -1.011705     -1.426465     -2.573324
      6.30420      7.98439     11.06012         2.538659      1.610515     -2.546253
      8.00577      7.34193      8.16975         3.172021      0.061354     -3.124444
      7.34643      4.61912      0.08960        -3.629884     -0.115178      2.286358
     11.15577     11.20050      9.20654         1.627781     -3.919870      0.301561
    total drift:                               -0.029713      0.033748     -0.009683

  FREE ENERGIE OF THE ION-ELECTRON SYSTEM (eV)
  free  energy   TOTEN  =      -858.17930059 eV

  energy  without entropy=     -858.11185485  energy(sigma->0) =     -858.14557772