 vasp.5.4.4.18Apr17-6-g9f103f2a35 (build Oct 31 2019 15:01:46) complex

 executed on             LinuxIFC date 2024.04.29  22:55:44

 INCAR:
 POTCAR:    PAW_PBE Ca_sv 06Sep2000
 POTCAR:    PAW_PBE Si 05Jan2001
 POTCAR:    PAW_PBE O 08Apr2002
 POTCAR:    PAW_PBE Ca_sv 06Sep2000
   VRHFIN =Ca: 3s3p4s

   TITEL  = PAW_PBE Ca_sv 06Sep2000
   POMASS =   40.078; ZVAL   =   10.000    mass and valenz
   ENMAX  =  266.622; ENMIN  =  199.967 eV

   TITEL  = PAW_PBE Si 05Jan2001
   POMASS =   28.085; ZVAL   =    4.000    mass and valenz
   ENMAX  =  245.345; ENMIN  =  184.009 eV

   TITEL  = PAW_PBE O 08Apr2002
   POMASS =   16.000; ZVAL   =    6.000    mass and valenz
   ENMAX  =  400.000; ENMIN  =  300.000 eV

 Optimization of the real space projectors (new method)

 maximal supplied QI-value         = 16.25
 optimisation between [QCUT,QGAM] = [ 12.51, 25.03] = [ 43.85,175.40] Ry
 Optimized for a Real-space Cutoff    1.47 Angstroem

   l    n(q)    QCUT    max X(q) W(low)/X(q) W(high)/X(q)  e(spline)
   0     11    12.514    11.817    0.25E-04    0.32E-05    0.87E-07
   0     11    12.514     8.461    0.39E-04    0.59E-05    0.18E-06
   1     11    12.514     3.957    0.97E-05    0.57E-05    0.28E-07
   1     11    12.514     4.314    0.42E-04    0.14E-04    0.23E-06
   2     10    12.514    14.565    0.79E-04    0.50E-03    0.16E-05
   2     10    12.514    14.552    0.75E-04    0.48E-03    0.15E-05
 Optimization of the real space projectors (new method)

[...]

   l    n(q)    QCUT    max X(q) W(low)/X(q) W(high)/X(q)  e(spline)
   0      9    12.501   159.560    0.10E-03    0.83E-04    0.71E-07
   0      9    12.501   115.863    0.99E-04    0.81E-04    0.70E-07
   1      8    12.501    88.339    0.20E-03    0.25E-03    0.76E-07
   1      8    12.501    48.592    0.20E-03    0.24E-03    0.75E-07
 Optimization of the real space projectors (new method)

 maximal supplied QI-value         = 24.76
 optimisation between [QCUT,QGAM] = [ 12.38, 25.00] = [ 42.90,175.06] Ry
 Optimized for a Real-space Cutoff    1.16 Angstroem

   l    n(q)    QCUT    max X(q) W(low)/X(q) W(high)/X(q)  e(spline)
   0      9    12.378    20.381    0.16E-03    0.67E-05    0.31E-06
   0      9    12.378    15.268    0.17E-03    0.81E-05    0.33E-06
   1      8    12.378     5.964    0.20E-03    0.16E-03    0.30E-06
   1      8    12.378     5.382    0.18E-03    0.14E-03    0.26E-06
  PAW_PBE Ca_sv 06Sep2000               :
  PAW_PBE Si 05Jan2001                  :
  PAW_PBE O 08Apr2002                   :

 POSCAR: Ca Si  O
  positions in direct lattice
 exchange correlation table for  LEXCH =        8
   RHO(1)=    0.500       N(1)  =     2000
   RHO(2)=  100.500       N(2)  =     4000

 ion  position               nearest neighbor table
   1  0.307  0.741  0.522-  80 2.25 114 2.34 116 2.39 106 2.43  71 2.56  14 2.69  29 2.87  52 2.93

   2  0.473  0.815  0.961- 130 2.12  66 2.27  91 2.37  88 2.45  39 2.75  18 2.76  49 2.81  21 3.13

[...]

  16  0.126  0.360  0.436- 113 2.13 107 2.13  20 2.33  59 2.44  37 2.97
  17  0.352  0.430  0.636-  57 2.08 113 2.09  69 2.38  82 2.55 120 2.57  51 2.81  35 2.91  52 2.93
                            29 3.10
  18  0.644  0.709  0.087-  66 1.85  91 2.16  81 2.18 124 2.33  73 2.39  33 2.64   2 2.76
  19  0.648  0.584  0.608-  78 2.15  99 2.16 103 2.28  87 2.34  89 2.36  15 2.74  54 2.83  47 3.01

  20  0.228  0.513  0.355- 109 1.92 111 2.11 106 2.28  84 2.28  16 2.33 107 2.52 113 2.55  46 3.08
                            50 3.12
  21  0.683  0.848  0.794-  78 2.05  65 2.06 126 2.36  83 2.44  79 2.52  43 2.69   2 3.13
  22  0.194  0.041  0.784- 133 2.31 100 2.32 134 2.52  63 2.52  39 3.04
  23  0.325  0.124  0.498- 114 2.20  82 2.37  36 3.09
  24  0.372  0.553  0.004- 119 1.88  91 2.14  76 2.22 123 2.32  49 2.66  54 3.07  52 3.14
  25  0.831  0.435  0.759- 132 2.19  64 2.46 101 2.49  53 2.84   6 2.95  34 2.99  47 3.13
  26  0.125  0.746  0.841- 129 2.06  68 2.31  71 2.37  60 2.39  61 2.54 116 2.54  56 2.54  38 2.75
                            28 2.89  52 3.01  29 3.11
  27  0.131  0.375  0.843- 128 2.03  72 2.18 132 2.39 129 2.43 120 2.49 100 2.52  34 2.61  32 2.75

[...]

  38  0.945  0.782  0.692-  61 1.61  83 1.71  68 1.72  99 2.12  71 2.18  92 2.40  47 2.66  26 2.75
                            43 2.90  28 3.14   5 3.15
  39  0.447  0.021  0.847- 130 1.54  65 1.64  55 1.71 134 1.74  13 2.71   8 2.73   2 2.75  14 2.85
                            51 2.87  22 3.04
  40  0.628  0.054  0.530-  93 1.49 121 1.58  79 1.59 112 2.02  90 2.39  43 2.72  35 3.02  31 3.13

[...]

  46  0.001  0.648  0.363-  67 1.53 111 1.72 105 1.74  92 1.87 109 2.06  47 2.62  33 2.82   5 3.04
                            20 3.08
  47  0.902  0.600  0.559-  74 1.57  92 1.57  87 1.63  99 1.71  46 2.62  38 2.66  29 2.86  19 3.01
                            25 3.13  15 3.15
  48  0.024  0.142  0.279- 117 1.45 108 1.59 102 1.62 135 1.74  44 2.60  37 2.95   4 3.07  41 3.09
                            42 3.14
  49  0.333  0.733  0.140-  88 1.58  91 1.69 123 1.74  97 1.91  24 2.66   2 2.81
  50  0.496  0.510  0.367- 104 1.52 106 1.69  89 1.97  84 2.49  45 2.87   3 3.01  20 3.12
  51  0.395  0.258  0.800-  96 1.53 120 1.57  55 1.67  82 1.71  35 2.77  17 2.81  39 2.87
  52  0.351  0.653  0.754- 116 1.44  56 1.64  57 1.75 119 1.88  17 2.93   1 2.93  54 2.94  29 2.97
                            26 3.01  24 3.14
  53  0.762  0.470  0.991- 124 1.42  95 1.57  64 1.70 131 2.25 122 2.31  25 2.84   7 2.88  54 3.06

[...]

  55  0.391  0.148  0.893-  51 1.67  39 1.71  13 2.29
  56  0.231  0.577  0.751-  52 1.64  29 1.84  26 2.54
  57  0.427  0.592  0.639-  52 1.75  17 2.08
  58  0.823  0.035  0.111-  30 1.81   4 1.92  10 2.01  41 2.34
  59  0.994  0.224  0.525-  42 1.55   6 2.08  16 2.44
  60  0.994  0.810  0.986-  28 1.70  10 2.08  12 2.13  26 2.39
  61  0.908  0.752  0.821-  28 1.56  38 1.61  26 2.54
  62  0.904  0.030  0.553-  42 1.52  43 1.74   5 2.36
  63  0.137  0.026  0.993-  44 1.58  22 2.52
  64  0.845  0.569  0.922-  53 1.70  28 1.72  25 2.46
  65  0.583  0.984  0.852-  39 1.64  21 2.06   8 2.08
  66  0.614  0.682  0.934-  54 1.64  18 1.85   2 2.27
  67  0.037  0.712  0.253-  46 1.53  12 2.22
  68  0.024  0.892  0.753-  38 1.72  26 2.31
  69  0.491  0.333  0.521-  35 1.53  17 2.38
  70  0.454  0.230  0.140-  45 1.58   7 2.07  13 2.11
  71  0.120  0.743  0.638-  29 1.79  38 2.18  26 2.37   1 2.56
  72  0.136  0.424  0.023-  32 1.66   9 2.16  27 2.18
  73  0.848  0.696  0.103-  33 1.59  28 1.94  18 2.39
  74  0.013  0.537  0.604-  47 1.57  29 1.62
  75  0.145  0.951  0.291-  36 1.50  12 2.20   5 2.52
  76  0.351  0.381  0.085-  32 1.71  24 2.22  45 2.23   7 2.48
  77  0.714  0.293  0.255-  31 1.48   3 2.12   4 2.45
  78  0.588  0.722  0.715-  21 2.05  19 2.15  54 2.18
  79  0.679  0.950  0.603-  40 1.59  43 1.74  21 2.52
  80  0.495  0.781  0.500-  14 2.15  11 2.20   1 2.25  15 2.49
  81  0.714  0.872  0.027-  30 1.86  18 2.18  10 2.26
  82  0.323  0.217  0.679-  51 1.71  23 2.37  17 2.55
  83  0.827  0.856  0.643-  43 1.59  38 1.71  21 2.44
  84  0.347  0.357  0.359-  45 1.67  20 2.28  50 2.49
  85  0.689  0.748  0.301-  33 1.71  15 1.99  11 2.48
  86  0.677  0.078  0.245-  41 1.76  31 1.82  30 2.04
  87  0.815  0.492  0.543-  47 1.63  19 2.34   6 2.52
  88  0.297  0.845  0.072-  49 1.58   2 2.45
  89  0.657  0.544  0.409-  50 1.97   3 2.06  19 2.36
  90  0.761  0.927  0.437-  41 1.82  15 2.01  40 2.39
  91  0.462  0.675  0.108-  49 1.69  24 2.14  18 2.16   2 2.37
  92  0.942  0.714  0.497-  47 1.57  46 1.87   5 2.30  38 2.40
  93  0.537  0.999  0.459-  40 1.49  11 2.03
  94  0.501  0.220  0.337-  31 1.58  45 1.73
  95  0.743  0.343  0.951-  53 1.57   7 2.44
  96  0.526  0.257  0.784-  51 1.53  35 1.90   8 2.14
  97  0.332  0.802  0.289-  36 1.80  49 1.91  11 2.42
  98  0.957  0.144  0.959-  34 1.60  44 2.06   4 2.34  10 2.41
  99  0.806  0.675  0.643-  47 1.71  38 2.12  19 2.16  15 2.54
 100  0.059  0.187  0.763-  34 1.66  22 2.32  27 2.52
 101  0.863  0.224  0.744-  34 1.69   6 2.24  25 2.49
 102  0.139  0.135  0.358-  48 1.62
 103  0.654  0.389  0.630-  35 1.68  19 2.28   6 2.53
 104  0.515  0.431  0.265-  50 1.52  45 1.81   3 2.55
 105  0.863  0.624  0.311-  33 1.69  46 1.74   3 2.39
 106  0.394  0.613  0.382-  50 1.69  20 2.28   1 2.43
 107  0.122  0.354  0.253-  37 1.38  16 2.13  20 2.52
 108  0.913  0.077  0.327-  48 1.59  41 1.59
 109  0.086  0.524  0.271-  20 1.92  37 1.96  46 2.06   9 2.48
 110  0.601  0.137  0.054-  30 1.66   8 2.05  13 2.38   7 2.45
 111  0.121  0.628  0.446-  46 1.72  20 2.11  29 2.12
 112  0.707  0.179  0.440-  31 1.75  40 2.02   6 2.29
 113  0.191  0.470  0.567-  29 1.66  17 2.09  16 2.13  20 2.55
 114  0.306  0.937  0.475-  36 1.97  23 2.20   1 2.34  14 2.53
[...]
 121  0.643  0.153  0.621-  40 1.58  35 1.83
 122  0.895  0.479  0.138-  37 1.97   9 2.21  53 2.31   3 2.41
 123  0.231  0.626  0.125-  49 1.74  24 2.32   9 2.36
 124  0.681  0.513  0.072-  53 1.42  18 2.33   3 2.33   7 2.46
 125  0.223  0.200  0.132-  32 1.63  44 1.83
 126  0.834  0.984  0.796-  43 1.57  10 2.18  21 2.36
 127  0.341  0.051  0.249-  36 1.64  13 2.22
 128  0.176  0.245  0.950-  32 1.54  27 2.03  44 2.11
 129  0.078  0.576  0.825-  26 2.06  27 2.43  29 2.46
 130  0.355  0.938  0.895-  39 1.54   2 2.12
 131  0.629  0.469  0.851-  54 1.46  53 2.25
 132  0.934  0.363  0.899-  34 1.62  25 2.19  27 2.39
 133  0.117  0.029  0.601-  42 1.54  22 2.31
 134  0.397  0.048  0.708-  39 1.74  14 2.07  22 2.52
 135  0.955  0.273  0.297-  48 1.74  37 1.82

IMPORTANT INFORMATION: All symmetrisations will be switched off!
NOSYMM: (Re-)initialisation of all symmetry stuff for point group C_1.

Automatic generation of k-mesh.
 generate k-points for:    2    2    2
Space group operators:
 irot       det(A)        alpha          n_x          n_y          n_z        tau_x        tau_y        tau_z
    1     1.000000     0.000001     1.000000     0.000000     0.000000     0.000000     0.000000     0.000000

 Subroutine IBZKPT returns following result:

 Found      8 irreducible k-points:

 Following reciprocal coordinates:
            Coordinates               Weight
  0.000000  0.000000  0.000000      1.000000
  0.500000  0.000000  0.000000      1.000000
  0.000000  0.500000  0.000000      1.000000
  0.500000  0.500000  0.000000      1.000000
  0.000000  0.000000  0.500000      1.000000
  0.500000  0.000000  0.500000      1.000000
  0.000000  0.500000  0.500000      1.000000
  0.500000  0.500000  0.500000      1.000000

 Following cartesian coordinates:
            Coordinates               Weight
  0.000000  0.000000  0.000000      1.000000
  0.042999  0.000000  0.000000      1.000000
  0.000000  0.042999  0.000000      1.000000
  0.042999  0.042999  0.000000      1.000000
  0.000000  0.000000  0.042999      1.000000
  0.042999  0.000000  0.042999      1.000000
  0.000000  0.042999  0.042999      1.000000
  0.042999  0.042999  0.042999      1.000000

 SYSTEM =  unknown system
 POSCAR =  Ca Si  O

 Startparameter for this run:
   NWRITE =      2    write-flag & timer
   PREC   = a         normal or accurate (medium, high low for compatibility)
   ISTART =      0    job   : 0-new  1-cont  2-samecut
[...]
     0.000000000  0.000000000 11.628173330     0.000000000  0.000000000  0.085998030

  length of vectors
    11.628173330 11.628173330 11.628173330     0.085998030  0.085998030  0.085998030

 FORCES acting on ions
    electron-ion (+dipol)            ewald-force                    non-local-force                 convergence-correction
   0.116E+03 0.689E+01 0.123E+03   -.111E+03 -.516E+01 -.129E+03   -.471E+01 -.187E+01 0.285E+01   -.115E-02 -.179E-02 -.524E-03
   0.143E+03 0.880E+01 0.540E+01   -.145E+03 -.632E+01 -.253E+01   0.210E+01 -.189E+01 -.196E+01   -.726E-03 -.116E-02 0.677E-03
   -.209E+02 0.619E+02 -.103E+03   0.219E+02 -.623E+02 0.104E+03   0.462E+00 0.935E+00 -.195E+01   0.262E-05 -.166E-02 0.138E-02
   0.887E+01 -.260E+03 0.767E+01   -.848E+01 0.261E+03 -.801E+01   -.759E+00 0.442E+01 0.415E+00   0.546E-04 0.138E-02 0.215E-02
   -.191E+03 -.225E+02 0.434E+02   0.192E+03 0.212E+02 -.450E+02   0.130E+00 0.175E+00 0.354E+00   0.107E-03 0.160E-03 -.725E-03
   -.348E+02 -.958E+02 0.896E+02   0.337E+02 0.945E+02 -.894E+02   -.956E+00 0.198E+01 -.583E+00   0.130E-02 0.130E-02 -.277E-02
   0.149E+02 -.119E+03 0.402E+02   -.156E+02 0.116E+03 -.382E+02   0.873E+00 0.318E+01 -.261E+01   0.873E-05 0.104E-02 0.173E-02
   -.173E+03 -.114E+03 0.144E+03   0.174E+03 0.115E+03 -.147E+03   0.247E+01 0.863E+00 -.868E+00   0.232E-03 0.126E-02 0.352E-03
   -.834E+02 -.443E+02 0.758E+02   0.878E+02 0.390E+02 -.720E+02   -.262E+01 0.525E+01 -.274E+01   0.241E-02 -.247E-02 0.179E-02
   -.114E+03 -.426E+02 0.525E+02   0.114E+03 0.442E+02 -.554E+02   0.143E+01 -.671E+00 -.175E+00   -.321E-03 0.105E-02 0.124E-02
   0.884E+02 0.191E+02 0.193E+03   -.911E+02 -.200E+02 -.189E+03   0.184E+01 -.118E+00 -.568E+01   0.142E-03 -.211E-03 -.641E-03
   -.122E+03 -.374E+02 -.755E+01   0.124E+03 0.361E+02 0.102E+02   -.103E+01 0.151E+01 -.177E+01   0.533E-03 -.963E-05 0.166E-02
   0.194E+03 0.739E+02 -.595E+02   -.195E+03 -.724E+02 0.683E+02   -.119E+01 -.202E+01 -.628E+01   0.878E-04 0.840E-03 0.124E-02
   0.511E+02 -.651E+02 -.330E+02   -.498E+02 0.655E+02 0.280E+02   0.278E+00 -.137E+01 0.320E+01   -.370E-03 -.259E-03 -.632E-03
   0.685E+02 0.136E+03 0.792E+01   -.698E+02 -.131E+03 -.971E+01   0.733E+00 -.525E+01 0.487E+01   0.216E-03 -.114E-02 -.101E-02
   0.576E+02 0.203E+03 -.201E+03   -.623E+02 -.212E+03 0.203E+03   0.187E+01 0.372E+01 -.370E+00   -.105E-02 -.240E-03 0.273E-03
   -.300E+02 0.156E+03 0.594E+02   0.293E+02 -.155E+03 -.609E+02   0.103E+01 -.293E+01 0.150E+01   -.106E-02 0.317E-03 -.114E-02
   0.404E+02 0.343E+02 -.254E+03   -.400E+02 -.343E+02 0.255E+03   0.689E+00 0.561E+00 0.508E+01   -.104E-02 -.161E-02 0.143E-02
   0.144E+03 0.155E+03 0.479E+02   -.146E+03 -.159E+03 -.499E+02   -.351E+00 0.145E+01 0.277E+00   -.178E-03 -.132E-02 -.150E-02
   -.246E+03 -.404E+02 0.650E+02   0.252E+03 0.478E+02 -.699E+02   -.728E-01 -.538E+01 0.314E+01   -.227E-03 -.805E-03 -.364E-03
   -.110E+01 0.331E+02 -.506E+02   0.172E+01 -.357E+02 0.493E+02   0.185E+01 0.639E+00 0.195E+01   -.329E-03 -.455E-03 -.382E-03
   0.378E+02 0.272E+02 0.323E+02   -.423E+02 -.237E+02 -.331E+02   0.323E+01 -.275E+01 0.111E+01   0.664E-04 0.920E-03 -.710E-03
   0.479E+02 -.146E+03 0.480E+02   -.481E+02 0.142E+03 -.472E+02   0.324E+00 0.435E+01 -.111E+01   -.639E-03 0.205E-02 -.113E-02
   0.124E+03 0.563E+02 -.679E+02   -.128E+03 -.614E+02 0.746E+02   -.147E+00 0.715E+00 -.219E+01   -.340E-03 -.301E-03 0.529E-03
   -.596E+02 0.251E+01 0.110E+03   0.596E+02 -.633E+01 -.108E+03   -.400E+00 0.347E+01 -.279E+01   0.108E-02 -.288E-03 -.131E-02
   -.199E+03 -.105E+03 -.172E+03   0.196E+03 0.105E+03 0.168E+03   0.461E+01 0.209E+01 0.435E+01   0.223E-02 -.316E-02 -.792E-03
   0.909E+00 -.328E+02 0.257E+03   -.187E+01 0.339E+02 -.254E+03   0.106E+01 0.142E+01 -.579E+01   0.494E-04 0.160E-02 -.116E-02
   0.160E+02 0.499E+02 -.363E+02   -.943E+01 -.465E+02 0.280E+02   -.733E+01 -.450E+01 0.996E+01   -.166E-03 -.198E-03 -.831E-04
   -.217E+02 0.102E+01 -.125E+02   0.171E+02 -.459E+01 0.877E+01   0.397E+01 0.437E+01 0.432E+01   -.682E-04 -.506E-03 0.925E-04
   -.356E+02 0.137E+02 0.330E+01   0.254E+02 -.167E+02 -.117E+01   0.104E+02 -.436E+00 0.106E+01   0.366E-04 0.391E-03 0.640E-03
   0.341E+02 -.281E+01 -.545E+02   -.314E+02 0.973E+01 0.549E+02   -.311E+01 -.132E+02 0.434E+01   0.269E-03 0.690E-03 0.876E-04
   -.400E+02 -.401E+02 -.567E+02   0.361E+02 0.351E+02 0.516E+02   0.660E+01 0.832E+01 0.802E+01   -.775E-04 0.427E-03 0.538E-03
   0.599E+00 -.107E+02 0.801E+01   -.196E+01 0.120E+02 -.436E+01   0.185E+01 0.890E+00 0.128E+01   -.898E-04 -.422E-03 0.675E-03
   -.442E+00 0.118E+02 0.283E+02   0.123E+01 -.121E+02 -.324E+02   -.176E+01 -.154E+01 -.561E+00   0.150E-03 0.527E-03 -.103E-03
   0.292E+02 0.426E+02 -.112E+02   -.252E+02 -.282E+02 -.272E+00   0.246E+01 -.140E+02 0.141E+02   -.173E-05 0.279E-03 -.609E-03
   -.335E+02 0.175E+02 -.271E+02   0.283E+02 -.101E+02 0.211E+02   0.115E+02 -.743E+01 0.842E+01   -.163E-03 0.276E-04 0.978E-04
   0.135E+03 -.570E+01 0.786E+02   -.118E+03 0.103E+01 -.658E+02   -.301E+02 0.111E+02 -.156E+02   -.714E-04 -.616E-04 0.924E-03
   -.780E+02 0.512E+02 0.720E+02   0.754E+02 -.370E+02 -.615E+02   0.220E+01 -.988E+01 -.102E+02   0.263E-03 -.769E-03 -.746E-03
   -.878E+01 -.156E+02 0.325E+02   -.613E+00 0.992E+01 -.359E+02   0.665E+01 0.853E+01 -.311E+01   -.616E-04 0.171E-03 0.432E-04
   0.186E+02 -.997E+02 0.279E+02   -.272E+02 0.930E+02 -.276E+02   0.126E+02 0.934E+01 -.277E+01   0.210E-03 0.703E-03 -.510E-03
   0.338E+02 -.970E+01 0.351E+00   -.314E+02 0.764E+01 0.622E+01   -.415E+01 -.246E+01 -.446E+01   0.143E-03 0.694E-03 0.612E-04
   -.795E+02 -.563E+02 0.157E+02   0.808E+02 0.592E+02 -.684E+01   0.238E+01 0.272E+01 -.681E+01   -.988E-04 0.865E-03 -.597E-03
   -.225E+02 -.186E+03 0.297E+01   0.252E+02 0.170E+03 0.540E+01   -.109E+01 0.162E+02 -.996E+01   0.712E-04 0.409E-03 -.742E-03
   -.522E+02 -.244E+02 0.162E+02   0.562E+02 0.125E+02 -.185E+02   0.504E+01 0.132E+02 -.810E+01   -.150E-03 0.612E-03 0.683E-03
   0.813E+02 -.275E+02 -.343E+02   -.779E+02 0.211E+02 0.364E+02   -.419E+01 0.658E+01 0.820E+00   0.226E-03 0.562E-03 0.651E-03
   0.125E+02 0.447E+02 -.507E+02   -.493E+01 -.387E+02 0.376E+02   -.522E+01 -.868E+01 0.122E+02   -.107E-04 -.862E-03 0.108E-03
   -.935E+01 0.787E+02 0.308E+02   0.643E+01 -.829E+02 -.269E+02   -.281E+01 0.134E+01 -.130E+01   0.487E-03 -.732E-03 -.458E-03
   -.761E+02 -.513E+01 -.709E+02   0.762E+02 0.665E+01 0.726E+02   0.273E+01 0.268E+01 0.105E+02   -.360E-03 0.659E-03 0.436E-03
   0.167E+02 0.219E+02 -.803E+02   -.216E+02 -.169E+02 0.729E+02   0.250E+01 -.565E+01 0.121E+02   0.648E-04 -.525E-03 0.268E-03
   0.707E+00 -.230E+02 -.700E+02   -.171E+01 0.265E+02 0.625E+02   0.181E+01 0.185E+01 0.125E+02   0.118E-03 -.494E-03 -.452E-03
   0.492E+02 -.224E+02 0.311E+02   -.489E+02 0.269E+02 -.316E+02   -.649E+01 -.693E+01 -.633E+00   -.545E-04 0.469E-03 -.272E-03
   -.498E+02 0.325E+02 -.853E+02   0.412E+02 -.261E+02 0.703E+02   0.145E+02 -.172E+02 0.125E+02   -.505E-03 -.576E-03 -.622E-04
   -.799E+02 0.201E+02 0.194E+02   0.679E+02 -.228E+02 -.121E+02   0.206E+02 0.527E+00 -.128E+02   -.502E-03 -.379E-03 0.789E-03
   -.215E+02 0.149E+02 0.926E+02   0.230E+02 -.209E+02 -.831E+02   0.536E+00 0.162E+02 -.114E+02   -.380E-03 -.368E-03 0.366E-04
   0.933E+02 -.620E+02 -.259E+02   -.108E+03 0.640E+02 0.456E+02   0.161E+02 -.226E+01 -.182E+02   -.645E-04 0.659E-03 0.108E-03
   -.171E+02 0.882E+02 -.630E+02   0.179E+01 -.105E+03 0.763E+02   0.181E+02 0.163E+02 -.147E+02   -.228E-02 -.125E-03 0.237E-03
   -.660E+02 0.456E+02 0.825E+02   0.803E+02 -.468E+02 -.996E+02   -.153E+02 0.261E+01 0.191E+02   -.704E-03 -.576E-03 -.278E-03
   -.259E+02 0.653E+02 -.680E+02   0.416E+02 -.703E+02 0.742E+02   -.191E+02 0.292E+01 -.478E+01   0.196E-04 0.558E-03 0.111E-02
   -.931E+02 -.101E+03 -.270E+02   0.908E+02 0.128E+03 0.236E+02   0.400E+01 -.257E+02 0.260E+01   0.187E-03 0.153E-02 -.728E-03
   -.127E+03 -.344E+01 -.314E+02   0.140E+03 0.180E+02 0.324E+02   -.125E+02 -.179E+02 -.115E+00   0.102E-02 0.167E-02 0.766E-03
[...]
   0.949E+01 0.101E+03 -.253E+02   -.178E+02 -.900E+02 0.254E+02   0.996E+01 -.150E+02 0.240E+00   -.376E-04 -.106E-02 0.163E-02
   -.130E+02 -.133E+02 -.297E+02   -.341E+01 -.284E+01 0.325E+02   0.191E+02 0.186E+02 -.308E+01   0.266E-03 -.649E-03 0.468E-03
   0.881E+02 0.856E+01 -.848E+02   -.115E+03 0.730E+01 0.111E+03   0.197E+02 -.124E+02 -.182E+02   -.104E-02 -.426E-03 0.158E-02
   -.352E+02 0.507E+02 -.117E+03   0.514E+02 -.660E+02 0.142E+03   -.185E+02 0.137E+02 -.235E+02   -.187E-03 0.772E-03 0.894E-03
   -.571E+02 -.165E+03 -.258E+02   0.693E+02 0.165E+03 0.507E+02   -.145E+02 0.257E+01 -.238E+02   -.352E-03 0.680E-03 -.538E-03
   0.640E+01 -.380E+02 -.714E+02   0.368E+01 0.623E+02 0.625E+02   -.990E+01 -.266E+02 0.106E+02   -.235E-04 0.633E-03 0.505E-03
   -.179E+02 0.102E+03 0.639E+02   0.122E+02 -.122E+03 -.897E+02   0.437E+01 0.153E+02 0.233E+02   -.234E-03 0.686E-03 0.229E-03
   0.690E+02 0.100E+03 -.323E+02   -.686E+02 -.106E+03 0.323E+02   -.441E+01 0.550E+01 0.274E+01   0.198E-02 -.953E-03 -.220E-02
   0.184E+03 0.666E+02 0.180E+01   -.214E+03 -.850E+02 0.936E+01   0.294E+02 0.168E+02 -.105E+02   -.263E-03 -.480E-03 0.276E-03
   0.343E+02 0.100E+03 0.673E+02   -.221E+02 -.143E+03 -.681E+02   -.918E+01 0.378E+02 0.482E+00   -.273E-03 -.268E-03 -.368E-04
   -.372E+02 -.323E+02 -.460E+02   0.320E+02 0.554E+02 0.607E+02   0.780E+01 -.231E+02 -.151E+02   0.357E-03 0.283E-03 -.816E-04
   -.106E+03 -.154E+02 0.102E+02   0.130E+03 -.226E+01 0.571E+01   -.228E+02 0.169E+02 -.174E+02   0.121E-04 0.837E-03 -.888E-03
   0.396E+02 -.580E+02 0.102E+03   -.479E+02 0.700E+02 -.119E+03   0.105E+02 -.140E+02 0.186E+02   -.232E-03 0.424E-03 -.476E-03
   0.104E+03 -.960E+02 -.106E+03   -.123E+03 0.101E+03 0.122E+03   0.165E+02 -.296E+01 -.184E+02   -.750E-03 0.973E-03 0.103E-02
   -.903E+02 -.833E+02 0.330E+02   -.298E-12 -.114E-11 0.824E-12   0.903E+02 0.834E+02 -.330E+02   -.296E-02 -.673E-03 0.359E-02

 POSITION                                       TOTAL-FORCE (eV/Angst)
      3.57255      8.62029      6.07000         0.912322     -0.149569     -2.853459
      5.50496      9.47549     11.16909        -0.060951      0.585753      0.910919
      8.48122      5.51591      3.05588         1.467840      0.486989     -0.250609
      9.68025      2.32303      1.24194        -0.369910      5.324865      0.078308
      0.18611     10.37189      5.28617         0.746157     -1.101946     -1.260844
      9.61338      3.21057      6.53609        -2.070934      0.689356     -0.385048
      6.48339      3.98938      0.57922         0.190617      0.397050     -0.643403
      7.43124      1.75848     10.26256         3.876386      2.557182     -3.139133
      0.48414      6.71666      0.80528         1.841457     -0.070563      0.981730
     10.27776     11.05129     11.31517         1.545241      0.936754     -3.043538
      6.05581     10.16822      3.92028        -0.835032     -0.997015     -1.614971
      0.97408      9.97442      1.61504         1.633346      0.249172      0.916473
      4.75086      0.78446      0.83073        -2.304238     -0.545560      2.536904
      5.12102     10.33588      7.44181         1.593449     -0.992856     -1.778828
      8.21745      8.90713      5.47493        -0.544901     -0.716579      3.072429
      1.46085      4.19027      5.07030        -2.821723     -4.731431      1.220777
      4.08756      4.99574      7.39731         0.366817     -1.517270      0.000474
      7.48710      8.24248      1.01681         1.103463      0.548710      5.458709
      7.53912      6.78546      7.06669        -2.026850     -2.159075     -1.738880
      2.64964      5.96060      4.13240         5.516302      2.086756     -1.723942
      7.93934      9.86635      9.23508         2.467719     -1.960964      0.676492
      2.25322      0.47919      9.11994        -1.252056      0.801086      0.274881
      3.77737      1.43927      5.78650         0.194272     -0.078213     -0.310469
      4.32286      6.43096      0.04494        -4.650170     -4.364286      4.500902
      9.65948      5.06106      8.83011        -0.352745     -0.346262     -0.238493
      1.45325      8.67150      9.78369         1.314952      1.563966      0.147586
      1.52766      4.35808      9.80142         0.102466      2.574302     -3.000283
     10.50433      8.17429     11.00186        -0.799928     -1.098554      1.651220
      1.62326      6.87670      7.24720        -0.619605      0.803445      0.568142
      7.80064      0.18087      0.94800         0.210397     -3.480807      3.192276
      7.37903      2.46846      3.63507        -0.341339     -6.285604      4.757525
      2.60530      3.66123      0.60725         2.694701      3.349072      2.949478
      9.51002      8.55855      2.67779         0.493919      2.160097      4.925667
     11.14035      2.70736      9.93095        -0.969308     -1.887378     -4.695187
      6.44896      3.29761      7.26859         6.453596      0.361455      2.623558
      3.17255     10.97021      3.59576         6.165002     -0.067596      2.420458
      0.20110      4.46834      2.39679       -12.757718      6.402573     -2.752904
     10.98947      9.09670      8.04337        -0.451635      4.325930      0.319327
      5.20110      0.24169      9.84475        -2.737858      2.828882     -6.539921
      7.29935      0.62361      6.15970         4.022923      2.602687     -2.473442
      9.25637      0.09568      3.58448        -1.665263     -4.523953      2.104730
      0.20401      1.09607      6.33507         3.690084      5.656842      2.041267
      9.41615     11.50735      7.70541         1.696452      0.169280     -1.597701
      1.11658      1.53473      0.79193         9.001156      1.287481    -10.426015
      4.89889      3.57807      2.87467        -0.858392      0.181563      2.868541
      0.00649      7.53463      4.21552         2.349836     -2.717331     -0.882912
     10.49219      6.98029      6.50506        -5.732147     -2.856733      2.622064
      0.27964      1.64841      3.24877         2.768786      4.203718     12.233323
      3.87641      8.52900      1.62404        -2.397918     -0.638910      4.747101
      5.76310      5.93415      4.27142         0.809928      5.317203      5.050915
      4.59164      2.99813      9.30580        -6.239848     -2.432384     -1.138898
      4.07602      7.58739      8.76887         5.873869    -10.725262     -2.548433
      8.85534      5.46412     11.52425         8.518988     -2.258816     -5.528434
      6.71278      6.77995      9.77550         2.041806     10.208899     -1.855338
      4.54244      1.72281     10.38036         1.261596     -0.250714      1.536844
      2.69092      6.71157      8.73428         2.748238     -0.861147     -1.477374
      4.95981      6.88160      7.42750        -1.018183      1.368632      2.038390
      9.56860      0.40519      1.28676        -3.415291     -2.056030      1.466356
     11.55306      2.60844      6.10910         1.763756      1.751855     -0.794695
     11.55591      9.42336     11.46703         0.588605     -3.392020      0.893582
[...]
      7.48107      1.78209      7.22588        -2.721361      3.207003      3.378131
     10.40483      5.56886      1.60863         1.687632     -4.260296      0.385754
      2.68460      7.27898      1.44915         2.627826      2.468797     -0.352822
      7.92391      5.96446      0.84177        -7.612132      3.437521      7.688720
      2.59225      2.31985      1.53283        -2.272279     -1.585105      1.365001
      9.69815     11.44330      9.25214        -2.219261      2.576087      1.123831
      3.96390      0.59306      2.89914         0.172042     -2.386129      1.715690
      2.04683      2.84412     11.04989        -1.277447     -4.176842     -2.585693
      0.90391      6.69400      9.58945        -4.054307      0.231557      2.735419
      4.13351     10.91101     10.41217        -0.405765     -1.504514      0.695546
      7.30935      5.45607      9.89604         3.032150     -4.666422     -0.353192
     10.86109      4.21650     10.45216         2.621337     -0.053502     -0.369491
      1.36595      0.33481      6.99391         1.577215     -0.756903     -1.525981
      4.61172      0.55311      8.23621         2.235646     -2.002512      2.009193
     11.10768      3.17549      3.45214        -1.606452      1.686557     -2.007717
    total drift:                               -0.002209      0.025044      0.005957

  FREE ENERGIE OF THE ION-ELECTRON SYSTEM (eV)
  free  energy   TOTEN  =      -887.20308417 eV

  energy  without entropy=     -887.20308417  energy(sigma->0) =     -887.20308417