 vasp.5.4.4.18Apr17-6-g9f103f2a35 (build Mar 16 2023 09:39:13) complex

 executed on             LinuxIFC date 2024.04.30  08:52:22

 INCAR:
 POTCAR:    PAW_PBE Ca_sv 06Sep2000
 POTCAR:    PAW_PBE Si 05Jan2001
 POTCAR:    PAW_PBE O 08Apr2002
 POTCAR:    PAW_PBE Ca_sv 06Sep2000
   VRHFIN =Ca: 3s3p4s

   TITEL  = PAW_PBE Ca_sv 06Sep2000
   POMASS =   40.078; ZVAL   =   10.000    mass and valenz
   ENMAX  =  266.622; ENMIN  =  199.967 eV

   TITEL  = PAW_PBE Si 05Jan2001
   POMASS =   28.085; ZVAL   =    4.000    mass and valenz
   ENMAX  =  245.345; ENMIN  =  184.009 eV

   TITEL  = PAW_PBE O 08Apr2002
   POMASS =   16.000; ZVAL   =    6.000    mass and valenz
   ENMAX  =  400.000; ENMIN  =  300.000 eV

 Optimization of the real space projectors (new method)

 maximal supplied QI-value         = 16.25
 optimisation between [QCUT,QGAM] = [ 12.51, 25.03] = [ 43.85,175.40] Ry
 Optimized for a Real-space Cutoff    1.47 Angstroem

   l    n(q)    QCUT    max X(q) W(low)/X(q) W(high)/X(q)  e(spline)
   0     11    12.514    11.817    0.25E-04    0.32E-05    0.87E-07
   0     11    12.514     8.461    0.39E-04    0.59E-05    0.18E-06
   1     11    12.514     3.957    0.97E-05    0.57E-05    0.28E-07
   1     11    12.514     4.314    0.42E-04    0.14E-04    0.23E-06
   2     10    12.514    14.565    0.79E-04    0.50E-03    0.16E-05
   2     10    12.514    14.552    0.75E-04    0.48E-03    0.15E-05
 Optimization of the real space projectors (new method)

[...]

   l    n(q)    QCUT    max X(q) W(low)/X(q) W(high)/X(q)  e(spline)
   0      9    12.501   159.560    0.10E-03    0.83E-04    0.71E-07
   0      9    12.501   115.863    0.99E-04    0.81E-04    0.70E-07
   1      8    12.501    88.339    0.20E-03    0.25E-03    0.76E-07
   1      8    12.501    48.592    0.20E-03    0.24E-03    0.75E-07
 Optimization of the real space projectors (new method)

 maximal supplied QI-value         = 24.76
 optimisation between [QCUT,QGAM] = [ 12.38, 25.00] = [ 42.90,175.06] Ry
 Optimized for a Real-space Cutoff    1.16 Angstroem

   l    n(q)    QCUT    max X(q) W(low)/X(q) W(high)/X(q)  e(spline)
   0      9    12.378    20.381    0.16E-03    0.67E-05    0.31E-06
   0      9    12.378    15.268    0.17E-03    0.81E-05    0.33E-06
   1      8    12.378     5.964    0.20E-03    0.16E-03    0.30E-06
   1      8    12.378     5.382    0.18E-03    0.14E-03    0.26E-06
  PAW_PBE Ca_sv 06Sep2000               :
  PAW_PBE Si 05Jan2001                  :
  PAW_PBE O 08Apr2002                   :

 POSCAR: Ca Si  O
  positions in direct lattice
 exchange correlation table for  LEXCH =        8
   RHO(1)=    0.500       N(1)  =     2000
   RHO(2)=  100.500       N(2)  =     4000

 ion  position               nearest neighbor table
   1  0.523  0.264  0.416-  81 2.05  95 2.25 110 2.41
   2  0.526  0.283  0.873-  55 2.01 134 2.17  89 2.23  30 2.65  10 3.08
   3  0.947  0.856  0.684- 107 2.04  65 2.07 124 2.26 121 2.37
   4  0.268  0.024  0.430- 118 2.39  78 2.48 127 2.50  38 3.03
   5  0.158  0.528  0.545- 117 2.20 125 2.50 108 2.52  40 2.98
   6  0.662  0.261  0.192-  87 2.53
   7  0.061  0.385  0.106-  91 2.25  88 2.36  73 2.45 129 2.45  85 2.51  52 2.93  39 3.00
   8  0.772  0.430  0.544- 105 2.23  57 2.25
   9  0.345  0.623  0.388- 117 2.23  74 2.29  61 2.37  41 2.71  40 3.09
  10  0.571  0.142  0.696-  89 1.95 113 2.33  43 2.95   2 3.08  32 3.13
  11  0.282  0.632  0.052-  88 2.24  79 2.34 122 2.34 116 2.53  96 2.56  39 3.04
  12  0.812  0.722  0.515-  57 2.25 107 2.45  65 2.50 105 2.54  46 2.96
  13  0.972  0.610  0.806-  99 2.10 123 2.31  60 2.37  42 3.08  46 3.09
  14  0.311  0.514  0.809-  96 2.11  63 2.20  64 2.34 126 2.53 119 2.53 125 2.56  40 2.88
  15  0.705  0.529  0.080-  75 2.24  82 2.28  90 2.49  84 2.57  47 3.13
  16  0.502  0.690  0.718-  59 2.04 104 2.19  40 3.04
  17  0.072  0.602  0.292- 130 2.08 108 2.20  61 2.23  71 2.40  48 2.81
  18  0.270  0.800  0.630-  68 1.84  77 2.35 125 2.47  74 2.51
  19  0.228  0.333  0.404-  78 2.18 102 2.24 108 2.39 117 2.57  54 3.07
  20  0.242  0.141  0.016- 133 2.25  69 2.35  58 2.42  38 2.92  36 2.99
  21  0.587  0.863  0.219- 101 2.08  94 2.40 115 2.41 103 2.43
  22  0.644  0.063  0.008- 114 2.14  55 2.38  37 2.99
  23  0.911  0.749  0.184- 130 2.04  86 2.30 106 2.43  82 2.44  76 2.53  45 2.67
  24  0.072  0.939  0.165-  56 2.08  97 2.16  66 2.49  25 3.12
  25  0.991  0.154  0.214- 133 2.16  97 2.27  85 2.30  38 3.12  24 3.12
  26  0.789  0.727  0.916-  82 2.25  60 2.38  84 2.48  46 2.85
  27  0.915  0.100  0.891-  67 1.98  66 2.35  51 3.15
  28  0.026  0.852  0.429-  86 1.61  93 1.70 107 1.72 118 1.77  41 2.83  29 3.09
  29  0.913  0.039  0.507- 121 1.54  93 1.62  98 1.69  72 2.00  28 3.09
  30  0.724  0.266  0.868- 134 1.58  67 1.58 112 1.68  55 1.71   2 2.65  52 2.96
  31  0.366  0.856  0.001-  80 1.57  70 1.62 120 1.64  79 1.76  44 3.03
  32  0.420  0.045  0.848- 132 1.57 113 1.62  69 1.69  80 1.76  35 2.99  10 3.13
  33  0.716  0.060  0.370-  98 1.59  94 1.61  87 1.66  95 1.67
  34  0.493  0.514  0.966-  90 1.56  63 1.57 122 1.65 119 1.82  84 2.54  47 2.63
  35  0.287  0.064  0.669-  77 1.47 127 1.48 132 1.57 135 1.89  54 2.47  32 2.99
  36  0.393  0.234  0.153-  58 1.57 110 1.63  62 1.68 100 1.73  38 2.86  20 2.99
  37  0.809  0.012  0.152- 114 1.59 103 1.62  97 1.64  87 2.00  22 2.99
  38  0.223  0.129  0.234-  78 1.59 133 1.66  58 1.72  56 1.77  36 2.86  20 2.92   4 3.03  25 3.12

  39  0.275  0.404  0.039- 119 1.65  73 1.65  88 1.70  62 1.72   7 3.00  11 3.04
  40  0.373  0.540  0.604- 125 1.64  59 1.66 126 1.76 117 1.94  14 2.88   5 2.98  16 3.04   9 3.09
                            43 3.12
  41  0.224  0.786  0.387-  74 1.56  61 1.62 131 1.63 118 1.66  44 2.68   9 2.71  28 2.83
  42  0.057  0.404  0.744-  64 1.56 123 1.65 128 1.75  92 1.86  13 3.08
  43  0.460  0.326  0.641-  89 1.54 126 1.64  81 1.75  83 1.84  10 2.95  54 3.04  40 3.12
  44  0.335  0.802  0.219- 116 1.54 101 1.59 131 1.67  79 1.72  41 2.68  31 3.03
  45  0.945  0.597  0.058- 130 1.52  99 1.61  82 1.66  91 1.91  23 2.67
  46  0.760  0.649  0.719- 104 1.66  65 1.70  57 1.70  60 1.73  26 2.85  12 2.96  13 3.09
  47  0.536  0.689  0.047- 115 1.57 120 1.68 122 1.70  84 1.71  34 2.63  15 3.13
  48  1.000  0.415  0.358- 108 1.59 109 1.75  71 1.76  85 1.79  17 2.81
  49  0.200  0.750  0.859-  68 1.63  70 1.63 111 1.65  96 1.65
  50  0.805  0.553  0.318- 105 1.60  76 1.66  75 1.68  71 1.74
  51  0.999  0.885  0.945- 106 1.54 124 1.61  66 1.75 111 1.79  27 3.15
  52  0.905  0.365  0.951- 112 1.58 129 1.64 128 1.70  91 1.78   7 2.93  30 2.96
  53  0.018  0.268  0.542-  92 1.54  72 1.69 102 1.73 109 1.80
  54  0.251  0.237  0.612- 135 1.71  83 1.74 127 1.74 102 1.76  35 2.47  43 3.04  19 3.07
  55  0.640  0.236  0.960-  30 1.71   2 2.01  22 2.38
  56  0.148  0.026  0.270-  38 1.77  24 2.08
  57  0.775  0.586  0.608-  46 1.70  12 2.25   8 2.25
  58  0.336  0.131  0.171-  36 1.57  38 1.72  20 2.42
  59  0.481  0.603  0.594-  40 1.66  16 2.04
  60  0.798  0.577  0.820-  46 1.73  13 2.37  26 2.38
  61  0.175  0.676  0.401-  41 1.62  17 2.23   9 2.37
  62  0.300  0.315  0.130-  36 1.68  39 1.72
  63  0.463  0.556  0.860-  34 1.57  14 2.20
  64  0.172  0.417  0.763-  42 1.56  14 2.34
  65  0.857  0.730  0.697-  46 1.70   3 2.07  12 2.50
  66  0.017  0.004  0.999-  51 1.75  27 2.35  24 2.49
  67  0.791  0.170  0.848-  30 1.58  27 1.98
  68  0.192  0.760  0.737-  49 1.63  18 1.84
  69  0.375  0.152  0.900-  32 1.69  20 2.35
  70  0.294  0.801  0.920-  31 1.62  49 1.63
  71  0.922  0.502  0.295-  50 1.74  48 1.76  17 2.40
  72  0.019  0.147  0.503-  53 1.69  29 2.00
  73  0.189  0.333  0.985-  39 1.65   7 2.45
  74  0.323  0.782  0.450-  41 1.56   9 2.29  18 2.51
  75  0.762  0.474  0.229-  50 1.68  15 2.24
  76  0.795  0.678  0.316-  50 1.66  23 2.53
  77  0.234  0.972  0.638-  35 1.47  18 2.35
  78  0.237  0.184  0.339-  38 1.59  19 2.18   4 2.48
  79  0.294  0.802  0.097-  44 1.72  31 1.76  11 2.34
  80  0.400  0.950  0.937-  31 1.57  32 1.76
  81  0.551  0.340  0.548-  43 1.75   1 2.05
  82  0.830  0.644  0.058-  45 1.66  26 2.25  15 2.28  23 2.44
  83  0.343  0.318  0.568-  54 1.74  43 1.84
  84  0.623  0.654  0.958-  47 1.71  26 2.48  34 2.54  15 2.57
  85  0.027  0.311  0.276-  48 1.79  25 2.30   7 2.51
  86  0.977  0.788  0.339-  28 1.61  23 2.30
  87  0.740  0.099  0.254-  33 1.66  37 2.00   6 2.53
  88  0.203  0.491  0.099-  39 1.70  11 2.24   7 2.36
  89  0.468  0.243  0.721-  43 1.54  10 1.95   2 2.23
  90  0.563  0.431  0.008-  34 1.56  15 2.49
  91  0.919  0.456  0.048-  52 1.78  45 1.91   7 2.25
  92  0.012  0.348  0.625-  53 1.54  42 1.86
  93  0.980  0.971  0.431-  29 1.62  28 1.70
  94  0.644  0.964  0.357-  33 1.61  21 2.40
  95  0.659  0.171  0.378-  33 1.67   1 2.25
  96  0.220  0.628  0.870-  49 1.65  14 2.11  11 2.56
  97  0.924  0.999  0.195-  37 1.64  24 2.16  25 2.27
  98  0.826  0.053  0.416-  33 1.59  29 1.69
  99  0.012  0.613  0.959-  45 1.61  13 2.10
 100  0.482  0.217  0.061-  36 1.73
[...]
 121  0.888  0.009  0.616-  29 1.54   3 2.37
 122  0.453  0.592  0.054-  34 1.65  47 1.70  11 2.34
 123  0.009  0.498  0.679-  42 1.65  13 2.31
 124  0.940  0.914  0.844-  51 1.61   3 2.26
 125  0.287  0.616  0.648-  40 1.64  18 2.47   5 2.50  14 2.56
 126  0.420  0.438  0.674-  43 1.64  40 1.76  14 2.53
 127  0.313  0.127  0.581-  35 1.48  54 1.74   4 2.50
 128  0.972  0.386  0.843-  52 1.70  42 1.75
 129  0.938  0.274  0.026-  52 1.64   7 2.45
 130  0.994  0.623  0.158-  45 1.52  23 2.04  17 2.08
 131  0.222  0.824  0.270-  41 1.63  44 1.67
 132  0.360  0.020  0.750-  32 1.57  35 1.57
 133  0.140  0.164  0.148-  38 1.66  25 2.16  20 2.25
 134  0.659  0.327  0.790-  30 1.58   2 2.17
 135  0.214  0.176  0.719-  54 1.71  35 1.89

IMPORTANT INFORMATION: All symmetrisations will be switched off!
NOSYMM: (Re-)initialisation of all symmetry stuff for point group C_1.

Automatic generation of k-mesh.
 generate k-points for:    2    2    2
Space group operators:
 irot       det(A)        alpha          n_x          n_y          n_z        tau_x        tau_y        tau_z
    1     1.000000     0.000001     1.000000     0.000000     0.000000     0.000000     0.000000     0.000000

 Subroutine IBZKPT returns following result:

 Found      8 irreducible k-points:

 Following reciprocal coordinates:
            Coordinates               Weight
  0.000000  0.000000  0.000000      1.000000
  0.500000  0.000000  0.000000      1.000000
  0.000000  0.500000  0.000000      1.000000
  0.500000  0.500000  0.000000      1.000000
  0.000000  0.000000  0.500000      1.000000
  0.500000  0.000000  0.500000      1.000000
  0.000000  0.500000  0.500000      1.000000
  0.500000  0.500000  0.500000      1.000000

 Following cartesian coordinates:
            Coordinates               Weight
  0.000000  0.000000  0.000000      1.000000
  0.037563  0.000000  0.000000      1.000000
  0.000000  0.037563  0.000000      1.000000
  0.037563  0.037563  0.000000      1.000000
  0.000000  0.000000  0.037563      1.000000
  0.037563  0.000000  0.037563      1.000000
  0.000000  0.037563  0.037563      1.000000
  0.037563  0.037563  0.037563      1.000000

 SYSTEM =  unknown system
 POSCAR =  Ca Si  O

[...]
     0.000000000  0.000000000 13.310935620     0.000000000  0.000000000  0.075126199

  length of vectors
    13.310935620 13.310935620 13.310935620     0.075126199  0.075126199  0.075126199

 FORCES acting on ions
    electron-ion (+dipol)            ewald-force                    non-local-force                 convergence-correction
   -.942E+02 0.540E+02 0.173E+02   0.989E+02 -.553E+02 -.200E+02   -.453E+01 0.106E+00 -.676E-01   -.203E-03 -.133E-02 0.180E-03
   0.927E+02 -.372E+02 0.593E+02   -.909E+02 0.374E+02 -.527E+02   -.525E+01 0.123E+01 -.335E+01   0.516E-03 0.563E-03 -.857E-04
   0.543E+02 -.259E+03 -.379E+02   -.577E+02 0.260E+03 0.380E+02   0.389E+01 0.115E+01 0.167E+01   -.131E-02 -.446E-03 -.295E-03
   -.365E+03 0.258E+02 -.947E+02   0.358E+03 -.252E+02 0.934E+02   0.508E+01 -.764E+00 0.942E+00   0.888E-03 -.874E-03 -.197E-03
   0.156E+03 -.883E+02 -.863E+02   -.155E+03 0.885E+02 0.875E+02   -.255E+01 0.356E+00 0.320E-01   -.296E-03 0.458E-03 0.248E-03
   -.173E+02 -.101E+03 -.158E+03   0.143E+02 0.978E+02 0.159E+03   0.202E+01 0.298E+01 -.901E+00   0.866E-03 -.178E-05 -.725E-03
   0.934E+01 0.922E+02 -.339E+02   -.931E+01 -.939E+02 0.307E+02   0.575E+00 0.722E+00 0.293E+01   -.182E-03 0.418E-03 -.482E-03
   0.265E+03 0.294E+03 -.267E+02   -.261E+03 -.283E+03 0.257E+02   -.305E+01 -.932E+01 0.130E+01   0.247E-03 0.100E-02 0.669E-03
   -.524E+03 0.901E+02 0.799E+02   0.523E+03 -.882E+02 -.800E+02   0.324E+01 -.188E+01 -.107E+01   0.133E-03 0.148E-02 0.281E-03
   -.371E+03 0.394E+03 0.415E+03   0.371E+03 -.392E+03 -.408E+03   0.361E+01 -.357E+01 -.674E+01   0.241E-03 -.149E-02 -.686E-03
   0.391E+02 -.155E+02 -.884E+02   -.377E+02 0.128E+02 0.891E+02   -.124E+01 0.239E+01 -.905E+00   -.286E-03 -.469E-03 -.153E-03
   0.403E+03 -.242E+03 0.753E+02   -.398E+03 0.235E+03 -.756E+02   -.327E+01 0.559E+01 -.113E+01   -.148E-02 0.150E-02 0.469E-03
   -.166E+02 -.596E+02 0.184E+03   0.141E+02 0.543E+02 -.183E+03   0.220E+01 0.445E+01 -.228E+01   -.758E-03 0.881E-04 0.532E-03
   -.319E+02 0.109E+03 0.842E+02   0.293E+02 -.107E+03 -.801E+02   0.152E+01 -.280E+01 -.330E+01   0.416E-03 0.253E-03 0.494E-03
   0.165E+03 0.141E+03 -.144E+03   -.164E+03 -.137E+03 0.145E+03   -.116E+01 -.291E+01 -.134E+01   0.493E-03 0.182E-03 -.783E-03
   -.158E+03 -.385E+03 0.139E+03   0.167E+03 0.378E+03 -.137E+03   -.673E+01 0.681E+01 0.124E+01   0.108E-02 0.134E-02 -.438E-03
   -.969E+02 -.501E+02 -.536E+02   0.941E+02 0.504E+02 0.538E+02   0.259E+01 0.803E+00 -.323E-01   -.320E-03 0.275E-03 -.747E-03
   -.289E+03 -.218E+03 0.929E+02   0.284E+03 0.219E+03 -.921E+02   0.634E+01 0.475E+00 -.402E+01   0.156E-02 0.217E-03 -.750E-03
   -.245E+03 0.155E+02 0.133E+03   0.242E+03 -.174E+02 -.133E+03   0.281E+01 0.255E+01 -.764E+00   -.272E-03 -.215E-03 -.448E-03
   0.545E+02 0.198E+03 0.274E+03   -.534E+02 -.192E+03 -.275E+03   -.119E+01 -.498E+01 -.941E+00   -.670E-03 0.261E-03 0.508E-03
   -.323E+02 -.678E+02 -.224E+03   0.346E+02 0.650E+02 0.226E+03   0.139E+00 0.190E+01 -.168E+01   0.329E-03 0.162E-05 0.140E-02
   0.117E+03 0.262E+03 0.156E+02   -.114E+03 -.255E+03 -.191E+02   -.447E+01 -.561E+01 0.202E+01   0.460E-03 -.384E-03 0.254E-04
   0.227E+03 -.233E+03 -.112E+03   -.233E+03 0.233E+03 0.113E+03   0.148E+01 0.342E+01 -.216E+00   -.112E-03 -.229E-03 -.231E-03
   -.982E+02 0.107E+03 0.110E+03   0.947E+02 -.101E+03 -.110E+03   0.289E+01 -.646E+01 -.179E+01   -.185E-03 -.142E-03 0.238E-03
   0.278E+03 -.835E+02 -.117E+03   -.276E+03 0.839E+02 0.116E+03   -.342E+01 0.291E+00 0.122E+01   -.278E-03 -.250E-03 -.272E-03
   0.223E+03 -.366E+03 0.140E+03   -.225E+03 0.359E+03 -.137E+03   0.103E+01 0.658E+01 -.254E+01   -.189E-03 -.382E-03 -.401E-03
   -.901E+02 -.285E+01 0.320E+03   0.872E+02 0.542E+00 -.315E+03   0.467E+01 0.780E+00 -.294E+01   -.226E-03 0.620E-04 0.262E-03
   0.120E+02 -.112E+02 -.700E+02   -.229E+02 0.102E+02 0.686E+02   0.788E+01 0.309E+01 0.329E+01   -.210E-03 0.433E-04 -.587E-04
   0.107E+03 -.101E+03 -.893E+02   -.109E+03 0.894E+02 0.950E+02   0.352E+01 0.123E+02 -.928E+01   -.466E-03 -.471E-03 -.328E-03
   -.645E+02 0.439E+02 0.926E+02   0.623E+02 -.443E+02 -.942E+02   0.300E+01 0.166E+01 0.489E+01   0.233E-03 0.288E-03 0.163E-03
   -.488E+02 -.135E+03 -.450E+01   0.498E+02 0.129E+03 -.235E+01   -.197E+01 0.231E+01 0.722E+01   0.913E-04 -.185E-03 -.609E-04
   -.301E+02 0.997E+02 0.325E+02   0.319E+02 -.894E+02 -.309E+02   -.168E+01 -.721E+01 0.495E+01   0.268E-03 -.516E-03 -.441E-03
   0.843E+02 0.337E+02 -.175E+03   -.880E+02 -.351E+02 0.169E+03   0.899E+00 0.181E+01 0.376E+01   0.128E-03 -.821E-03 0.339E-03
   -.940E+02 0.156E+02 0.838E+01   0.952E+02 -.187E+02 -.830E+01   -.294E+01 0.233E+01 0.786E+00   0.173E-04 0.600E-04 -.183E-03
   -.150E+02 0.237E+02 -.554E+02   0.104E+02 -.347E+02 0.478E+02   0.125E+01 0.118E+02 0.158E+02   0.591E-03 -.282E-03 -.224E-03
   -.945E+02 -.430E+01 -.558E+02   0.101E+03 0.535E+01 0.545E+02   -.937E+00 0.310E+01 -.151E+01   -.315E-03 0.250E-04 -.211E-03
   0.877E+02 -.311E+02 -.370E+02   -.856E+02 0.227E+02 0.327E+02   -.199E+01 0.667E+01 0.759E+01   0.848E-04 -.141E-03 0.184E-03
   -.100E+03 0.484E+02 -.277E+02   0.927E+02 -.454E+02 0.300E+02   0.381E+01 -.445E+01 -.316E+01   -.109E-03 -.167E-03 -.888E-04
   -.660E+02 0.174E+02 -.739E+01   0.583E+02 -.201E+02 0.568E+01   0.532E+01 0.121E+01 0.251E+01   -.892E-04 0.258E-03 -.243E-04
   -.111E+03 0.693E+01 0.883E+02   0.114E+03 0.257E+01 -.861E+02   -.884E+00 -.106E+02 -.443E+01   0.255E-03 0.379E-03 0.343E-03
   -.565E+02 -.389E+02 -.398E+02   0.590E+02 0.380E+02 0.426E+02   -.536E+01 0.194E+01 -.264E+01   0.256E-03 0.266E-03 0.762E-04
   0.489E+02 0.148E+03 -.326E+02   -.422E+02 -.135E+03 0.301E+02   -.107E+02 -.115E+02 0.153E+01   -.695E-04 0.119E-03 0.446E-03
   -.107E+03 0.142E+02 0.749E+02   0.108E+03 -.144E+02 -.729E+02   -.110E+01 0.507E+01 -.764E+01   -.639E-04 -.231E-04 0.425E-03
   -.624E+02 -.103E+03 -.747E+02   0.721E+02 0.946E+02 0.726E+02   -.877E+01 0.915E+01 -.226E+00   -.244E-04 0.231E-03 0.295E-03
   0.188E+02 0.472E+02 0.367E+02   -.157E+02 -.410E+02 -.396E+02   -.572E+01 -.969E+01 -.374E+01   -.101E-03 -.316E-04 -.271E-04
   0.131E+03 -.496E+01 0.741E+02   -.128E+03 0.466E+01 -.725E+02   -.143E+01 -.196E+01 -.884E+00   -.261E-03 0.404E-03 0.405E-04
   -.266E+02 -.676E+02 0.103E+02   0.374E+02 0.652E+02 -.331E+01   -.865E+01 0.220E+01 -.746E+01   0.141E-03 -.133E-03 -.274E-03
   0.125E+03 0.667E+02 -.398E+02   -.120E+03 -.683E+02 0.367E+02   -.854E+01 -.257E+01 0.328E+00   -.887E-04 0.168E-03 -.313E-03
   0.102E+02 -.754E+02 0.385E+02   -.106E+02 0.726E+02 -.409E+02   -.932E+00 0.229E+01 0.248E+01   0.261E-04 -.239E-03 0.191E-03
   0.209E+03 0.313E+02 -.381E+02   -.207E+03 -.268E+02 0.433E+02   -.102E+01 -.327E+01 -.670E+01   0.768E-04 0.300E-03 -.187E-03
   -.388E+02 -.716E+02 0.695E+02   0.288E+02 0.703E+02 -.679E+02   0.128E+02 0.390E+01 -.296E+01   -.167E-03 -.230E-03 0.140E-03
   0.637E+01 0.439E+02 0.598E+02   -.106E+02 -.508E+02 -.562E+02   0.594E+01 0.751E+01 -.191E+01   -.128E-03 0.210E-03 0.133E-03
   0.153E+03 0.139E+03 -.353E+02   -.152E+03 -.135E+03 0.423E+02   -.661E+00 -.532E+01 -.104E+02   -.420E-04 -.883E-04 -.490E-04
   0.126E+02 0.168E+02 -.462E+02   -.125E+02 -.200E+02 0.486E+02   -.147E+01 0.423E+01 -.202E+01   0.167E-03 -.604E-04 -.868E-04
   -.855E+02 0.590E+02 -.125E+03   0.735E+02 -.604E+02 0.145E+03   0.152E+02 -.191E+00 -.198E+02   0.331E-03 0.349E-03 -.124E-03
   -.664E+02 0.204E+02 -.105E+03   0.553E+02 -.329E+02 0.115E+03   0.147E+02 0.144E+02 -.975E+01   0.191E-04 -.142E-03 -.501E-05
   0.184E+03 0.577E+02 0.462E+02   -.179E+03 -.684E+02 -.633E+02   -.707E+01 0.110E+02 0.189E+02   -.342E-03 0.852E-03 0.356E-03
   -.204E+03 0.208E+03 -.813E+02   0.214E+03 -.234E+03 0.767E+02   -.139E+02 0.227E+02 0.590E+01   -.308E-03 -.249E-03 0.260E-03
   -.278E+03 -.897E+02 0.241E+03   0.303E+03 0.967E+02 -.249E+03   -.274E+02 -.795E+01 0.572E+01   0.427E-03 0.129E-02 0.149E-03
   0.140E+03 0.152E+03 0.707E+02   -.140E+03 -.173E+03 -.542E+02   -.777E+00 0.236E+02 -.179E+02   -.284E-03 -.110E-04 0.984E-04
[...]
   -.719E+02 0.298E+02 -.199E+03   0.523E+02 -.345E+02 0.221E+03   0.204E+02 0.688E+01 -.219E+02   -.859E-04 -.166E-03 -.234E-03
   0.126E+03 -.556E+02 0.999E+02   -.140E+03 0.699E+02 -.117E+03   0.158E+02 -.114E+02 0.182E+02   -.147E-03 0.185E-03 0.397E-03
   0.126E+03 -.131E+03 0.153E+03   -.140E+03 0.138E+03 -.174E+03   0.129E+02 -.632E+01 0.194E+02   -.415E-03 -.237E-03 -.399E-04
   -.322E+02 -.113E+03 0.188E+02   0.122E+02 0.131E+03 -.681E+01   0.208E+02 -.200E+02 -.123E+02   0.462E-03 0.352E-03 0.614E-04
   -.165E+03 -.318E+01 0.169E+02   0.167E+03 0.120E+02 0.797E+00   -.341E+01 -.714E+01 -.173E+02   0.199E-03 0.369E-03 0.463E-03
   -.201E+03 0.887E+02 0.129E+03   0.219E+03 -.830E+02 -.160E+03   -.153E+02 -.927E+00 0.236E+02   0.855E-03 -.715E-03 -.393E-03
   0.241E+02 0.153E+03 0.103E+03   -.296E+02 -.151E+03 -.108E+03   0.711E+01 -.232E+01 0.405E+01   -.135E-03 0.123E-03 0.357E-03
   0.531E+02 0.171E+03 0.334E+01   -.494E+02 -.192E+03 0.131E+02   -.298E+01 0.203E+02 -.175E+02   0.357E-04 0.231E-03 0.592E-04
   -.864E+02 0.152E+02 0.135E+01   0.101E+03 -.129E+02 0.213E+02   -.111E+02 -.249E+01 -.202E+02   0.140E-03 -.851E-04 -.239E-03
   -.291E+02 -.767E+02 0.563E+02   0.572E+01 0.908E+02 -.725E+02   0.245E+02 -.145E+02 0.155E+02   0.186E-04 0.110E-03 0.110E-03
   -.102E+03 0.159E+03 0.737E+02   0.102E+03 -.180E+03 -.774E+02   0.202E+01 0.200E+02 0.301E+01   0.940E-03 -.725E-03 -.797E-03
   0.267E+02 -.207E+02 0.947E+02   -.426E+02 0.299E+02 -.111E+03   0.173E+02 -.900E+01 0.164E+02   -.159E-03 0.740E-04 0.104E-04
   -.109E+03 -.942E+02 0.297E+03   0.991E+02 0.118E+03 -.318E+03   0.878E+01 -.244E+02 0.173E+02   0.192E-03 0.375E-03 0.299E-03
   0.168E+03 0.534E+02 -.167E+03   -.186E+03 -.517E+02 0.197E+03   0.191E+02 -.189E+01 -.327E+02   0.246E-03 -.885E-04 -.703E-04
   -.464E+01 -.245E+02 0.331E+02   -.568E-12 -.497E-12 0.568E-13   0.463E+01 0.245E+02 -.331E+02   0.156E-02 0.146E-02 -.916E-03

 POSITION                                       TOTAL-FORCE (eV/Angst)
      6.96585      3.52054      5.54308         0.151448     -1.282849     -2.745129
      6.99803      3.76969     11.62610        -3.400059      1.377149      3.307118
     12.60336     11.38844      9.10798         0.546490      2.251349      1.748161
      3.57269      0.31950      5.72195        -1.776592     -0.192844     -0.428809
      2.09658      7.02159      7.25324        -1.827182      0.518434      1.225499
      8.81638      3.47564      2.56004        -0.885833     -0.669387     -0.136474
      0.80755      5.12230      1.41091         0.608338     -1.033367     -0.224758
     10.27640      5.72010      7.23554         0.875084      1.901899      0.369974
      4.58915      8.29141      5.17044         1.405571     -0.023180     -1.165243
      7.59872      1.89023      9.26391         3.413971     -2.263924      0.353916
      3.74975      8.41281      0.69787         0.121822     -0.318688     -0.201377
     10.80773      9.60929      6.85707         0.916132     -1.349177     -1.423100
     12.94030      8.11836     10.72742        -0.315393     -0.823436     -1.031930
      4.13833      6.84459     10.77486        -1.119984     -1.108494      0.841929
      9.38343      7.03822      1.06789        -0.197942      0.756051     -0.575049
      6.67717      9.19043      9.55547         1.883912     -0.362488      2.738986
      0.95422      8.01940      3.88351        -0.219548      1.036972      0.182484
      3.59840     10.64671      8.38894         1.443038      1.508365     -3.260928
      3.03695      4.43913      5.38095         0.258910      0.619079     -1.269637
      3.22126      1.88207      0.20706        -0.083407      1.886099     -1.886096
      7.81411     11.49343      2.91112         2.502752     -0.919522      0.472389
      8.57692      0.83997      0.10962        -0.973069      1.530434     -1.463905
     12.12776      9.97384      2.45218        -4.103132      3.083248      0.938835
      0.95310     12.50110      2.19873        -0.654707     -0.851125     -1.314084
     13.19700      2.05120      2.84473        -0.679023      0.720419      0.298199
     10.50140      9.67710     12.19299        -0.948141     -0.387619      0.961891
     12.17945      1.32733     11.86334         1.763363     -1.524360      1.706080
      0.35031     11.34577      5.71096        -3.078177      2.139263      1.881913
     12.15824      0.52234      6.75036         1.680829      0.892175     -3.506358
      9.63849      3.54300     11.55064         0.806128      1.300695      3.296461
      4.87465     11.39143      0.00863        -0.936484     -4.147867      0.372054
      5.59112      0.60462     11.29271         0.105072      3.027731      6.579137
      9.53444      0.80397      4.92540        -2.744256      0.416232     -2.750159
      6.55850      6.84825     12.85658        -1.719102     -0.692975      0.862899
      3.81359      0.85851      8.90041        -3.275186      0.840215      8.229650
      5.23383      3.11074      2.04274         5.902021      4.155137     -2.787082
     10.77040      0.16310      2.02259         0.115771     -1.661273      3.223907
      2.97453      1.72030      3.10824        -3.555615     -1.463082     -0.775454
      3.65803      5.37707      0.52343        -2.333107     -1.453961      0.801910
      4.97076      7.18989      8.03500         1.967903     -1.096601     -2.230635
      2.98210     10.46836      5.14935        -2.803793      0.984135      0.146079
      0.76039      5.37142      9.90951        -3.993474      1.342729     -1.009254
      6.11762      4.33497      8.53558        -0.389170      4.815916     -5.608060
      4.45460     10.67408      2.91749         0.982285      1.095958     -2.390099
     12.58245      7.94945      0.77545        -2.656311     -3.536463     -6.570078
     10.11930      8.63776      9.56681         1.363691     -2.263502      0.692613
      7.13762      9.17222      0.62188         2.131566     -0.242582     -0.461088
     13.30987      5.52583      4.76313        -3.809850     -4.235906     -2.707116
      2.66239      9.98571     11.43152        -1.300275     -0.585480      0.080026
     10.71103      7.36109      4.23370         0.615421      1.232898     -1.568011
     13.30013     11.78468     12.57910         2.760939      2.518389     -1.321494
     12.05171      4.86336     12.65445         1.707890      0.563943      1.633590
      0.23878      3.56188      7.21700         0.308678     -1.787620     -3.454427
      3.33709      3.16049      8.15147        -1.381401      1.036954      0.364746
      8.52081      3.13565     12.78079         3.151604     -1.598125      0.282085
      1.97266      0.34339      3.59279         3.580178      1.832044      0.587331
     10.31218      7.80191      8.09831        -2.003112      0.360266      1.861776
      4.47700      1.75001      2.27537        -3.132511     -3.921499      1.298190
      6.39860      8.02466      7.90227        -2.035049     -0.879594     -1.837652
     10.62017      7.67448     10.91128         0.103770      2.575141     -1.419021
[...]
     11.82145      0.11595      8.19305        -0.581532     -0.074549      1.482553
      6.03091      7.88401      0.71973         0.861317      2.214673      0.283307
      0.11958      6.62375      9.03826         1.352010      2.868770      1.300615
     12.51359     12.16180     11.23126        -0.755296      0.269579     -0.909381
      3.81770      8.19736      8.62553         0.813665     -1.718735     -0.356281
      5.58587      5.82808      8.97220        -0.892683      1.691813      0.445695
      4.16116      1.68755      7.72824         3.120268      4.773115     -8.067763
     12.94097      5.13579     11.22707         1.681756     -0.214005     -0.714497
     12.47996      3.64441      0.34704         0.659734     -0.585119     -0.979511
     13.23403      8.29168      2.10350         3.054684     -0.163448      2.379088
      2.95493     10.96603      3.59740         1.140363     -0.433680     -0.812472
      4.79664      0.26971      9.97982         2.029209     -0.892491     -0.680966
      1.85951      2.18573      1.97218         1.392397      0.250545     -0.238763
      8.76787      4.35581     10.51912        -1.319309     -0.994946     -3.173222
      2.85464      2.33861      9.57370         1.603454     -0.170739     -2.240526
    total drift:                                0.000920     -0.029396      0.037834

  FREE ENERGIE OF THE ION-ELECTRON SYSTEM (eV)
  free  energy   TOTEN  =      -935.00565497 eV

  energy  without entropy=     -935.00565497  energy(sigma->0) =     -935.00565497