 vasp.5.4.4.18Apr17-6-g9f103f2a35 (build Oct 31 2019 15:01:46) complex

 executed on             LinuxIFC date 2024.04.30  00:42:56

 INCAR:
 POTCAR:    PAW_PBE Ca_sv 06Sep2000
 POTCAR:    PAW_PBE Si 05Jan2001
 POTCAR:    PAW_PBE O 08Apr2002
 POTCAR:    PAW_PBE Ca_sv 06Sep2000
   VRHFIN =Ca: 3s3p4s

   TITEL  = PAW_PBE Ca_sv 06Sep2000
   POMASS =   40.078; ZVAL   =   10.000    mass and valenz
   ENMAX  =  266.622; ENMIN  =  199.967 eV

   TITEL  = PAW_PBE Si 05Jan2001
   POMASS =   28.085; ZVAL   =    4.000    mass and valenz
   ENMAX  =  245.345; ENMIN  =  184.009 eV

   TITEL  = PAW_PBE O 08Apr2002
   POMASS =   16.000; ZVAL   =    6.000    mass and valenz
   ENMAX  =  400.000; ENMIN  =  300.000 eV

 Optimization of the real space projectors (new method)

 maximal supplied QI-value         = 16.25
 optimisation between [QCUT,QGAM] = [ 12.51, 25.03] = [ 43.85,175.40] Ry
 Optimized for a Real-space Cutoff    1.47 Angstroem

   l    n(q)    QCUT    max X(q) W(low)/X(q) W(high)/X(q)  e(spline)
   0     11    12.514    11.817    0.25E-04    0.32E-05    0.87E-07
   0     11    12.514     8.461    0.39E-04    0.59E-05    0.18E-06
   1     11    12.514     3.957    0.97E-05    0.57E-05    0.28E-07
   1     11    12.514     4.314    0.42E-04    0.14E-04    0.23E-06
   2     10    12.514    14.565    0.79E-04    0.50E-03    0.16E-05
   2     10    12.514    14.552    0.75E-04    0.48E-03    0.15E-05
 Optimization of the real space projectors (new method)

[...]

   l    n(q)    QCUT    max X(q) W(low)/X(q) W(high)/X(q)  e(spline)
   0      9    12.501   159.560    0.10E-03    0.83E-04    0.71E-07
   0      9    12.501   115.863    0.99E-04    0.81E-04    0.70E-07
   1      8    12.501    88.339    0.20E-03    0.25E-03    0.76E-07
   1      8    12.501    48.592    0.20E-03    0.24E-03    0.75E-07
 Optimization of the real space projectors (new method)

 maximal supplied QI-value         = 24.76
 optimisation between [QCUT,QGAM] = [ 12.38, 25.00] = [ 42.90,175.06] Ry
 Optimized for a Real-space Cutoff    1.16 Angstroem

   l    n(q)    QCUT    max X(q) W(low)/X(q) W(high)/X(q)  e(spline)
   0      9    12.378    20.381    0.16E-03    0.67E-05    0.31E-06
   0      9    12.378    15.268    0.17E-03    0.81E-05    0.33E-06
   1      8    12.378     5.964    0.20E-03    0.16E-03    0.30E-06
   1      8    12.378     5.382    0.18E-03    0.14E-03    0.26E-06
  PAW_PBE Ca_sv 06Sep2000               :
  PAW_PBE Si 05Jan2001                  :
  PAW_PBE O 08Apr2002                   :

 POSCAR: Ca Si  O
  positions in direct lattice
 exchange correlation table for  LEXCH =        8
   RHO(1)=    0.500       N(1)  =     2000
   RHO(2)=  100.500       N(2)  =     4000

 ion  position               nearest neighbor table
   1  0.339  0.211  0.382-  86 2.04  60 2.16  74 2.43  85 2.45  50 2.94   7 3.04
   2  0.441  0.385  0.569-  91 2.33  62 2.40 120 2.50
   3  0.046  0.785  0.099-  84 1.87 118 2.25 134 2.47 117 2.50  32 2.53  15 2.61  43 2.96  51 2.97

   4  0.741  0.845  0.096- 134 1.98 122 2.19 107 2.50  92 2.51  73 2.52  58 2.52  39 2.79  46 3.03

[...]

  24  0.854  0.161  0.538- 124 2.03 115 2.06  83 2.27  18 2.63  41 2.82
  25  0.193  0.940  0.588- 106 2.00 119 2.29  77 2.44 123 2.57  28 2.99
  26  0.112  0.405  0.409-  82 2.17  97 2.38 103 2.39  44 2.90
  27  0.495  0.377  0.191- 135 2.11  90 2.22 108 2.26 120 2.37  74 2.46  45 2.84
  28  0.972  0.913  0.481-  57 1.58  89 1.79 106 1.84 114 2.07 127 2.55  43 2.56  33 2.83  18 2.94
                            25 2.99
  29  0.743  0.305  0.299- 108 1.64  94 1.66  96 1.73 115 1.78  41 2.50  44 2.73  47 2.84
  30  0.263  0.497  0.182-  87 1.55  97 1.63 125 1.95  74 2.14 117 2.15   5 2.98  40 3.09
  31  0.690  0.307  0.763-  61 1.55 131 1.72  64 1.80  65 1.91  38 2.48  55 2.51
  32  0.982  0.975  0.157-  81 1.47 134 1.59 102 1.70  84 1.92 118 2.24   3 2.53  43 2.75   7 3.09
                            18 3.15
  33  0.901  0.700  0.548- 105 1.50 127 1.64  89 1.85 104 1.87  19 2.68  28 2.83  23 2.95
  34  0.118  0.399  0.703- 103 1.46 128 1.83  70 1.89  48 2.62  12 2.92
  35  0.958  0.192  0.965- 126 1.53  93 1.63  78 1.68  10 2.99
  36  0.955  0.688  0.871- 101 1.54  99 1.54  71 1.67  92 1.99  51 2.86  19 3.15
  37  0.440  0.527  0.976-  68 1.54 132 1.64 135 1.70 125 1.76  90 2.41  38 2.56  12 3.05
  38  0.524  0.414  0.818- 133 1.47  65 1.51  55 1.62 132 1.78  31 2.48  37 2.56
  39  0.585  0.680  0.136- 122 1.58  67 1.64  58 1.65 135 2.18   4 2.79
  40  0.437  0.575  0.351-  87 1.60 120 1.70 116 1.74  67 1.97 113 2.09  42 2.88  17 2.98  30 3.09

[...]

  42  0.346  0.701  0.531- 116 1.45  80 1.53 119 1.65  62 1.98  77 2.01  14 2.70  40 2.88  17 3.03
                            20 3.10
  43  0.915  0.814  0.303- 107 1.50 114 1.73 102 1.86 127 1.96  28 2.56  32 2.75   3 2.96
  44  0.922  0.440  0.268-  98 1.52  82 1.65  94 1.67  76 1.78  29 2.73  26 2.90  11 2.92   5 3.02

[...]

  50  0.545  0.082  0.385-  56 1.51  66 1.57 112 1.72  60 1.73  47 2.90   1 2.94  53 3.00
  51  0.068  0.895  0.880-  71 1.56 118 1.64 123 1.70 129 1.70  36 2.86  52 2.92   3 2.97
  52  0.858  0.989  0.808- 129 1.51  83 1.65  78 1.66  73 1.79  95 2.38  46 2.84  51 2.92   6 3.10

  53  0.448  0.021  0.165-  75 1.59 109 1.71  63 2.15  72 2.21 112 2.42  66 2.47  47 2.64  45 2.90
                            50 3.00
  54  0.428  0.099  0.641-  59 1.85 110 1.90  60 1.97  85 2.18
  55  0.486  0.287  0.795-  38 1.62   8 2.38  31 2.51
  56  0.661  0.040  0.406-  50 1.51   9 2.47
  57  0.847  0.951  0.482-  28 1.58   9 2.47
  58  0.567  0.756  0.025-  39 1.65  49 1.76   4 2.52
  59  0.549  0.018  0.692-  54 1.85   9 2.34  22 2.35
  60  0.464  0.139  0.487-  50 1.73  54 1.97   1 2.16
  61  0.785  0.385  0.801-  31 1.55  13 2.30  23 2.35
  62  0.320  0.543  0.560-  42 1.98   2 2.40
  63  0.354  0.885  0.231-  20 2.07  53 2.15
  64  0.672  0.278  0.619-  31 1.80  41 1.83
  65  0.634  0.401  0.877-  38 1.51  31 1.91  13 2.13
  66  0.463  0.983  0.365-  50 1.57  17 2.17  53 2.47
  67  0.476  0.648  0.212-  39 1.64  40 1.97
  68  0.434  0.646  0.932-  37 1.54  49 1.80  14 2.44
  69  0.740  0.491  0.479-  41 1.70  11 2.11  16 2.49  23 2.56
  70  0.236  0.305  0.742-  34 1.89  48 1.97  12 2.23  21 2.30
  71  0.069  0.766  0.878-  51 1.56  36 1.67
  72  0.512  0.146  0.048-   8 1.98  47 2.01  53 2.21  45 2.50   6 2.51
  73  0.764  0.945  0.915-  52 1.79  46 1.94   6 2.18   4 2.52
  74  0.300  0.330  0.225-  45 1.89  30 2.14   1 2.43  27 2.46
  75  0.557  0.960  0.125-  53 1.59  47 2.47
  76  0.958  0.304  0.223-  44 1.78  10 2.32
  77  0.254  0.760  0.656-  42 2.01  14 2.16  19 2.24  25 2.44
  78  0.904  0.098  0.878-  52 1.66  35 1.68
  79  0.719  0.051  0.182-  47 1.64   6 2.52
  80  0.431  0.738  0.616-  42 1.53  22 1.90  14 2.15
  81  0.053  0.072  0.148-  32 1.47  10 2.09   7 2.47
  82  0.946  0.473  0.398-  44 1.65  26 2.17
  83  0.833  0.056  0.692-  52 1.65  24 2.27
  84  0.099  0.881  0.207-   3 1.87  32 1.92   7 2.33
  85  0.273  0.135  0.557-  48 1.51  54 2.18   1 2.45
  86  0.181  0.182  0.331-   7 1.94   1 2.04  10 2.41  18 2.49
  87  0.331  0.548  0.278-  30 1.55  40 1.60
  88  0.277  0.154  0.977-  45 1.99  21 2.20
  89  0.013  0.803  0.571-  28 1.79  33 1.85  19 2.16
  90  0.391  0.345  0.043-  45 1.82  27 2.22  37 2.41  12 2.47
  91  0.256  0.331  0.551-  48 1.64   2 2.33
  92  0.811  0.741  0.931-  46 1.73  36 1.99   4 2.51
  93  0.070  0.259  1.000-  35 1.63  10 1.92
  94  0.790  0.416  0.234-  29 1.66  44 1.67  11 2.55
  95  0.717  0.875  0.732-  46 1.63   9 2.10  52 2.38
  96  0.635  0.303  0.393-  29 1.73  41 1.79
  97  0.141  0.457  0.221-  30 1.63   5 2.30  26 2.38
  98  0.931  0.526  0.176-  44 1.52   5 2.01
  99  0.959  0.591  0.953-  36 1.54   5 2.02
 100  0.086  0.183  0.632-  48 1.47
 101  0.955  0.633  0.756-  36 1.54  19 2.14  23 2.47
 102  0.909  0.965  0.277-  32 1.70  43 1.86  18 2.43
 103  0.083  0.452  0.599-  34 1.46  26 2.39
 104  0.779  0.677  0.640-  33 1.87  16 2.05  23 2.54
 105  0.977  0.603  0.537-  33 1.50  19 2.12  23 2.45
 106  0.095  0.001  0.470-  28 1.84  25 2.00  18 2.37   7 2.52
 107  0.859  0.734  0.225-  43 1.50   4 2.50  11 2.54
 108  0.659  0.286  0.194-  29 1.64  47 1.74  27 2.26
 109  0.334  0.096  0.129-  45 1.57  53 1.71
 110  0.336  0.081  0.767-  54 1.90  21 2.00
 111  0.348  0.790  0.894-  49 1.60  14 2.51  15 2.53
 112  0.525  0.170  0.275-  50 1.72  47 1.78  53 2.42
 113  0.574  0.644  0.431-  40 2.09  16 2.21  17 2.25  11 2.48
[...]
 121  0.598  0.715  0.810-  46 1.86  49 2.09  22 2.44
 122  0.711  0.683  0.170-  39 1.58   4 2.19  11 2.36
 123  0.168  0.950  0.799-  51 1.70  21 2.29  25 2.57
 124  0.852  0.327  0.557-  41 1.70  24 2.03  23 2.23
 125  0.313  0.558  0.041-  37 1.76  30 1.95  15 2.38
 126  0.866  0.278  0.970-  35 1.53  13 2.34
 127  0.845  0.751  0.435-  33 1.64  43 1.96  11 2.48  28 2.55
 128  0.159  0.516  0.789-  34 1.83  12 2.38
 129  0.962  0.922  0.792-  52 1.51  51 1.70
 130  0.529  0.918  0.901-  49 1.71  22 2.42   8 2.47
 131  0.680  0.182  0.829-  31 1.72   8 2.01   6 2.08
 132  0.394  0.464  0.865-  37 1.64  38 1.78  12 2.13
 133  0.528  0.501  0.734-  38 1.47  16 2.40
 134  0.889  0.915  0.085-  32 1.59   4 1.98   3 2.47
 135  0.519  0.519  0.092-  37 1.70  27 2.11  39 2.18

IMPORTANT INFORMATION: All symmetrisations will be switched off!
NOSYMM: (Re-)initialisation of all symmetry stuff for point group C_1.

Automatic generation of k-mesh.
 generate k-points for:    2    2    2
Space group operators:
 irot       det(A)        alpha          n_x          n_y          n_z        tau_x        tau_y        tau_z
    1     1.000000     0.000000     1.000000     0.000000     0.000000     0.000000     0.000000     0.000000

 Subroutine IBZKPT returns following result:

 Found      8 irreducible k-points:

 Following reciprocal coordinates:
            Coordinates               Weight
  0.000000  0.000000  0.000000      1.000000
  0.500000  0.000000  0.000000      1.000000
  0.000000  0.500000  0.000000      1.000000
  0.500000  0.500000  0.000000      1.000000
  0.000000  0.000000  0.500000      1.000000
  0.500000  0.000000  0.500000      1.000000
  0.000000  0.500000  0.500000      1.000000
  0.500000  0.500000  0.500000      1.000000

 Following cartesian coordinates:
            Coordinates               Weight
  0.000000  0.000000  0.000000      1.000000
  0.041344  0.000000  0.000000      1.000000
  0.000000  0.041344  0.000000      1.000000
  0.041344  0.041344  0.000000      1.000000
  0.000000  0.000000  0.041344      1.000000
  0.041344  0.000000  0.041344      1.000000
  0.000000  0.041344  0.041344      1.000000
  0.041344  0.041344  0.041344      1.000000

 SYSTEM =  unknown system
 POSCAR =  Ca Si  O

 Startparameter for this run:
   NWRITE =      2    write-flag & timer
   PREC   = a         normal or accurate (medium, high low for compatibility)
   ISTART =      0    job   : 0-new  1-cont  2-samecut
   ICHARG =      2    charge: 1-file 2-atom 10-const
   ISPIN  =      1    spin polarized calculation?
   LNONCOLLINEAR =      F non collinear calculations
   LSORBIT =      F    spin-orbit coupling
   INIWAV =      1    electr: 0-lowe 1-rand  2-diag
   LASPH  =      F    aspherical Exc in radial PAW
[...]
     0.000000000  0.000000000 12.093787620     0.000000000  0.000000000  0.082687081

  length of vectors
    12.093787620 12.093787620 12.093787620     0.082687081  0.082687081  0.082687081

 FORCES acting on ions
    electron-ion (+dipol)            ewald-force                    non-local-force                 convergence-correction
   -.824E+02 -.627E+02 -.666E+02   0.773E+02 0.640E+02 0.692E+02   0.481E+01 0.545E+00 -.196E+01   -.622E-03 0.375E-02 0.288E-02
   -.102E+03 0.847E+02 -.470E+02   0.959E+02 -.796E+02 0.461E+02   0.466E+01 -.380E+01 0.903E+00   -.225E-02 -.663E-02 0.447E-02
   0.957E+02 0.226E+03 0.161E+03   -.100E+03 -.225E+03 -.159E+03   0.113E+01 -.534E+01 -.481E+01   -.279E-02 -.955E-03 -.239E-02
   0.118E+03 0.142E+02 -.616E+02   -.114E+03 -.139E+02 0.615E+02   -.519E+01 0.335E+00 0.158E+00   0.136E-02 0.609E-03 -.140E-02
   0.305E+01 0.964E+02 0.227E+03   -.938E+01 -.919E+02 -.222E+03   0.713E+01 -.526E+01 -.479E+01   -.118E-02 -.567E-02 -.696E-02
   -.178E+03 -.105E+03 -.115E+03   0.188E+03 0.102E+03 0.114E+03   -.547E+01 0.197E+01 0.237E+01   0.215E-02 0.351E-02 -.191E-02
   -.131E+03 0.120E+03 -.198E+02   0.129E+03 -.124E+03 0.182E+02   0.258E+01 -.170E+01 0.540E+00   -.367E-02 0.858E-02 -.464E-02
   0.199E+03 0.277E+02 0.133E+03   -.209E+03 -.264E+02 -.141E+03   0.307E+01 -.283E+01 0.270E+01   -.560E-05 0.426E-02 -.224E-02
   0.445E+01 0.166E+01 0.123E+03   0.294E+01 0.415E+01 -.118E+03   -.480E+01 -.428E+01 -.493E+01   0.401E-02 0.441E-02 0.222E-02
   0.307E+02 -.760E+02 0.700E+02   -.372E+02 0.761E+02 -.660E+02   0.637E+01 0.139E+01 0.714E+00   -.199E-02 0.243E-02 -.443E-02
   0.433E+02 -.337E+02 0.760E+02   -.429E+02 0.357E+02 -.741E+02   0.111E+00 -.630E+00 -.251E+01   0.197E-02 -.322E-02 -.257E-03
   0.219E+03 0.437E+02 -.537E+01   -.214E+03 -.438E+02 0.141E+01   -.471E+01 -.645E+00 0.455E+01   -.107E-01 -.393E-02 -.117E-01
   -.630E+02 -.130E+03 -.949E+02   0.652E+02 0.126E+03 0.902E+02   -.509E+00 0.434E+01 0.509E+01   0.402E-02 -.305E-02 -.364E-02
   0.116E+03 0.148E+03 -.854E+02   -.119E+03 -.149E+03 0.846E+02   0.197E+01 -.201E+01 0.268E+01   0.886E-02 -.221E-01 0.144E-01
   -.792E+02 -.153E+03 0.209E+03   0.843E+02 0.149E+03 -.211E+03   -.218E+01 0.418E+01 -.958E+00   -.161E-02 -.227E-02 -.260E-02
   0.439E+01 0.324E+02 -.720E+02   -.271E+01 -.307E+02 0.703E+02   -.309E+01 -.183E+01 0.188E+01   0.604E-02 -.565E-02 0.225E-02
   -.257E+03 -.134E+03 0.283E+02   0.252E+03 0.133E+03 -.298E+02   0.398E+01 0.129E+01 0.373E+00   0.135E-01 0.867E-03 -.649E-02
   0.544E+02 -.935E+02 -.627E+02   -.540E+02 0.938E+02 0.566E+02   0.193E+00 0.327E+00 0.372E+01   -.125E-02 0.525E-02 0.140E-02
   -.103E+03 0.274E+02 -.667E+02   0.103E+03 -.278E+02 0.670E+02   0.275E+01 -.672E+00 0.648E+00   -.206E-01 -.233E-01 0.513E-02
   0.102E+03 0.294E+01 -.729E+02   -.105E+03 -.146E+01 0.766E+02   -.184E-01 -.126E+01 -.113E+01   -.578E-02 -.571E-02 -.179E-01
   0.223E+03 0.171E+01 -.430E+02   -.218E+03 -.741E+01 0.463E+02   -.677E+01 0.415E+01 -.104E+01   -.389E-02 0.156E-01 -.290E-02
   0.153E+02 -.228E+03 0.266E+02   -.144E+02 0.233E+03 -.267E+02   -.571E+00 0.235E+00 0.130E+01   0.131E-01 0.731E-02 0.857E-02
   -.297E+02 0.973E+02 -.214E+03   0.324E+02 -.962E+02 0.212E+03   -.111E+01 0.186E-01 0.178E+01   0.931E-02 -.938E-02 0.563E-02
   -.403E+02 0.845E+02 -.211E+03   0.352E+02 -.842E+02 0.218E+03   0.440E+01 -.345E+01 -.320E+01   0.275E-02 0.579E-02 0.437E-02
   -.188E+02 -.758E+02 -.154E+03   0.199E+02 0.714E+02 0.155E+03   0.819E+00 0.254E+01 0.221E+01   -.142E-01 0.289E-01 0.620E-02
   -.463E+02 -.618E+01 -.748E+02   0.432E+02 0.968E+01 0.760E+02   0.361E+01 -.290E+01 -.530E+00   -.307E-02 -.420E-02 0.775E-02
   -.149E+03 0.206E+01 -.147E+02   0.149E+03 0.746E+00 0.143E+02   0.931E+00 -.269E+01 0.185E+01   0.623E-03 -.181E-02 -.174E-02
   -.449E+01 -.319E+02 -.540E+02   -.288E+01 0.318E+02 0.559E+02   0.119E+02 -.357E+01 -.139E+01   -.280E-02 0.202E-02 -.113E-03
   -.522E+02 0.273E+02 0.113E+02   0.494E+02 -.250E+02 -.119E+02   0.419E+01 -.483E+01 0.200E+01   0.748E-03 -.101E-04 0.108E-03
   0.592E+01 0.368E+02 0.706E+02   -.133E+02 -.333E+02 -.602E+02   0.419E+01 -.205E+01 -.118E+02   -.814E-03 -.203E-02 -.149E-02
   -.322E+01 0.296E+02 0.682E+02   0.152E+02 -.291E+02 -.622E+02   -.129E+02 -.565E+01 -.600E+01   0.168E-02 0.378E-04 0.980E-04
   0.587E+02 -.499E+02 0.327E+02   -.593E+02 0.531E+02 -.341E+02   -.133E+01 -.929E+01 0.196E+01   -.657E-03 0.137E-02 -.954E-03
   0.744E+02 -.641E+02 -.502E+02   -.681E+02 0.529E+02 0.437E+02   -.105E+02 0.152E+02 0.773E+01   -.151E-02 -.202E-02 0.760E-03
   0.938E+02 0.927E+02 -.111E+03   -.945E+02 -.797E+02 0.996E+02   0.661E+01 -.119E+02 0.178E+02   -.410E-02 -.417E-02 0.363E-02
   -.307E+02 0.372E+02 0.343E+02   0.219E+02 -.233E+02 -.357E+02   0.836E+01 -.144E+02 -.932E-01   0.108E-02 0.275E-02 -.272E-02
   0.649E+02 -.387E+02 -.104E+02   -.603E+02 0.208E+02 0.512E+01   -.695E+01 0.181E+02 0.530E+01   -.681E-03 -.294E-02 0.281E-03
   -.943E+02 0.627E+02 -.939E+01   0.916E+02 -.503E+02 0.703E+01   0.912E+00 -.123E+02 0.684E+01   -.187E-03 -.210E-02 -.540E-03
   -.477E+01 0.250E+02 -.209E+02   0.930E+01 -.240E+02 0.129E+02   -.114E+02 -.525E+01 0.927E+01   -.173E-03 -.204E-02 -.989E-04
   -.206E+02 0.170E+02 0.182E+01   0.262E+02 -.151E+02 0.607E+00   -.875E+01 -.437E+01 -.422E+01   0.114E-02 -.838E-03 -.914E-03
   -.687E+02 0.274E+02 -.435E+02   0.661E+02 -.344E+02 0.438E+02   0.710E+01 0.688E+01 0.150E+01   0.158E-02 -.371E-02 -.155E-02
   0.603E+02 0.191E+02 -.152E+02   -.537E+02 -.141E+02 0.180E+02   -.584E+01 -.432E+01 -.662E+00   0.134E-02 -.518E-03 0.132E-02
   0.754E+02 0.817E+02 -.338E+02   -.701E+02 -.739E+02 0.313E+02   -.136E+02 -.852E+01 0.114E+02   0.668E-02 -.118E-01 -.198E-02
   0.407E+02 -.256E+02 -.378E+02   -.395E+02 0.127E+02 0.317E+02   0.206E+01 0.143E+02 0.121E+02   -.109E-02 0.514E-04 -.782E-03
   -.220E+02 0.260E+02 -.185E+02   0.227E+02 -.200E+02 0.154E+02   0.136E+01 -.101E+02 0.447E+01   0.547E-04 -.112E-02 -.176E-03
   -.663E+00 -.124E+02 0.260E+02   -.544E+00 0.115E+02 -.324E+02   0.231E+01 0.631E+01 -.767E+00   -.695E-03 0.783E-03 -.141E-02
   -.155E+02 0.702E+02 -.157E+02   0.183E+02 -.681E+02 0.559E+01   -.365E+01 -.175E+01 0.837E+01   0.903E-03 0.411E-05 0.325E-03
   -.412E+02 -.125E+02 0.241E+02   0.491E+02 0.675E+01 -.211E+02   -.937E+01 0.515E+01 -.874E+00   0.630E-03 0.924E-03 -.659E-03
   0.412E+02 -.305E+02 -.387E+02   -.446E+02 0.254E+02 0.325E+02   0.769E+01 0.117E+02 0.623E+01   -.262E-02 0.473E-02 0.464E-02
   -.196E+02 -.408E+02 -.471E+02   0.117E+02 0.465E+02 0.476E+02   0.112E+02 -.681E+01 0.404E+01   0.165E-02 0.157E-03 0.137E-02
   -.403E+02 -.247E+02 -.449E+02   0.465E+02 0.103E+02 0.476E+02   -.778E+01 0.154E+02 -.121E+01   0.867E-03 0.245E-02 0.468E-03
   -.170E+02 -.469E+02 0.240E+02   0.228E+02 0.491E+02 -.240E+02   -.255E+01 0.392E+01 -.300E+01   -.190E-02 0.200E-02 0.153E-02
   0.191E+02 -.933E+01 0.335E+02   -.104E+02 0.123E+02 -.412E+02   -.141E+02 0.310E+00 0.550E+01   0.107E-03 0.234E-02 0.243E-03
   0.390E+02 0.455E+02 -.287E+01   -.315E+02 -.540E+02 -.175E+01   -.918E+01 0.435E+01 0.554E+01   0.654E-03 0.180E-02 -.130E-02
   -.232E+02 -.237E+02 0.117E+02   0.249E+02 0.194E+02 -.364E+01   -.190E+01 0.297E+01 -.621E+01   0.330E-03 0.477E-02 0.164E-02
   0.620E+02 0.842E+02 0.836E+02   -.745E+02 -.109E+03 -.862E+02   0.130E+02 0.240E+02 0.837E+00   -.227E-02 -.632E-03 -.147E-02
   -.101E+03 0.487E+02 -.190E+02   0.140E+03 -.596E+02 0.200E+02   -.359E+02 0.991E+01 0.804E+00   0.137E-02 0.257E-02 0.405E-03
   0.944E+02 -.199E+02 -.391E+02   -.126E+03 0.262E+02 0.363E+02   0.324E+02 -.472E+01 0.336E+01   -.627E-03 0.229E-02 0.549E-03
   -.286E+02 -.342E+01 -.266E+02   0.362E+02 0.142E+02 0.173E+02   -.708E+01 -.110E+02 0.112E+02   0.165E-02 -.582E-03 -.379E-03
   -.152E+02 -.970E+02 0.513E+02   0.312E+02 0.932E+02 -.406E+02   -.197E+02 0.574E+01 -.136E+02   0.107E-02 0.555E-02 0.120E-02
   -.897E+02 -.373E+01 -.154E+03   0.810E+02 0.113E+02 0.158E+03   0.100E+02 -.715E+01 -.130E+01   0.511E-03 0.436E-02 0.394E-02
[...]
   0.382E+01 0.101E+03 0.317E+02   0.311E+02 -.103E+03 -.244E+02   -.390E+02 -.166E+00 -.753E+01   0.108E-02 -.112E-02 -.107E-02
   -.454E+02 0.685E+01 -.394E+01   0.648E+02 -.276E+01 -.785E+01   -.211E+02 -.451E+01 0.125E+02   -.292E-02 0.895E-02 0.486E-02
   -.129E+03 0.101E+02 -.991E+02   0.150E+03 -.975E+01 0.107E+03   -.224E+02 0.956E+00 -.850E+01   0.445E-02 0.363E-03 0.461E-02
   0.110E+03 0.444E+00 0.340E+02   -.120E+03 0.116E+02 -.389E+02   0.673E+01 -.149E+02 0.816E+01   -.142E-02 -.355E-02 -.189E-02
   -.567E+01 -.596E+02 0.783E+01   -.170E+02 0.809E+02 -.964E+01   0.198E+02 -.196E+02 0.338E+01   0.343E-02 0.135E-02 -.393E-02
   0.125E+03 -.395E+02 0.635E+01   -.141E+03 0.450E+02 -.172E+02   0.139E+02 -.542E+01 0.963E+01   -.831E-03 -.945E-03 -.128E-03
   0.731E+02 -.995E+01 -.701E+02   -.712E+02 0.275E+02 0.784E+02   -.241E+01 -.208E+02 -.866E+01   -.920E-02 -.181E-01 -.920E-03
   -.325E+02 0.794E+01 0.108E+03   0.480E+02 -.209E+02 -.133E+03   -.120E+02 0.896E+01 0.258E+02   -.230E-02 0.345E-02 0.156E-02
   0.472E+02 -.809E+02 -.473E+02   -.402E+02 0.102E+03 0.493E+02   -.736E+01 -.230E+02 -.255E+01   0.176E-02 0.245E-02 0.511E-03
   -.121E+03 -.424E+02 0.136E+03   0.127E+03 0.264E+02 -.137E+03   -.426E+01 0.193E+02 -.177E+01   0.142E-02 0.201E-02 -.626E-03
   0.264E+02 0.431E+02 0.784E+02   -.462E+02 -.463E+02 -.973E+02   0.213E+02 0.213E+01 0.197E+02   -.276E-02 -.484E-02 -.690E-03
   -.805E+02 -.264E+02 0.733E+02   0.812E+02 0.554E+02 -.940E+02   0.331E+00 -.244E+02 0.132E+02   0.143E-02 -.467E-02 0.137E-02
   0.226E+02 -.681E+02 0.911E+02   -.392E+02 0.602E+02 -.110E+03   0.194E+02 0.861E+01 0.178E+02   -.326E-03 0.124E-02 -.979E-03
   -.199E+03 -.435E+01 0.446E+02   0.207E+03 0.379E+01 -.275E+02   -.586E+01 0.710E+00 -.208E+02   0.819E-03 -.200E-02 -.149E-02
   0.417E+02 0.409E+02 -.158E+03   -.284E-12 -.166E-12 -.352E-12   -.417E+02 -.409E+02 0.158E+03   -.811E-02 -.362E-01 0.512E-02

 POSITION                                       TOTAL-FORCE (eV/Angst)
      4.10035      2.54649      4.61682        -0.326065      1.795231      0.603547
      5.32843      4.65602      6.87580        -1.023838      1.344226      0.055152
      0.55638      9.49106      1.19296        -3.498021     -4.767761     -2.493471
      8.96488     10.22296      1.16293        -0.995097      0.639612      0.111945
      0.58175      6.04697      0.73671         0.800138     -0.800079      0.851446
      8.50132      1.22530     11.84836         5.138372     -1.359334      0.928143
      2.34785      0.32867      3.49612         0.979405     -4.990462     -1.071287
      6.49910      1.46872     10.73602        -6.980256     -1.545314     -5.714133
      8.05944     11.14579      6.92470         2.604817      1.541888     -0.200293
      1.44339      2.80362      1.78985        -0.145840      1.488985      4.724938
      9.09013      7.19416      4.11236         0.576382      1.410769     -0.541650
      2.93928      4.65197     10.98366         0.397625     -0.783019      0.568456
      9.30490      5.38929     11.85588         1.682701      0.098898      0.388745
      4.29555      7.78592      9.02758        -1.377153     -2.834390      1.842055
      3.09797      8.98475      0.91292         2.907343      0.659066     -2.526249
      7.59448      7.39569      7.28748        -1.401739     -0.151374      0.232856
      6.16767      9.79115      4.54130        -0.586788      0.424274     -1.212865
     11.91549      1.54018      4.44392         0.596988      0.659257     -2.441964
      1.13841      8.04954      7.87539         2.644884     -1.110355      0.905559
      3.10044      9.22001      3.60900        -2.402244      0.213161      2.545224
      2.29911      1.66270      9.89329        -2.093712     -1.529628      2.280781
      5.66970     10.21504      8.76646         0.355246      5.505024      1.227965
     10.40799      5.85597      7.89149         1.542580      1.143249     -0.136620
     10.32934      1.94806      6.50635        -0.708409     -3.094269      4.368800
      2.33517     11.36426      7.11169         1.903075     -1.875794      3.374626
      1.35548      4.89390      4.95163         0.553943      0.590080      0.655006
      5.98673      4.55449      2.31114         0.336346      0.111003      1.434172
     11.75390     11.04065      5.82073         4.476009     -3.696050      0.520105
      8.98707      3.68844      3.61208         1.356733     -2.525648      1.483841
      3.18188      6.01495      2.19797        -3.155747      1.474486     -1.419166
      8.34870      3.71490      9.23293        -0.899586     -5.104707     -0.027179
     11.87112     11.79248      1.89418        -1.894104     -6.082328      0.600533
     10.90254      8.46902      6.62275        -4.183992      4.045563      1.253708
      1.42670      4.82926      8.49682         5.821954      1.089126      6.660320
     11.59155      2.32737     11.66944        -0.495583     -0.538438     -1.438978
     11.54896      8.31881     10.52780        -2.309434      0.166760      0.028113
      5.31710      6.36755     11.80793        -1.711495      0.071819      4.491269
      6.33952      5.00229      9.89267        -6.904004     -4.195633      1.340404
      7.07959      8.21974      1.65005        -3.132902     -2.462210     -1.797655
      5.29035      6.95504      4.24852         4.511710     -0.145778      1.762020
      8.78131      4.26160      6.03400         0.818876      0.722320      2.120762
      4.18123      8.48283      6.42190        -8.400041     -0.688794      8.943545
     11.06185      9.84295      3.66404         3.250314      1.322463      6.023215
     11.14676      5.31926      3.23856         2.043874     -4.115547      1.346294
      4.02469      2.72773      1.38083         1.102816      5.412580     -7.148012
      8.63347      9.76824     10.27455        -0.854899      0.321245     -1.687807
      7.55909      1.79088      2.05163        -1.434699     -0.628278      2.085983
      2.40575      2.68938      7.34002         4.321418      6.563099      0.002858
      5.78715      9.51649     11.04734         3.342478     -1.190960      4.517056
      6.59118      0.98575      4.66059        -1.656483      1.029787      1.472779
      0.82091     10.82664     10.64686         3.289235      6.134065     -2.938195
     10.37168     11.96238      9.77654        -5.355612      3.241713     -2.160745
      5.41463      0.25387      1.99510        -1.724940     -4.145347      0.916579
      5.18086      1.19867      7.75627        -0.234406     -1.280180      1.903784
      5.87977      3.47086      9.61329         0.543125     -0.308898     -1.753198
      7.98967      0.48343      4.90988         2.893281     -1.019227      1.845029
     10.24608     11.50096      5.82395         1.214734      1.623750      0.565859
      6.86221      9.13821      0.29646         0.498100     -0.157651      1.926730
      6.63423      0.22193      8.36489        -3.655214      1.938962     -2.880456
      5.60765      1.68367      5.89495         1.283888      0.466189      3.227660
[...]
      7.22756      8.65254      9.79937         0.033861      2.552836      1.806298
      8.60251      8.25654      2.06085        -4.006418     -2.052845     -0.262388
      2.03364     11.49320      9.65978        -1.762973     -0.398461      0.681188
     10.30179      3.96042      6.73069        -0.671162      1.322948     -0.775814
      3.79036      6.74747      0.49202        -2.689411     -2.880427      3.228305
     10.46746      3.36107     11.73078        -2.858633      1.731465      1.568057
     10.21861      9.08176      5.26022        -1.678338      0.035573     -1.216110
      1.91946      6.24378      9.54134        -0.525612     -3.317674     -0.340994
     11.63011     11.15457      9.57703         3.481596     -4.013606      1.068454
      6.39995     11.10100     10.89777        -0.321480     -1.958993     -0.569243
      8.22974      2.19978     10.02888         1.745273      3.307466     -1.900551
      4.77072      5.61415     10.45831         1.518053     -1.043902      0.714714
      6.39062      6.05919      8.87479         1.114188      4.568218     -7.522144
     10.75023     11.06723      1.03174         2.714643      0.713392     -0.723461
      6.27387      6.27088      1.11522         2.101990      0.144002     -3.641697
    total drift:                               -0.014784     -0.012635      0.009547

  FREE ENERGIE OF THE ION-ELECTRON SYSTEM (eV)
  free  energy   TOTEN  =      -880.82663617 eV

  energy  without entropy=     -880.80497519  energy(sigma->0) =     -880.81580568