 vasp.5.4.4.18Apr17-6-g9f103f2a35 (build Oct 31 2019 15:01:46) complex

 executed on             LinuxIFC date 2024.04.29  23:11:35

 INCAR:
 POTCAR:    PAW_PBE Ca_sv 06Sep2000
 POTCAR:    PAW_PBE Si 05Jan2001
 POTCAR:    PAW_PBE O 08Apr2002
 POTCAR:    PAW_PBE Ca_sv 06Sep2000
   VRHFIN =Ca: 3s3p4s

   TITEL  = PAW_PBE Ca_sv 06Sep2000
   POMASS =   40.078; ZVAL   =   10.000    mass and valenz
   ENMAX  =  266.622; ENMIN  =  199.967 eV

   TITEL  = PAW_PBE Si 05Jan2001
   POMASS =   28.085; ZVAL   =    4.000    mass and valenz
   ENMAX  =  245.345; ENMIN  =  184.009 eV

   TITEL  = PAW_PBE O 08Apr2002
   POMASS =   16.000; ZVAL   =    6.000    mass and valenz
   ENMAX  =  400.000; ENMIN  =  300.000 eV

 Optimization of the real space projectors (new method)

 maximal supplied QI-value         = 16.25
 optimisation between [QCUT,QGAM] = [ 12.51, 25.03] = [ 43.85,175.40] Ry
 Optimized for a Real-space Cutoff    1.47 Angstroem

   l    n(q)    QCUT    max X(q) W(low)/X(q) W(high)/X(q)  e(spline)
   0     11    12.514    11.817    0.25E-04    0.32E-05    0.87E-07
   0     11    12.514     8.461    0.39E-04    0.59E-05    0.18E-06
   1     11    12.514     3.957    0.97E-05    0.57E-05    0.28E-07
   1     11    12.514     4.314    0.42E-04    0.14E-04    0.23E-06
   2     10    12.514    14.565    0.79E-04    0.50E-03    0.16E-05
   2     10    12.514    14.552    0.75E-04    0.48E-03    0.15E-05
 Optimization of the real space projectors (new method)

[...]

   l    n(q)    QCUT    max X(q) W(low)/X(q) W(high)/X(q)  e(spline)
   0      9    12.501   159.560    0.10E-03    0.83E-04    0.71E-07
   0      9    12.501   115.863    0.99E-04    0.81E-04    0.70E-07
   1      8    12.501    88.339    0.20E-03    0.25E-03    0.76E-07
   1      8    12.501    48.592    0.20E-03    0.24E-03    0.75E-07
 Optimization of the real space projectors (new method)

 maximal supplied QI-value         = 24.76
 optimisation between [QCUT,QGAM] = [ 12.38, 25.00] = [ 42.90,175.06] Ry
 Optimized for a Real-space Cutoff    1.16 Angstroem

   l    n(q)    QCUT    max X(q) W(low)/X(q) W(high)/X(q)  e(spline)
   0      9    12.378    20.381    0.16E-03    0.67E-05    0.31E-06
   0      9    12.378    15.268    0.17E-03    0.81E-05    0.33E-06
   1      8    12.378     5.964    0.20E-03    0.16E-03    0.30E-06
   1      8    12.378     5.382    0.18E-03    0.14E-03    0.26E-06
  PAW_PBE Ca_sv 06Sep2000               :
  PAW_PBE Si 05Jan2001                  :
  PAW_PBE O 08Apr2002                   :

 POSCAR: Ca Si  O
  positions in direct lattice
 exchange correlation table for  LEXCH =        8
   RHO(1)=    0.500       N(1)  =     2000
   RHO(2)=  100.500       N(2)  =     4000

 ion  position               nearest neighbor table
   1  0.585  0.981  0.651-  60 2.10 109 2.20 127 2.25 108 2.44  66 2.46  57 2.49  61 2.51 110 2.54
                            23 2.68  36 2.88  42 2.88  51 3.00  29 3.04  13 3.16
   2  0.975  0.489  0.024- 135 2.02 103 2.05 105 2.27  63 2.28  64 2.29  87 2.31  79 2.33 119 2.37
                           117 2.44  44 2.45  91 2.45  76 2.52  43 2.58  45 2.88  28 2.91  35 3.07
   3  0.047  0.051  0.131- 100 1.91  62 2.07 134 2.19 130 2.20  91 2.25  69 2.26  95 2.30  78 2.38
                            15 2.45  92 2.48  35 2.68  20 2.82  39 2.85  33 2.89  32 2.94  40 3.02
   4  0.491  0.466  0.478- 132 2.01 111 2.06  77 2.11  89 2.18  98 2.26 133 2.32  70 2.32 121 2.50
                            73 2.51  83 2.56  52 2.68  50 2.72  54 2.76  38 2.77  31 2.89  47 3.06
   5  0.547  0.570  0.053-  74 2.07  70 2.22 112 2.27 105 2.31  94 2.31 125 2.37 131 2.37  99 2.39
                            82 2.41  71 2.44  41 2.74  28 2.75  21 2.83  30 2.95  52 2.96  10 3.04
   6  0.772  0.606  0.820- 124 1.95 105 1.98  84 2.08  76 2.30  71 2.35 115 2.46  99 2.46 103 2.47
                            79 2.50  49 2.82  44 2.90  28 2.93  54 2.96  30 3.02  23 3.11  45 3.12
   7  0.380  0.147  0.392-  72 1.96  78 2.09 120 2.17  77 2.28  83 2.37 108 2.56  53 2.88  32 2.89
                            52 2.91  42 2.91  38 2.93  33 3.01  31 3.15
   8  0.108  0.161  0.660-  68 1.98 122 2.12 116 2.15 102 2.19  93 2.29  58 2.35 107 2.37  85 2.55
                            33 2.70  36 2.80  45 2.88  25 3.01  31 3.04  40 3.11  17 3.11  39 3.11
   9  0.626  0.180  0.192-  67 2.08 120 2.18  65 2.22  74 2.26  69 2.33  59 2.34  77 2.35 114 2.45
                            38 2.85  52 2.86  35 2.86  29 2.91  53 3.10  28 3.11
  10  0.750  0.479  0.249- 125 2.02  65 2.10 119 2.15  64 2.24 118 2.27 111 2.39  74 2.49  70 2.50
                            44 2.66  35 2.81  27 2.93  28 2.96   5 3.04  54 3.11
  11  0.335  0.742  0.838- 129 1.83 128 1.90  90 2.20 110 2.26  71 2.35 106 2.41 117 2.46  94 2.57
                            41 2.59  48 2.72  47 2.75  46 2.80  30 2.94  16 3.10
  12  0.029  0.582  0.600-  76 2.02  81 2.15  90 2.22 116 2.29 124 2.41 118 2.49  86 2.50  73 2.55
                            56 2.55 101 2.56  16 2.71  48 2.81  49 2.87  45 2.88  34 2.99  31 3.00
  13  0.801  0.911  0.859- 109 2.07  62 2.11  84 2.11 115 2.13  75 2.20  58 2.39  60 2.42 101 2.43
                            49 2.57  36 2.72  37 2.75  41 2.80  20 2.82  29 2.92  39 2.99   1 3.16
  14  0.834  0.021  0.376- 100 2.18 127 2.18  66 2.28 114 2.31  68 2.31  33 2.80  36 2.87  27 3.01
                            35 3.12  38 3.14
  15  0.035  0.813  0.121-  80 2.05 123 2.09  62 2.11 106 2.17  63 2.18 103 2.27 100 2.43   3 2.45
                            44 2.59  24 2.81  46 2.84  39 2.93  48 3.11
  16  0.205  0.479  0.767- 116 2.21 117 2.25  73 2.32  94 2.37  76 2.38 135 2.40  90 2.44  85 2.45
                           129 2.48  12 2.71  45 2.77  48 2.78  31 2.88  43 2.92  40 3.01  30 3.02
  17  0.110  0.865  0.595-  93 1.90  96 1.95  81 2.04 126 2.04  90 2.13  58 2.28  42 2.28 101 2.47
                            49 2.74  47 2.79  24 2.92  39 3.02  12 3.03  48 3.05   8 3.11
  18  0.139  0.346  0.231-  64 1.99  95 2.07  83 2.12  92 2.12  86 2.16  87 2.21  91 2.26  34 2.41
                            78 2.54  35 2.71  43 2.74  33 2.95  31 2.96   2 3.07  52 3.08  40 3.10
  19  0.689  0.300  0.736-  97 2.09  99 2.12  55 2.27  57 2.28 107 2.28  79 2.29  61 2.32 121 2.32
                           109 2.34  89 2.40  28 2.65  51 2.83  45 2.88  54 2.91  38 2.92  30 2.97
  20  0.885  0.160  0.937- 102 2.12  69 2.14  91 2.19 107 2.20  79 2.39  62 2.39  59 2.40 109 2.44
                            75 2.57  35 2.78  13 2.82   3 2.82  28 2.83  45 2.85  40 2.97  39 3.08
  21  0.446  0.329  0.963-  94 2.01  74 2.12 131 2.13  55 2.14  67 2.24  99 2.25  85 2.41  59 2.50
                            57 2.54  30 2.75   5 2.83  28 2.85  52 2.87  51 2.89  32 2.96  29 2.97
  22  0.306  0.597  0.277- 123 2.09  87 2.12 112 2.20  70 2.22 132 2.30 131 2.38  88 2.49  83 2.50
                            43 2.61  52 2.64  50 2.70  34 2.73  46 2.95   4 3.11  18 3.13
  23  0.569  0.722  0.627-  84 1.96 110 2.15  98 2.15  71 2.22 129 2.27 113 2.28  89 2.29 132 2.40
                             1 2.68  30 2.73  47 2.74  50 2.85  54 2.97  49 3.06   6 3.11   4 3.14
  24  0.199  0.889  0.326- 100 1.99  96 2.00 123 2.03 130 2.37  78 2.38  56 2.41  93 2.42  72 2.45
                            46 2.71  33 2.74  15 2.81  42 2.88  17 2.92   3 3.03
  25  0.311  0.071  0.851-  85 1.96 134 1.99 126 1.99 104 2.20 108 2.33  51 2.46  57 2.53 128 2.56
                            40 2.59  39 2.61  32 2.77  29 2.89   8 3.01  42 3.14
  26  0.926  0.341  0.469-  97 2.11  86 2.18 118 2.29 116 2.31  65 2.34 122 2.39  95 2.47  64 2.55
                            54 2.64  33 2.90  34 2.94  12 3.00  35 3.01  31 3.09  38 3.11  45 3.13
  27  0.828  0.728  0.365- 118 1.95  81 2.16 125 2.26  80 2.35  63 2.35  98 2.37 113 2.43  44 2.90
                            10 2.93  49 2.94  34 2.98  50 2.99  14 3.01  54 3.08
  28  0.719  0.376  0.981- 119 1.53  99 1.55  79 1.68  59 1.79 105 1.99  74 2.10  19 2.65   5 2.75
                            20 2.83  21 2.85   2 2.91   6 2.93  10 2.96  35 3.08   9 3.11
  29  0.581  0.075  0.932-  57 1.54  75 1.64 104 1.66  59 1.67  60 1.94 109 2.21  41 2.76  25 2.89
                             9 2.91  13 2.92  37 2.92  21 2.97   1 3.04
  30  0.497  0.514  0.776-  55 1.53  89 1.66 129 1.67  71 1.80  94 1.85  99 1.87  23 2.73  21 2.75
                            11 2.94   5 2.95  19 2.97  16 3.02   6 3.02   4 3.09
  31  0.222  0.385  0.503-  73 1.55 133 1.58  86 1.64 122 1.65  83 1.97 116 2.03  16 2.88   4 2.89
                            18 2.96  12 3.00   8 3.04  26 3.09  34 3.14   7 3.15
  32  0.326  0.116  0.117-  92 1.50  67 1.64 104 1.67 130 1.81  78 2.00 120 2.06  25 2.77  40 2.81
                             7 2.89   3 2.94  21 2.96  46 3.03
  33  0.088  0.120  0.401- 122 1.63  95 1.65  68 1.71  78 1.83 100 1.98  93 2.12   8 2.70  24 2.74
                            14 2.80   3 2.89  26 2.90  18 2.95   7 3.01
  34  0.047  0.547  0.311-  86 1.60  87 1.69  56 1.74  64 1.75  63 1.91 118 2.13  18 2.41  22 2.73
                            26 2.94  27 2.98  12 2.99   2 3.09  31 3.14
  35  0.895  0.255  0.191-  69 1.55 119 1.62  95 1.63  65 1.75  91 1.86  64 1.90   3 2.68  18 2.71
                            20 2.78  10 2.81   9 2.86  26 3.01   2 3.07  28 3.08  14 3.12
  36  0.852  0.068  0.652-  58 1.71  61 1.75 109 1.80 107 1.84  68 1.87 127 1.97  13 2.72  49 2.77
                             8 2.80  14 2.87   1 2.88  19 3.04  20 3.10
  37  0.708  0.891  0.109- 114 1.54  75 1.56  80 1.59 115 1.76  82 1.98 125 2.52  41 2.52  44 2.63
                            13 2.75  53 2.89  29 2.92
  38  0.640  0.242  0.462- 121 1.65  66 1.67  61 1.69 111 1.78  77 1.85  65 2.13   4 2.77   9 2.85
                            19 2.92   7 2.93  54 3.06  26 3.11  14 3.14
  39  0.090  0.949  0.876- 134 1.52 106 1.56  62 1.69 126 1.76  58 1.97  48 2.55  25 2.61   3 2.85
                            15 2.93  13 2.99  17 3.02  20 3.08   8 3.11
  40  0.160  0.250  0.945- 135 1.49 102 1.57  92 1.69  85 1.73 134 1.82  91 1.86  25 2.59  32 2.81
                            20 2.97  16 3.01  45 3.01   3 3.02  21 3.05  43 3.06  18 3.10   8 3.11
  41  0.560  0.807  0.932-  60 1.40  82 1.54  71 1.72 115 1.86 128 1.94  37 2.52  11 2.59   5 2.74
                            29 2.76  13 2.80  46 3.07
  42  0.319  0.939  0.575-  93 1.44 110 1.51  72 1.66  96 1.79 108 1.86 126 2.14  17 2.28  47 2.65
                             1 2.88  24 2.88   7 2.91  25 3.14
  43  0.223  0.522  0.048- 131 1.59  87 1.59 117 1.60 135 1.78 112 1.95  94 2.13   2 2.58  22 2.61
                            18 2.74  16 2.92  40 3.06  21 3.15
  44  0.831  0.667  0.090- 105 1.52  63 1.53 103 1.73  80 1.73 125 1.76 115 1.80   2 2.45  15 2.59
                            37 2.63  10 2.66  27 2.90   6 2.90   5 3.10
  45  0.958  0.371  0.771-  79 1.59  76 1.64 102 1.70 107 1.70  97 1.84 116 1.85  16 2.77  20 2.85
                            19 2.88   2 2.88   8 2.88  12 2.88  40 3.01   6 3.12  26 3.13
  46  0.310  0.822  0.097- 123 1.45 128 1.57 130 1.62 112 1.69  88 2.28  82 2.35 106 2.46  24 2.71
                            11 2.80  15 2.84  22 2.95  32 3.03  41 3.07
[...]
     0.000000000  0.000000000 10.262875590     0.000000000  0.000000000  0.097438578

  length of vectors
    10.262875590 10.262875590 10.262875590     0.097438578  0.097438578  0.097438578

 FORCES acting on ions
    electron-ion (+dipol)            ewald-force                    non-local-force                 convergence-correction
   0.992E+02 0.128E+02 0.156E+03   -.941E+02 -.692E+01 -.157E+03   -.453E+01 -.358E+01 -.172E+01   -.124E-02 -.794E-03 -.526E-03
   -.156E+02 0.618E+01 0.234E+02   0.136E+02 -.853E+01 -.234E+02   0.325E+00 -.247E-01 0.218E+00   0.360E-03 0.395E-03 -.229E-03
   0.513E+02 0.677E+02 -.675E+02   -.523E+02 -.611E+02 0.684E+02   0.128E+01 -.209E+01 -.192E+01   0.119E-02 -.655E-03 -.268E-03
   0.123E+03 0.354E+02 -.255E+02   -.121E+03 -.383E+02 0.279E+02   -.321E+01 0.232E+00 -.283E+00   -.307E-03 0.217E-03 0.420E-03
   -.763E+00 -.166E+03 -.339E+02   -.231E+01 0.168E+03 0.381E+02   0.196E+01 0.674E+00 -.364E+01   -.376E-03 0.104E-02 -.336E-03
   0.224E+02 -.277E+02 -.311E+00   -.214E+02 0.284E+02 -.294E+00   -.868E+00 -.141E+01 0.136E+01   -.632E-03 0.687E-03 -.152E-03
   -.305E+02 0.178E+02 -.101E+03   0.318E+02 -.179E+02 0.990E+02   -.492E+00 0.381E+01 0.364E+01   -.223E-03 -.131E-02 0.863E-03
   -.124E+03 0.519E+02 -.387E+01   0.122E+03 -.489E+02 0.450E+01   0.413E+01 -.249E+01 0.279E+01   0.144E-02 -.129E-02 -.326E-04
   -.657E+02 0.170E+03 -.996E+02   0.649E+02 -.170E+03 0.992E+02   0.223E+01 -.131E+01 0.201E+00   -.581E-03 -.119E-02 0.431E-03
   0.903E+02 -.211E+02 -.883E+02   -.920E+02 0.197E+02 0.916E+02   -.101E+00 0.594E+00 -.133E+01   -.439E-03 -.295E-04 0.387E-03
   -.308E+01 -.120E+03 -.363E+02   0.512E+00 0.121E+03 0.407E+02   -.120E+01 0.123E+00 -.107E+01   0.240E-03 0.156E-02 -.856E-03
   -.833E+02 -.279E+02 0.165E+03   0.773E+02 0.302E+02 -.170E+03   0.417E+01 -.182E+01 -.137E+00   0.841E-03 0.642E-03 0.285E-03
   -.300E+02 -.263E+02 0.214E+02   0.305E+02 0.245E+02 -.191E+02   0.942E+00 0.662E+00 -.155E+01   -.301E-03 -.326E-04 -.533E-03
   0.200E+02 0.719E+02 0.131E+02   -.225E+02 -.713E+02 -.134E+02   0.122E+01 0.332E+00 -.923E+00   -.605E-03 -.106E-02 0.115E-02
   -.757E+01 -.254E+02 -.151E+03   0.555E+01 0.188E+02 0.150E+03   0.251E+01 0.445E+01 0.176E+01   0.775E-03 0.737E-03 0.151E-03
   -.102E+03 0.794E+02 0.671E+02   0.106E+03 -.825E+02 -.643E+02   -.867E+00 0.149E+01 -.173E+01   0.663E-03 0.258E-03 -.572E-03
   0.148E+03 -.239E+02 0.111E+03   -.158E+03 0.212E+02 -.110E+03   0.804E+00 0.551E+00 0.434E+00   0.106E-02 0.815E-03 -.175E-03
   -.160E+03 0.216E+02 -.662E+02   0.162E+03 -.294E+02 0.648E+02   0.178E+01 0.359E+01 -.469E+00   0.708E-03 -.725E-03 0.416E-03
   0.221E+02 0.102E+03 0.110E+03   -.211E+02 -.104E+03 -.113E+03   -.119E+01 0.392E+00 0.178E+01   -.963E-03 -.334E-03 -.363E-03
   0.680E+02 0.144E+03 0.268E+02   -.688E+02 -.142E+03 -.258E+02   -.737E+00 -.248E+01 -.141E+01   0.120E-03 -.119E-02 -.509E-03
   0.101E+03 0.192E+03 0.288E+02   -.100E+03 -.190E+03 -.268E+02   -.141E+01 -.565E+01 -.153E+01   -.523E-03 -.123E-02 -.688E-03
   0.702E+01 -.635E+02 -.203E+03   -.578E+01 0.692E+02 0.201E+03   -.793E+00 -.370E+01 0.421E+01   0.542E-03 0.101E-02 0.710E-03
   0.445E+02 -.174E+03 0.104E+03   -.405E+02 0.170E+03 -.105E+03   -.365E+01 0.299E+01 -.144E+00   -.115E-02 0.140E-02 -.152E-03
   -.491E+02 0.657E+01 -.421E+02   0.499E+02 -.861E+01 0.415E+02   0.185E+01 0.241E+01 0.846E+00   0.132E-02 0.385E-03 0.826E-03
   -.154E+03 0.881E+02 0.364E+02   0.156E+03 -.952E+02 -.357E+02   0.321E+01 0.173E+01 -.213E+00   0.685E-03 -.108E-02 -.596E-03
   0.760E+02 0.163E+03 -.855E+00   -.773E+02 -.163E+03 0.733E+00   0.519E+00 -.258E+01 -.800E+00   0.176E-03 -.678E-03 0.467E-03
   -.651E+01 -.293E+03 -.223E+02   0.718E+01 0.290E+03 0.229E+02   -.983E+00 0.627E+01 -.941E+00   -.323E-03 0.168E-02 0.539E-03
   0.309E+02 0.194E+02 -.306E+02   -.286E+02 -.207E+02 0.294E+02   -.349E+01 0.573E+00 0.261E+01   -.197E-03 -.158E-04 -.242E-03
   0.369E+02 0.816E+02 -.221E+02   -.380E+02 -.725E+02 0.237E+02   0.268E+01 -.987E+01 0.356E+00   -.526E-03 -.348E-03 -.104E-03
   0.347E+02 -.335E+02 0.134E+02   -.375E+02 0.255E+02 -.168E+02   0.286E+01 0.103E+02 0.715E+01   -.112E-04 0.101E-03 -.290E-03
   -.269E+02 0.105E+02 0.320E+01   0.318E+02 -.121E+02 0.194E+01   -.597E+01 -.253E+01 -.643E+01   0.783E-04 -.219E-03 0.862E-04
   -.302E+02 0.926E+02 -.179E+02   0.318E+02 -.822E+02 0.182E+02   0.448E+01 -.170E+02 0.695E+01   -.110E-04 -.351E-03 -.125E-03
   -.318E+00 0.882E+02 -.282E+02   -.106E+01 -.798E+02 0.247E+02   0.318E+01 -.104E+02 0.648E+00   0.426E-03 -.368E-03 0.173E-03
   -.286E+01 -.867E+02 -.627E+02   0.509E+01 0.900E+02 0.665E+02   -.886E+01 0.352E+01 -.374E+01   0.226E-03 0.207E-03 0.612E-04
   0.196E+02 0.307E+02 -.653E+02   -.262E+02 -.407E+02 0.619E+02   0.702E+01 0.132E+02 0.410E+01   -.681E-04 -.217E-03 0.171E-03
   -.199E+01 0.457E+02 0.692E+02   -.166E+01 -.401E+02 -.653E+02   0.184E+01 -.557E+00 -.437E+01   -.165E-03 -.598E-03 -.330E-03
   0.429E+02 -.195E+02 -.492E+02   -.398E+02 0.215E+02 0.536E+02   -.537E+01 -.738E+01 -.399E+01   -.237E-03 -.140E-04 0.794E-05
   -.351E+02 0.292E+02 0.530E+02   0.316E+02 -.359E+02 -.454E+02   0.357E+01 0.682E+01 -.839E+01   -.305E-03 -.380E-03 0.998E-04
   0.264E+02 0.391E+01 0.761E+02   -.234E+02 -.326E+01 -.654E+02   -.714E+01 -.847E+00 -.148E+02   0.488E-03 0.889E-04 -.176E-03
   -.970E+02 0.521E+02 0.261E+02   0.878E+02 -.418E+02 -.270E+02   0.760E+01 -.155E+02 0.332E+01   0.319E-03 -.356E-03 -.222E-03
   0.167E+02 0.903E+01 -.195E+02   -.181E+02 -.169E+01 0.242E+02   0.470E+00 -.186E+02 0.217E+01   -.310E-03 0.292E-03 -.187E-03
   -.963E+02 -.378E+02 -.436E+02   0.959E+02 0.369E+02 0.322E+02   0.836E+01 0.292E+01 0.974E+01   0.542E-05 0.833E-04 -.449E-04
   -.217E+02 -.300E+01 0.165E+02   0.243E+02 0.433E+01 -.138E+02   0.256E+01 0.108E+01 -.687E+01   0.158E-03 0.117E-03 -.177E-04
   0.260E+02 -.641E+02 -.282E+02   -.263E+02 0.596E+02 0.310E+02   -.405E+01 0.121E+02 -.295E+01   -.554E-05 0.311E-03 -.542E-04
   -.558E+02 -.821E+01 0.384E+02   0.515E+02 0.643E+01 -.371E+02   0.361E+01 -.754E+00 -.687E+01   0.142E-03 -.544E-04 -.186E-03
   -.869E+02 -.682E+02 -.235E+02   0.794E+02 0.611E+02 0.223E+02   0.155E+02 0.710E+01 -.273E+01   0.101E-03 0.461E-03 0.429E-04
   0.497E+02 0.113E+02 0.168E+02   -.441E+02 -.104E+02 -.268E+02   -.397E+01 -.282E+01 0.994E+01   0.148E-03 0.600E-03 0.750E-04
   0.391E+02 -.836E+01 0.424E+01   -.337E+02 0.117E+02 -.262E+01   -.127E+02 -.598E+01 0.358E+01   0.326E-03 0.392E-03 -.186E-03
   0.316E+02 -.101E+03 0.753E+02   -.284E+02 0.933E+02 -.790E+02   -.881E+01 0.560E+01 -.467E+00   -.209E-03 0.573E-03 -.168E-03
   0.238E+00 -.208E+02 0.653E+02   -.862E+00 0.286E+02 -.603E+02   0.169E+01 -.146E+02 -.619E+01   -.419E-03 0.522E-03 0.161E-03
   0.545E+02 0.119E+02 -.572E+01   -.489E+02 -.133E+02 -.350E+01   -.268E+01 0.110E+02 0.687E+01   -.120E-03 -.471E-03 0.983E-04
   0.322E+02 -.178E+02 0.335E-01   -.298E+02 0.114E+02 0.436E+01   -.473E+00 0.610E+01 -.109E+02   -.166E-03 -.109E-03 0.253E-03
   -.105E+01 -.392E+01 -.430E+02   0.750E+00 0.617E+01 0.371E+02   -.396E+01 0.203E+01 0.606E+01   -.289E-03 -.744E-04 0.382E-03
   -.171E+02 0.491E+01 0.261E+02   0.188E+02 -.331E+01 -.246E+02   -.790E+00 0.275E+01 -.741E+00   -.328E-03 0.379E-04 0.143E-03
   0.119E+03 0.393E+02 0.917E+02   -.115E+03 -.503E+02 -.920E+02   -.981E+01 0.478E+01 -.219E+01   0.781E-04 0.869E-04 0.198E-03
   -.190E+02 -.551E+02 -.341E+01   0.210E+02 0.743E+02 0.150E+02   -.113E+01 -.236E+02 -.147E+02   0.544E-03 0.899E-03 0.332E-03
   0.738E+02 0.788E+02 0.450E+02   -.641E+02 -.661E+02 -.565E+02   -.172E+02 -.120E+02 0.594E+01   -.755E-03 -.591E-03 -.189E-03
   0.262E+02 -.296E+01 0.187E+02   -.152E+02 -.379E+01 -.198E+02   -.120E+02 0.754E+01 0.309E+01   0.519E-03 -.267E-03 -.399E-03
   0.101E+02 0.487E+02 -.334E+02   -.480E+01 -.473E+02 0.372E+02   -.356E+01 0.199E+01 -.252E+01   -.584E-03 -.460E-03 -.160E-03
   0.790E+02 -.572E+02 0.348E+02   -.801E+02 0.787E+02 -.662E+02   0.144E+01 -.105E+02 0.248E+02   -.801E-03 -.412E-03 -.473E-03
[...]
   -.703E+02 0.660E+02 0.639E+01   0.675E+02 -.626E+02 -.902E+00   0.408E+01 -.713E+01 -.743E+01   0.271E-03 -.850E-03 0.430E-03
   0.118E+02 -.156E+02 -.748E+02   -.336E+02 -.719E+01 0.926E+02   0.135E+02 0.221E+02 -.108E+02   0.486E-03 0.142E-02 0.174E-03
   -.326E+02 -.517E+02 0.966E+02   0.394E+02 0.658E+02 -.865E+02   -.278E+01 -.106E+02 -.122E+02   -.493E-03 0.936E-04 0.690E-04
   0.109E+03 -.126E+03 -.794E+02   -.122E+03 0.130E+03 0.833E+02   0.114E+02 -.285E+01 -.243E+01   0.994E-04 0.821E-04 0.399E-05
   -.554E+02 -.890E+01 -.313E+01   0.639E+02 0.527E+01 -.380E+01   -.895E+01 0.365E+01 0.844E+01   0.729E-03 0.208E-03 -.205E-03
   -.381E+01 -.391E+01 0.936E+02   -.104E+02 0.433E+01 -.108E+03   0.173E+02 0.432E+00 0.166E+02   -.692E-03 -.893E-05 -.441E-03
   -.300E+02 -.109E+03 -.158E+02   0.379E+02 0.127E+03 0.388E+01   -.778E+01 -.157E+02 0.910E+01   -.397E-03 0.176E-03 -.784E-03
   0.288E+02 0.729E+02 0.925E+02   -.311E+02 -.703E+02 -.879E+02   0.149E+01 -.795E+01 -.128E+02   -.417E-05 0.115E-02 0.214E-03
   -.949E+02 0.988E+00 -.145E+02   0.800E+02 0.621E+01 0.148E+02   0.160E+02 -.470E+01 0.140E+00   -.416E-04 -.347E-03 0.185E-03
   0.441E+02 0.413E+02 -.634E+02   -.263E+02 -.439E+02 0.578E+02   -.189E+02 -.165E+01 0.124E+02   0.268E-03 0.162E-03 -.211E-03
   0.568E+02 -.931E+02 0.454E+02   -.560E+02 0.885E+02 -.507E+02   -.143E+00 0.718E+01 0.421E+01   -.647E-04 0.533E-03 0.338E-03
   0.262E+02 0.538E+02 -.294E+02   -.612E+01 -.580E+02 0.347E+02   -.218E+02 0.227E+01 -.317E+01   0.126E-04 -.291E-03 -.100E-03
   -.182E+02 0.227E+02 0.263E+02   0.204E+02 -.104E+02 -.969E+01   -.147E+01 -.782E+01 -.164E+02   0.707E-03 -.901E-03 -.365E-03
   -.101E+03 -.287E+02 0.481E+02   0.877E+02 0.430E+02 -.493E+02   0.190E+02 -.384E+01 0.158E+01   0.983E-04 -.451E-03 -.394E-03
   -.800E+01 0.670E+02 -.605E+01   -.725E-12 -.249E-12 -.739E-12   0.800E+01 -.670E+02 0.609E+01   0.639E-03 -.500E-03 -.194E-02

 POSITION                                       TOTAL-FORCE (eV/Angst)
      6.00502     10.07100      6.68058         0.595034      2.342315     -2.783227
     10.00855      5.01779      0.25099        -1.624929     -2.375349      0.128124
      0.48090      0.52745      1.34361         0.356371      4.559534     -1.001343
      5.04104      4.78609      4.90722        -1.344027     -2.655291      2.084624
      5.61686      5.84596      0.53959        -1.107541      3.069973      0.571498
      7.92504      6.22310      8.41536         0.191026     -0.659043      0.754010
      3.89979      1.50590      4.01978         0.759550      3.712476      1.304043
      1.10936      1.65401      6.77712         2.545924      0.463936      3.424608
      6.42394      1.84316      1.96728         1.392972     -1.184313     -0.248109
      7.69483      4.92090      2.55055        -1.813087     -0.885266      1.902550
      3.43893      7.61266      8.59627        -3.767146      1.285783      3.401581
      0.29835      5.97032      6.15793        -1.846062      0.512672     -4.866851
      8.22045      9.34574      8.81198         1.375381     -1.138998      0.819951
      8.56180      0.22053      3.86204        -1.229214      0.966886     -1.305661
      0.35685      8.34281      1.24167         0.487061     -2.091390      1.139511
      2.10195      4.91199      7.87642         2.844382     -1.579626      1.089578
      1.12830      8.88216      6.10286        -9.427099     -2.165000      0.713958
      1.42346      3.55397      2.36607         3.768675     -4.219662     -1.850577
      7.06711      3.08290      7.54895        -0.194371     -2.504492     -1.579348
      9.08184      1.64341      9.61658        -1.504688     -0.724995     -0.404968
      4.57246      3.37613      9.88288        -0.029003     -3.200895      0.414835
      3.14336      6.12774      2.83937         0.449540      2.058492      1.715529
      5.83576      7.40880      6.43286         0.369767     -1.327747     -1.993206
      2.04006      9.12878      3.34478         2.627944      0.368939      0.184853
      3.19390      0.73068      8.73820         5.601440     -5.390506      0.511643
      9.50365      3.50404      4.81563        -0.733627     -2.297456     -0.921914
      8.49272      7.47622      3.74704        -0.315973      3.196478     -0.411676
      7.37670      3.86179     10.06674        -1.210622     -0.767901      1.432275
      5.95868      0.76678      9.56612         1.518981     -0.723153      1.965420
      5.09643      5.27349      7.95906         0.043178      2.360623      3.755899
      2.28152      3.95502      5.16602        -0.989753     -4.135670     -1.290352
      3.34652      1.18993      1.19819         6.098341     -6.685480      7.241152
      0.90163      1.23385      4.11798         1.809539     -2.026265     -2.874900
      0.48256      5.61374      3.19122        -6.629146      6.794972      0.080224
      9.18259      2.61194      1.96146         0.377647      3.211686      0.699380
      8.74008      0.69507      6.68763        -1.806464      5.049746     -0.463880
      7.26482      9.14489      1.11696        -2.311803     -5.430826      0.422239
      6.57100      2.48639      4.73687         0.065267      0.042103     -0.717016
      0.91857      9.74135      8.99292        -4.177299     -0.202932     -4.084882
      1.64325      2.56445      9.69807        -1.576197     -5.196189      2.444067
      5.74366      8.28170      9.56469        -0.964776    -11.206305      6.789038
      3.27071      9.63754      5.90160         7.899188      1.982460     -1.662608
      2.29200      5.35960      0.49137         5.176743      2.399405     -4.141947
      8.52975      6.84623      0.92132        -4.319619      7.598286     -0.116270
      9.82943      3.80432      7.91039        -0.682465     -2.535185     -5.577747
      3.18649      8.43228      0.99497         7.967251     -0.007523     -4.005081
      3.17287      6.98697      5.92834         1.581531     -1.956223     -0.074548
      0.75111      7.22060      8.63101        -7.365517     -2.669847      5.199801
      8.78818      8.18791      6.58587        -5.561036     -1.641786     -4.203828
      5.52871      7.12107      3.60977         1.069707     -6.795216     -1.182215
      4.37612      2.26683      7.22078         2.845846      9.627981     -2.354491
      4.48420      3.88427      2.44591         1.967605     -0.307995     -6.485269
      5.56990      9.50208      3.42623        -4.256784      4.281424      0.178387
      7.66549      5.19976      5.64690         0.941066      4.356003      0.788954
      4.92234      3.76474      7.81082        -5.363788     -6.216467     -2.494373
      0.85173      7.12910      3.95693         0.950920     -4.331085     -3.095279
      5.53439      1.60286      8.34748        -7.464829      0.781730     -5.558752
     10.02459     10.11236      7.44523        -0.959087      0.791096      2.044530
      6.76778      2.18038      9.94075         1.707931      3.451481      1.320078
      5.80597      9.32880      8.63592         0.371056     10.918235     -6.569294
[...]
      5.45767      2.55715      5.95738         2.861142     -0.272126     -0.661593
      1.44008      2.56784      4.88858         1.307641     -3.755273     -1.945481
      2.25664      7.75278      1.87003        -8.380063     -0.602879      7.084273
      8.20858      6.35207      6.48983         4.022854      3.395521     -2.164688
      7.17620      6.80717      2.04264        -1.998919      0.951514      1.463025
      2.11600      9.67605      7.70058        -0.417449      0.020151      1.518839
      7.93473      9.46557      5.68599         3.101454      0.845169      2.702219
      3.92899      8.85966      9.93934         0.073607      2.649312     -2.833523
      4.02036      6.39748      7.35172        -0.777110     -5.297915     -8.199912
      2.46797      9.87258      1.13685         1.102529      2.495729      0.512800
      3.61922      4.65780      1.02445        -1.129904     -4.235185      6.853162
      4.28857      6.64466      4.76807         0.666132      2.573532     -1.051466
      3.53081      3.34125      5.91019        -1.755609     -1.931819      2.184964
      1.42483      0.75738      9.64126         0.714997      4.411708      0.162981
      1.41989      4.01111      9.99766         5.836735     10.418455      0.446560
    total drift:                                0.004216      0.016774      0.036651

  FREE ENERGIE OF THE ION-ELECTRON SYSTEM (eV)
  free  energy   TOTEN  =      -843.98534267 eV

  energy  without entropy=     -843.98534267  energy(sigma->0) =     -843.98534267