 vasp.5.4.4.18Apr17-6-g9f103f2a35 (build Mar 16 2023 09:39:13) complex

 executed on             LinuxIFC date 2024.04.30  01:28:01

 INCAR:
 POTCAR:    PAW_PBE Ca_sv 06Sep2000
 POTCAR:    PAW_PBE Si 05Jan2001
 POTCAR:    PAW_PBE O 08Apr2002
 POTCAR:    PAW_PBE Ca_sv 06Sep2000
   VRHFIN =Ca: 3s3p4s

   TITEL  = PAW_PBE Ca_sv 06Sep2000
   POMASS =   40.078; ZVAL   =   10.000    mass and valenz
   ENMAX  =  266.622; ENMIN  =  199.967 eV

   TITEL  = PAW_PBE Si 05Jan2001
   POMASS =   28.085; ZVAL   =    4.000    mass and valenz
   ENMAX  =  245.345; ENMIN  =  184.009 eV

   TITEL  = PAW_PBE O 08Apr2002
   POMASS =   16.000; ZVAL   =    6.000    mass and valenz
   ENMAX  =  400.000; ENMIN  =  300.000 eV

 Optimization of the real space projectors (new method)

 maximal supplied QI-value         = 16.25
 optimisation between [QCUT,QGAM] = [ 12.51, 25.03] = [ 43.85,175.40] Ry
 Optimized for a Real-space Cutoff    1.47 Angstroem

   l    n(q)    QCUT    max X(q) W(low)/X(q) W(high)/X(q)  e(spline)
   0     11    12.514    11.817    0.25E-04    0.32E-05    0.87E-07
   0     11    12.514     8.461    0.39E-04    0.59E-05    0.18E-06
   1     11    12.514     3.957    0.97E-05    0.57E-05    0.28E-07
   1     11    12.514     4.314    0.42E-04    0.14E-04    0.23E-06
   2     10    12.514    14.565    0.79E-04    0.50E-03    0.16E-05
   2     10    12.514    14.552    0.75E-04    0.48E-03    0.15E-05
 Optimization of the real space projectors (new method)

[...]

   l    n(q)    QCUT    max X(q) W(low)/X(q) W(high)/X(q)  e(spline)
   0      9    12.501   159.560    0.10E-03    0.83E-04    0.71E-07
   0      9    12.501   115.863    0.99E-04    0.81E-04    0.70E-07
   1      8    12.501    88.339    0.20E-03    0.25E-03    0.76E-07
   1      8    12.501    48.592    0.20E-03    0.24E-03    0.75E-07
 Optimization of the real space projectors (new method)

 maximal supplied QI-value         = 24.76
 optimisation between [QCUT,QGAM] = [ 12.38, 25.00] = [ 42.90,175.06] Ry
 Optimized for a Real-space Cutoff    1.16 Angstroem

   l    n(q)    QCUT    max X(q) W(low)/X(q) W(high)/X(q)  e(spline)
   0      9    12.378    20.381    0.16E-03    0.67E-05    0.31E-06
   0      9    12.378    15.268    0.17E-03    0.81E-05    0.33E-06
   1      8    12.378     5.964    0.20E-03    0.16E-03    0.30E-06
   1      8    12.378     5.382    0.18E-03    0.14E-03    0.26E-06
  PAW_PBE Ca_sv 06Sep2000               :
  PAW_PBE Si 05Jan2001                  :
  PAW_PBE O 08Apr2002                   :

 POSCAR: Ca Si  O
  positions in direct lattice
 exchange correlation table for  LEXCH =        8
   RHO(1)=    0.500       N(1)  =     2000
   RHO(2)=  100.500       N(2)  =     4000

 ion  position               nearest neighbor table
   1  0.689  0.332  0.807-
   2  0.589  0.121  0.585- 108 2.34  59 2.38  99 2.44  84 2.57  44 3.01
   3  0.829  0.410  0.056- 101 2.12 109 2.42  51 3.09  54 3.10
   4  0.090  0.720  0.829-  93 2.30 116 2.38 130 2.38  86 2.46  38 2.71
   5  0.602  0.256  0.330-  84 2.12  53 2.95
   6  0.153  0.576  0.245-  66 2.12  96 2.54  31 3.15
   7  0.715  0.909  0.009- 110 2.08 111 2.21
   8  0.898  0.056  0.898- 111 1.98 121 2.38 110 2.39  78 2.47  30 2.66  52 3.01
   9  0.110  0.559  0.523-  65 2.29  66 2.31 134 2.37  90 2.47  12 2.66  31 2.90
  10  0.818  0.593  0.336-  94 2.06 124 2.10  39 3.10
  11  0.573  0.643  0.866-  62 2.02
  12  0.173  0.473  0.700-  88 1.79  65 2.14  79 2.52  90 2.54   9 2.66
  13  0.391  0.933  0.977-  74 2.23  75 2.37 125 2.39 131 2.43
  14  0.477  0.428  0.097- 122 1.88 114 2.21  70 2.26  92 2.50  43 3.09  35 3.13
  15  0.267  0.048  0.551-  63 2.19  68 2.29  80 2.36  40 2.80  32 2.89
  16  0.378  0.854  0.731-  68 2.17 113 2.26
  17  0.152  0.521  0.986-  89 2.05  79 2.15  83 2.51  54 3.00  38 3.04  49 3.16
  18  0.949  0.222  0.348-  81 2.05  57 2.06 107 2.26 128 2.30  46 2.72
  19  0.997  0.775  0.137- 116 1.98 104 2.36  94 2.55  38 3.06  30 3.13  34 3.16
  20  0.668  0.924  0.307- 103 2.04 135 2.15 100 2.40
  21  0.315  0.855  0.216- 131 2.39 112 2.43
  22  0.910  0.021  0.504- 128 2.19  81 2.33  80 2.48 117 2.56  34 3.14
  23  0.097  0.228  0.587- 107 2.16 133 2.39  90 2.45  63 2.47  80 2.53  41 3.08
  24  0.331  0.241  0.872-  92 2.14 133 2.45  60 2.55  28 2.82
  25  0.862  0.749  0.667- 127 2.09  77 2.48 106 2.50  33 2.99
  26  0.517  0.632  0.378- 119 2.29 114 2.50 129 2.52  73 2.56  35 2.93  42 3.01
  27  0.192  0.045  0.110-  71 2.14 121 2.34  74 2.37  36 3.05
  28  0.130  0.168  0.828-  60 1.47  58 1.57 133 1.72  76 1.87  24 2.82  49 2.88
  29  0.234  0.301  0.218-  96 1.70 115 1.78  85 1.87 123 1.90  89 2.33  54 2.76  41 2.89  36 3.05
                            35 3.10
  30  0.930  0.004  0.095- 111 1.69 104 1.69  78 1.79 121 1.79   8 2.66  47 2.85  34 2.95  19 3.13

  31  0.023  0.719  0.392-  66 1.53 134 1.62 132 1.65  94 1.81   9 2.90   6 3.15
  32  0.111  0.952  0.679-  86 1.62  68 1.66  80 1.70  76 1.72  15 2.89
  33  0.673  0.805  0.546- 127 1.59 100 1.64 119 1.65 106 1.99  42 2.91  25 2.99
  34  0.021  0.958  0.298-  81 1.64 104 1.66 132 1.69  71 1.72  30 2.95  22 3.14  19 3.16
  35  0.385  0.457  0.318- 114 1.62  73 1.72  97 1.86  96 1.89  41 2.89  26 2.93  29 3.10  14 3.13

  36  0.396  0.163  0.116- 120 1.54 123 1.57  74 1.72  92 1.85  43 2.99  27 3.05  29 3.05
  37  0.323  0.616  0.830-  62 1.57  55 1.62  88 1.73 130 1.78
  38  0.194  0.750  0.009-  83 1.56 116 1.59 130 1.59  75 1.59   4 2.71  17 3.04  19 3.06
  39  0.717  0.676  0.135-  67 1.70 124 1.77  61 1.85 105 1.90 129 2.06  48 2.62  10 3.10
  40  0.432  0.033  0.411-  99 1.57 103 1.62 112 1.74 126 1.86  15 2.80  42 2.89
  41  0.261  0.317  0.439-  63 1.60 115 1.67  90 1.72  97 1.74  35 2.89  29 2.89  23 3.08
  42  0.456  0.826  0.491- 119 1.69 113 1.71 126 1.76  87 1.78  40 2.89  33 2.91  26 3.01
  43  0.597  0.234  0.026-  70 1.56  82 1.58  98 1.77 120 2.08  36 2.99  14 3.09
  44  0.554  0.088  0.813-  98 1.64 125 1.65  59 1.67 108 1.81   2 3.01
  45  0.720  0.545  0.619-  69 1.59  91 1.74 102 1.85 106 1.87  72 2.06  53 2.66
  46  0.852  0.272  0.528-  56 1.54 107 1.61 128 1.77  95 1.78  53 2.63  18 2.72
  47  0.772  0.133  0.179- 135 1.47  78 1.66  57 1.77  82 1.79  30 2.85
  48  0.517  0.684  0.103- 129 1.58 122 1.60 131 1.81  67 1.89  39 2.62
  49  0.015  0.354  0.871-  79 1.49 118 1.72  58 1.75 101 1.89  50 2.73  28 2.88  17 3.16
  50  0.931  0.510  0.756-  91 1.59  65 1.68 118 1.78  93 1.83 109 2.38  51 2.72  49 2.73
  51  0.839  0.606  0.920-  61 1.64 109 1.79  77 1.86  93 1.89  50 2.72   3 3.09
  52  0.755  0.964  0.740- 110 1.56 117 1.66 108 1.75 127 2.12   8 3.01
  53  0.677  0.375  0.510-  56 1.51 102 1.52  84 1.55  72 1.87  46 2.63  45 2.66   5 2.95
  54  0.055  0.352  0.112-  85 1.58  64 1.74  89 1.80 101 1.85  29 2.76  17 3.00   3 3.10
  55  0.341  0.506  0.886-  37 1.62
  56  0.782  0.348  0.468-  53 1.51  46 1.54
  57  0.830  0.239  0.243-  47 1.77  18 2.06
  58  0.022  0.223  0.839-  28 1.57  49 1.75
  59  0.511  0.185  0.740-  44 1.67   2 2.38
  60  0.168  0.147  0.932-  28 1.47  24 2.55
  61  0.815  0.659  0.032-  51 1.64  39 1.85
  62  0.435  0.641  0.792-  37 1.57  11 2.02
  63  0.267  0.210  0.502-  41 1.60  15 2.19  23 2.47
  64  0.003  0.447  0.192-  54 1.74
  65  0.028  0.551  0.680-  50 1.68  12 2.14   9 2.29
  66  0.127  0.664  0.380-  31 1.53   6 2.12   9 2.31
  67  0.642  0.725  0.039-  39 1.70  48 1.89
  68  0.238  0.935  0.685-  32 1.66  16 2.17  15 2.29
  69  0.685  0.523  0.735-  45 1.59
  70  0.596  0.350  0.995-  43 1.56  14 2.26
  71  0.145  0.971  0.251-  34 1.72  27 2.14
  72  0.673  0.514  0.470-  53 1.87  45 2.06
  73  0.339  0.548  0.404-  35 1.72  26 2.56
  74  0.375  0.032  0.117-  36 1.72  13 2.23  27 2.37
  75  0.223  0.870  0.013-  38 1.59  13 2.37
  76  0.103  0.033  0.784-  32 1.72  28 1.87
  77  0.771  0.690  0.824-  51 1.86  25 2.48
  78  0.837  0.104  0.073-  47 1.66  30 1.79   8 2.47
  79  0.119  0.403  0.873-  49 1.49  17 2.15  12 2.52
  80  0.087  0.032  0.578-  32 1.70  15 2.36  22 2.48  23 2.53
  81  0.991  0.069  0.351-  34 1.64  18 2.05  22 2.33
  82  0.700  0.199  0.081-  43 1.58  47 1.79
  83  0.233  0.666  0.086-  38 1.56  17 2.51
  84  0.591  0.295  0.489-  53 1.55   5 2.12   2 2.57
  85  0.111  0.253  0.158-  54 1.58  29 1.87
  86  0.056  0.839  0.685-  32 1.62   4 2.46
  87  0.460  0.821  0.353-  42 1.78
  88  0.240  0.591  0.728-  37 1.73  12 1.79
  89  0.183  0.390  0.071-  54 1.80  17 2.05  29 2.33
  90  0.185  0.384  0.525-  41 1.72  23 2.45   9 2.47  12 2.54
  91  0.840  0.542  0.679-  50 1.59  45 1.74
  92  0.395  0.270  0.021-  36 1.85  24 2.14  14 2.50
  93  0.973  0.591  0.864-  50 1.83  51 1.89   4 2.30
  94  0.958  0.654  0.287-  31 1.81  10 2.06  19 2.55
  95  0.817  0.249  0.658-  46 1.78
[...]
 121  0.036  0.055  0.020-  30 1.79  27 2.34   8 2.38
 122  0.490  0.569  0.066-  48 1.60  14 1.88
 123  0.328  0.188  0.213-  36 1.57  29 1.90
 124  0.732  0.558  0.202-  39 1.77  10 2.10
 125  0.503  0.973  0.836-  44 1.65  13 2.39
 126  0.457  0.956  0.530-  42 1.76  40 1.86
 127  0.720  0.827  0.657-  33 1.59  25 2.09  52 2.12
 128  0.823  0.159  0.457-  46 1.77  22 2.19  18 2.30
 129  0.578  0.703  0.208-  48 1.58  39 2.06  26 2.52
 130  0.253  0.700  0.914-  38 1.59  37 1.78   4 2.38
 131  0.455  0.810  0.104-  48 1.81  21 2.39  13 2.43
 132  0.029  0.842  0.360-  31 1.65  34 1.69
 133  0.213  0.202  0.729-  28 1.72  23 2.39  24 2.45
 134  0.986  0.694  0.509-  31 1.62   9 2.37
 135  0.727  0.074  0.265-  47 1.47  20 2.15

IMPORTANT INFORMATION: All symmetrisations will be switched off!
NOSYMM: (Re-)initialisation of all symmetry stuff for point group C_1.

Automatic generation of k-mesh.
 generate k-points for:    2    2    2
Space group operators:
 irot       det(A)        alpha          n_x          n_y          n_z        tau_x        tau_y        tau_z
    1     1.000000     0.000000     1.000000     0.000000     0.000000     0.000000     0.000000     0.000000

 Subroutine IBZKPT returns following result:

 Found      8 irreducible k-points:

 Following reciprocal coordinates:
            Coordinates               Weight
  0.000000  0.000000  0.000000      1.000000
  0.500000  0.000000  0.000000      1.000000
  0.000000  0.500000  0.000000      1.000000
  0.500000  0.500000  0.000000      1.000000
  0.000000  0.000000  0.500000      1.000000
  0.500000  0.000000  0.500000      1.000000
  0.000000  0.500000  0.500000      1.000000
  0.500000  0.500000  0.500000      1.000000

 Following cartesian coordinates:
            Coordinates               Weight
  0.000000  0.000000  0.000000      1.000000
  0.038669  0.000000  0.000000      1.000000
  0.000000  0.038669  0.000000      1.000000
  0.038669  0.038669  0.000000      1.000000
  0.000000  0.000000  0.038669      1.000000
  0.038669  0.000000  0.038669      1.000000
  0.000000  0.038669  0.038669      1.000000
  0.038669  0.038669  0.038669      1.000000

 SYSTEM =  unknown system
 POSCAR =  Ca Si  O

 Startparameter for this run:
   NWRITE =      2    write-flag & timer
   PREC   = a         normal or accurate (medium, high low for compatibility)
   ISTART =      0    job   : 0-new  1-cont  2-samecut
   ICHARG =      2    charge: 1-file 2-atom 10-const
[...]
     0.000000000  0.000000000 12.930412990     0.000000000  0.000000000  0.077337050

  length of vectors
    12.930412990 12.930412990 12.930412990     0.077337050  0.077337050  0.077337050

 FORCES acting on ions
    electron-ion (+dipol)            ewald-force                    non-local-force                 convergence-correction
   0.180E+03 0.860E+02 -.151E+02   -.179E+03 -.797E+02 0.837E+01   -.821E+00 -.430E+01 0.406E+01   -.216E-02 0.243E-02 -.125E-02
   0.784E+01 0.110E+02 -.444E+02   -.121E+02 -.606E+01 0.420E+02   0.324E+01 -.333E+01 0.266E+00   -.189E-02 0.105E-02 0.435E-04
   0.189E+03 -.112E+02 -.162E+03   -.187E+03 0.117E+02 0.161E+03   -.343E+01 0.177E+00 0.240E+01   -.191E-02 -.631E-03 0.277E-03
   -.159E+02 -.196E+03 0.167E+03   0.140E+02 0.197E+03 -.171E+03   0.106E+01 0.255E+00 0.101E+01   -.623E-04 0.928E-05 -.380E-03
   0.118E+01 -.103E+03 0.114E+03   -.458E+01 0.989E+02 -.108E+03   0.232E+01 0.217E+01 -.638E+01   -.564E-03 -.166E-02 -.289E-03
   -.797E+02 0.444E+00 -.801E+02   0.796E+02 0.423E+00 0.826E+02   0.452E+00 -.173E+01 -.293E+01   -.347E-04 0.323E-03 0.921E-03
   0.301E+03 -.125E+02 -.313E+02   -.294E+03 0.728E+01 0.294E+02   -.695E+01 0.324E+01 0.320E+01   -.479E-03 0.847E-03 -.216E-03
   0.330E+02 -.177E+03 0.259E+03   -.283E+02 0.173E+03 -.258E+03   -.261E+01 0.582E+01 -.401E+01   -.137E-02 -.363E-03 0.124E-02
   -.145E+03 -.225E+02 0.118E+03   0.142E+03 0.260E+02 -.121E+03   0.279E+01 -.248E+01 0.133E+01   0.179E-03 0.542E-04 -.659E-03
   0.337E+02 0.107E+03 -.122E+03   -.343E+02 -.106E+03 0.119E+03   -.654E+00 -.103E+01 0.487E+01   -.891E-04 -.111E-03 -.626E-03
   0.522E+02 0.161E+01 0.906E+02   -.502E+02 -.430E+01 -.946E+02   0.123E+01 0.154E+01 0.380E+01   0.202E-02 -.198E-02 -.113E-02
   -.294E+03 0.204E+03 0.124E+03   0.292E+03 -.206E+03 -.121E+03   0.314E+00 -.542E+01 -.281E+01   0.104E-02 -.661E-03 -.473E-03
   -.120E+03 0.934E+01 0.203E+03   0.121E+03 -.101E+02 -.196E+03   -.410E-01 0.128E+00 -.574E+01   0.173E-02 0.116E-02 0.115E-02
   -.152E+02 0.373E+02 0.454E+02   0.151E+02 -.366E+02 -.463E+02   -.143E+01 -.473E+01 0.892E+00   0.108E-02 -.614E-03 -.103E-02
   -.108E+03 0.924E+02 0.868E+01   0.105E+03 -.897E+02 -.900E+01   0.281E+01 -.229E+01 -.289E+00   0.190E-02 0.901E-03 -.246E-03
   -.123E+03 0.685E+02 -.500E+02   0.119E+03 -.685E+02 0.403E+02   0.386E+01 -.490E+00 0.761E+01   0.118E-02 0.120E-02 -.798E-03
   -.454E+02 -.661E+02 -.425E+02   0.517E+02 0.608E+02 0.426E+02   -.451E+01 0.653E+01 -.507E+00   0.118E-02 -.596E-03 0.676E-04
   -.124E+03 -.199E+03 0.105E+03   0.120E+03 0.196E+03 -.105E+03   0.486E+01 0.422E+01 -.792E+00   -.105E-02 -.215E-03 -.665E-03
   0.397E+02 0.514E+02 -.677E+02   -.441E+02 -.524E+02 0.677E+02   0.111E+01 0.114E+01 0.224E+01   -.916E-03 0.699E-03 0.449E-03
   -.208E+02 0.104E+03 0.568E+02   0.184E+02 -.102E+03 -.531E+02   0.235E+01 -.434E+01 -.333E+01   -.210E-02 0.186E-02 -.928E-03
   0.251E+02 0.187E+03 -.154E+03   -.189E+02 -.183E+03 0.159E+03   -.468E+01 -.290E+01 -.255E+01   0.160E-02 0.125E-02 0.569E-03
   0.439E+02 0.164E+03 -.911E+02   -.443E+02 -.160E+03 0.915E+02   0.133E+00 -.401E+01 0.575E+00   -.466E-03 0.138E-03 -.614E-03
   0.649E+01 -.961E+01 -.598E+02   -.243E+01 0.106E+02 0.575E+02   -.248E+01 -.123E+01 0.252E+01   0.147E-02 0.241E-04 -.235E-03
   -.178E+03 -.719E+02 0.222E+03   0.176E+03 0.723E+02 -.219E+03   0.191E+01 0.190E+00 -.349E+01   0.198E-02 0.128E-03 -.368E-03
   -.123E+03 -.441E+02 0.263E+02   0.121E+03 0.433E+02 -.275E+02   0.401E+01 -.313E+00 0.869E+00   -.143E-02 -.898E-03 0.278E-03
   0.801E+02 0.114E+03 -.150E+03   -.811E+02 -.112E+03 0.148E+03   0.102E+01 -.172E+01 0.165E+01   -.245E-03 0.592E-03 -.934E-03
   -.135E+02 -.478E+02 0.375E+02   0.861E+01 0.471E+02 -.373E+02   0.335E+01 0.176E+01 -.127E+01   0.720E-03 0.223E-03 0.201E-03
   -.361E+02 0.154E+02 0.800E+02   0.400E+02 -.168E+02 -.696E+02   -.313E+01 -.360E+01 -.179E+02   0.693E-03 -.961E-04 0.181E-03
   -.250E+02 0.814E+01 0.252E+01   0.238E+02 -.721E+01 0.492E+01   -.397E+00 -.360E+01 -.667E+01   0.479E-03 -.496E-03 -.125E-03
   -.237E+02 -.206E+02 -.737E+02   0.266E+02 0.194E+02 0.625E+02   -.598E+00 0.225E+01 0.674E+01   -.433E-03 0.205E-03 -.293E-03
   0.269E+02 -.513E+02 -.303E+02   -.210E+02 0.443E+02 0.358E+02   -.102E+02 0.778E+01 -.562E+01   0.569E-04 -.293E-03 -.113E-03
   0.151E+02 0.509E+02 0.122E+02   -.126E+02 -.524E+02 -.111E+02   -.228E+01 0.294E+01 0.585E+00   0.357E-03 0.201E-03 -.905E-04
   0.938E+02 0.152E+01 -.410E+02   -.846E+02 0.156E+01 0.367E+02   -.476E+01 -.612E+01 0.637E+00   -.139E-03 0.181E-03 0.185E-03
   -.230E+02 0.224E+02 -.664E+02   0.281E+02 -.167E+02 0.650E+02   -.431E+00 -.492E+01 0.181E+01   0.938E-04 0.261E-03 -.186E-03
   -.179E+00 -.151E+01 -.415E+02   0.424E+01 0.878E+01 0.478E+02   -.660E+01 -.693E+01 -.123E+01   0.425E-03 -.120E-03 0.122E-04
   -.109E+02 0.443E+02 0.876E+02   0.143E+02 -.393E+02 -.773E+02   -.411E+01 -.522E+01 -.129E+02   0.767E-03 -.600E-04 0.690E-04
   -.604E+02 -.344E+02 0.610E+02   0.698E+02 0.212E+02 -.632E+02   -.110E+02 0.927E+01 0.175E+01   0.630E-03 -.555E-03 -.359E-05
   -.422E+02 -.707E+02 -.878E+01   0.433E+02 0.677E+02 0.145E+02   0.647E+00 0.459E+01 -.328E+01   0.160E-03 0.188E-03 0.452E-03
   -.160E+02 0.462E+02 -.445E+02   0.149E+02 -.431E+02 0.449E+02   0.174E+01 -.404E+00 0.138E+01   -.438E-03 0.785E-04 0.134E-03
   0.809E+02 0.214E+02 -.745E+01   -.716E+02 -.140E+02 0.123E+01   -.821E+01 -.946E+01 0.210E+01   0.851E-03 0.428E-03 -.378E-03
   -.646E+02 -.929E+02 -.129E+02   0.634E+02 0.830E+02 0.205E+02   0.213E+01 0.904E+01 -.387E+01   0.471E-03 -.391E-03 0.373E-03
   0.719E+02 0.533E+02 -.589E+02   -.761E+02 -.549E+02 0.567E+02   0.873E+00 0.229E+01 -.332E+00   -.966E-04 0.458E-03 -.478E-03
   0.282E+02 0.338E+02 0.248E+02   -.194E+02 -.248E+02 -.234E+02   -.119E+02 -.123E+02 -.492E-01   -.742E-04 -.767E-04 -.121E-03
   0.300E+02 0.205E+02 0.170E+02   -.355E+02 -.173E+02 -.191E+02   0.565E+01 -.267E+01 0.473E+00   -.186E-03 0.417E-03 0.296E-03
   0.895E+02 -.413E+02 0.896E+02   -.937E+02 0.390E+02 -.757E+02   0.342E+01 0.223E+01 -.154E+02   -.104E-02 -.982E-03 0.288E-02
   0.964E+01 -.699E+01 -.786E+02   -.850E+01 0.591E+01 0.770E+02   -.610E+00 -.533E+01 0.707E+01   -.497E-03 0.890E-05 -.263E-04
   0.242E+02 -.224E+02 0.220E+02   -.254E+02 0.204E+02 -.110E+02   0.422E+01 0.106E+02 -.143E+02   -.662E-03 -.403E-04 -.337E-05
   0.913E+02 -.600E+01 0.537E+02   -.860E+02 0.461E+01 -.460E+02   -.499E+01 0.613E+01 -.802E+01   0.255E-03 -.341E-05 0.960E-04
   0.741E+02 0.248E+02 -.194E+02   -.626E+02 -.238E+02 0.129E+02   -.167E+02 -.727E+01 0.590E+01   -.895E-04 -.103E-03 0.164E-03
   0.970E+01 0.280E+02 -.101E+02   -.934E+01 -.266E+02 -.214E+01   0.274E+00 -.194E+01 0.104E+02   -.127E-02 0.133E-03 -.242E-03
   0.143E+02 -.198E+02 -.342E+02   -.220E+02 0.229E+02 0.324E+02   0.469E+01 -.137E+01 -.306E+01   -.126E-02 -.160E-03 -.719E-03
   0.843E+02 -.137E+02 0.746E+02   -.730E+02 0.128E+02 -.657E+02   -.997E+01 -.560E+00 -.112E+02   -.486E-03 -.164E-04 0.768E-03
   0.707E+02 -.384E+02 0.345E+02   -.752E+02 0.365E+02 -.272E+02   -.204E+00 0.696E+01 -.816E+01   -.589E-03 -.174E-03 0.995E-03
   0.810E+02 -.712E+01 -.235E+02   -.726E+02 0.803E+01 0.294E+02   -.745E+01 0.250E+01 -.678E+01   -.391E-04 -.325E-03 0.153E-03
   -.166E+03 0.151E+03 0.495E+02   0.175E+03 -.177E+03 -.378E+02   -.108E+02 0.250E+02 -.107E+02   0.118E-02 -.996E-03 0.604E-04
   -.348E+02 -.122E+03 0.127E+03   0.484E+02 0.135E+03 -.157E+03   -.106E+02 -.112E+02 0.258E+02   -.829E-03 -.174E-03 0.395E-03
   0.553E+02 -.172E+03 0.486E+02   -.507E+02 0.188E+03 -.405E+02   -.668E+01 -.174E+02 -.114E+02   -.940E-03 -.389E-03 -.316E-03
   0.120E+03 0.501E+02 0.569E+02   -.147E+03 -.573E+02 -.593E+02   0.237E+02 0.973E+01 0.244E+01   0.279E-03 -.228E-03 0.440E-03
   0.138E+03 -.159E+03 0.521E+02   -.149E+03 0.182E+03 -.665E+02   0.110E+02 -.246E+02 0.153E+02   -.182E-03 0.867E-03 0.749E-04
   -.114E+03 0.362E+02 -.574E+02   0.119E+03 -.459E+02 0.944E+02   0.480E+00 0.983E+01 -.312E+02   0.561E-03 -.419E-04 0.419E-03
[...]
   0.288E+02 -.476E+02 0.959E+02   -.355E+02 0.290E+02 -.105E+03   0.697E+01 0.240E+02 0.745E+01   0.557E-03 -.360E-03 -.206E-03
   -.288E+01 -.101E+02 -.120E+03   -.208E+01 -.488E+00 0.152E+03   -.761E+00 0.150E+02 -.302E+02   0.947E-03 -.518E-03 0.193E-04
   0.447E+02 0.160E+03 -.313E+01   -.490E+02 -.179E+03 0.107E+02   0.434E+01 0.217E+02 -.103E+02   -.436E-03 -.106E-03 -.246E-03
   0.106E+02 0.912E+02 0.440E+02   -.155E+02 -.114E+03 -.412E+02   0.430E+01 0.228E+02 -.294E+01   0.642E-03 0.658E-03 0.116E-03
   -.182E+01 0.217E+02 -.159E+03   0.623E+01 -.103E+02 0.174E+03   -.520E+01 -.121E+02 -.154E+02   0.165E-03 0.777E-03 -.696E-03
   0.196E+03 -.511E+02 -.822E+02   -.188E+03 0.485E+02 0.104E+03   -.112E+02 0.585E+01 -.191E+02   -.449E-04 -.339E-03 0.490E-03
   0.159E+03 0.653E+02 -.327E+02   -.170E+03 -.787E+02 0.209E+02   0.121E+02 0.147E+02 0.136E+02   -.671E-03 0.156E-03 -.757E-03
   0.146E+02 -.721E+01 -.115E+03   -.668E+01 0.192E+02 0.143E+03   -.619E+01 -.138E+02 -.248E+02   -.139E-03 0.378E-03 -.109E-03
   -.179E+03 -.604E+02 0.103E+03   0.189E+03 0.590E+02 -.108E+03   -.870E+01 0.637E+00 -.977E+00   0.573E-03 -.413E-03 0.199E-03
   -.337E+02 -.133E+02 0.349E+02   0.331E+02 0.288E+02 -.297E+02   0.112E+00 -.176E+02 -.732E+01   0.661E-03 0.591E-03 0.584E-03
   -.563E+02 -.465E+01 -.126E+03   0.627E+02 0.779E+01 0.133E+03   -.726E+01 -.158E+01 -.701E+01   -.290E-04 0.279E-04 -.436E-03
   -.194E+03 -.449E+02 0.609E+02   0.210E+03 0.474E+02 -.796E+02   -.176E+02 -.161E+01 0.209E+02   0.121E-02 0.219E-04 -.233E-03
   0.209E+02 -.492E+02 -.449E+02   -.298E+02 0.466E+02 0.728E+02   0.813E+01 0.245E+01 -.288E+02   -.257E-03 -.200E-03 -.297E-04
   0.620E+02 0.134E+02 -.470E+02   -.754E+02 -.282E+02 0.807E+02   0.110E+02 0.116E+02 -.313E+02   -.100E-02 0.250E-03 -.224E-03
   0.209E+03 0.814E+01 0.135E+03   0.512E-12 -.412E-12 -.142E-13   -.209E+03 -.817E+01 -.135E+03   -.761E-02 0.430E-02 0.238E-02

 POSITION                                       TOTAL-FORCE (eV/Angst)
      8.91534      4.28728     10.44026         0.365779      2.044785     -2.679101
      7.61788      1.56391      7.56997        -1.011803      1.562194     -2.149994
     10.72521      5.30225      0.73041        -1.533317      0.688630      1.602182
      1.16952      9.31380     10.72486        -0.818285      0.800953     -2.909026
      7.78992      3.31100      4.27176        -1.075036     -1.904739      0.033860
      1.98257      7.44298      3.16670         0.315678     -0.865459     -0.430997
      9.24611     11.75946      0.11456        -0.019543     -2.013222      1.300461
     11.61075      0.72107     11.61646         2.108176      1.805120     -2.862829
      1.42345      7.22947      6.76614        -0.159222      1.050542     -1.027021
     10.58163      7.66594      4.33869        -1.243118     -0.583932      2.115379
      7.40976      8.32019     11.19369         3.248065     -1.148416     -0.176660
      2.23694      6.12028      9.04722        -1.026281     -7.476827      0.202835
      5.05870     12.06183     12.63173         0.271120     -0.677231      1.172561
      6.17338      5.53187      1.24907        -1.471920     -4.002494     -0.045244
      3.45585      0.61878      7.12376        -0.074553      0.417986     -0.613850
      4.88444     11.04290      9.44632        -0.399022     -0.479353     -2.123153
      1.96103      6.73252     12.74675         1.813046      1.291229     -0.352244
     12.27420      2.86727      4.49592         1.103468      1.252642     -0.718992
     12.88568     10.02549      1.77477        -3.255752      0.141201      2.328380
      8.63867     11.95285      3.97224        -0.048938     -2.039782      0.452235
      4.07553     11.05963      2.79080         1.571962      0.902324      2.088927
     11.77055      0.27608      6.52275        -0.304688     -0.825676      1.016267
      1.25273      2.94507      7.59356         1.583822     -0.285392      0.212188
      4.27632      3.11405     11.27574        -0.379175      0.567432     -0.945353
     11.14411      9.68972      8.62033         1.914855     -1.050386     -0.331255
      6.68505      8.16655      4.89097        -0.058885     -0.110853     -0.687124
      2.48680      0.57803      1.42412        -1.529262      1.097877     -1.020135
      1.67586      2.17776     10.70036         0.794084     -5.059670     -7.519658
      3.02545      3.88893      2.81998        -1.646126     -2.666031      0.778864
     12.02141      0.05234      1.22297         2.366068      1.112588     -4.442616
      0.29662      9.29718      5.07115        -4.279910      0.778282     -0.119753
      1.43548     12.31182      8.77886         0.148043      1.508742      1.659199
      8.70355     10.40287      7.05559         4.470480     -3.034940     -3.610471
      0.27720     12.38322      3.85251         4.728992      0.860695      0.430096
      4.97911      5.91281      4.11569        -2.535676      0.331976      5.013706
      5.11765      2.11047      1.49790        -0.721844     -0.225861     -2.601326
      4.17710      7.97115     10.72961        -1.539864     -3.902811     -0.411095
      2.51044      9.70311      0.11734         1.763948      1.575157      2.438911
      9.27030      8.74267      1.74174         0.620981      2.705458      1.745241
      5.58220      0.42647      5.30950         1.037829     -2.069546     -4.122206
      3.37402      4.09304      5.68187         0.922574     -0.901301      3.756603
      5.89449     10.68189      6.34994        -3.243723      0.614459     -2.486277
      7.71727      3.02126      0.33102        -3.173906     -3.336846      1.345583
      7.16314      1.13828     10.51099         0.218856      0.585250     -1.558020
      9.30443      7.04140      8.00462        -0.747101     -0.094235     -1.439533
     11.01743      3.52291      6.82143         0.529625     -6.409880      5.483594
      9.98061      1.72103      2.31716         3.072374      8.675099     -3.248756
      6.68502      8.84819      1.33535         0.305912      4.740538     -0.355948
      0.18812      4.58258     11.26049        -5.221704     -6.347634     -0.657549
     12.03357      6.59971      9.77047         0.632766     -0.551799     -1.808887
     10.84985      7.83645     11.89053        -3.050316      1.776955     -4.926642
      9.75634     12.46382      9.56326         1.310463     -1.376133     -2.373899
      8.75779      4.84797      6.59620        -4.773189      5.102121     -0.895612
      0.71664      4.55194      1.45305         0.907824      3.415654     -0.830337
      4.41409      6.54657     11.46214        -1.830408     -0.180815      0.944600
     10.11713      4.50298      6.04603         2.928612      1.893321     -3.977626
     10.73695      3.09168      3.13980        -2.123921     -1.095840     -3.287590
      0.28628      2.88969     10.84667        -2.849025      2.534374      0.007787
      6.60359      2.38816      9.56283        -0.034438     -1.699478      0.894031
      2.17621      1.90377     12.05675         5.610231      0.166413      5.901898
[...]
      0.46049      0.70599      0.26463        -2.930252     -1.674524      4.007296
      6.33675      7.35835      0.85354         0.304441      5.480774     -1.979877
      4.24267      2.43546      2.75680        -5.728461      4.337655      1.500908
      9.46443      7.21630      2.61277         0.006496      2.111252     -2.777079
      6.50369     12.58315     10.80368        -0.670956      0.462397     -0.185696
      5.90461     12.36678      6.84921        -0.794415     -0.773645      0.282766
      9.31051     10.68934      8.49945        -3.279825      3.232427      3.053622
     10.64560      2.05445      5.90473         0.730680      1.316472      1.847015
      7.46904      9.08551      2.68406         1.764680     -1.793927      2.730790
      3.27215      9.05240     11.81484         1.219016     -0.796031     -5.598386
      5.88376     10.47315      1.34537        -0.564809     -2.214823     -2.048250
      0.36994     10.89325      4.64951        -0.956429      1.561887     -0.426556
      2.75234      2.61247      9.42879        -1.449131      0.903284      2.182627
     12.75405      8.96781      6.58509        -0.781052     -0.122737     -0.813525
      9.39509      0.95956      3.42768        -2.425205     -3.310001      2.402147
    total drift:                                0.007158     -0.030239     -0.016349

  FREE ENERGIE OF THE ION-ELECTRON SYSTEM (eV)
  free  energy   TOTEN  =      -919.90145523 eV

  energy  without entropy=     -919.88894254  energy(sigma->0) =     -919.89519888