 vasp.5.4.4.18Apr17-6-g9f103f2a35 (build Oct 31 2019 15:01:46) complex

 executed on             LinuxIFC date 2024.04.29  09:28:16

 INCAR:
 POTCAR:    PAW_PBE Ca_sv 06Sep2000
 POTCAR:    PAW_PBE Si 05Jan2001
 POTCAR:    PAW_PBE O 08Apr2002
 POTCAR:    PAW_PBE Ca_sv 06Sep2000
   VRHFIN =Ca: 3s3p4s

   TITEL  = PAW_PBE Ca_sv 06Sep2000
   POMASS =   40.078; ZVAL   =   10.000    mass and valenz
   ENMAX  =  266.622; ENMIN  =  199.967 eV

   TITEL  = PAW_PBE Si 05Jan2001
   POMASS =   28.085; ZVAL   =    4.000    mass and valenz
   ENMAX  =  245.345; ENMIN  =  184.009 eV

   TITEL  = PAW_PBE O 08Apr2002
   POMASS =   16.000; ZVAL   =    6.000    mass and valenz
   ENMAX  =  400.000; ENMIN  =  300.000 eV

 Optimization of the real space projectors (new method)

 maximal supplied QI-value         = 16.25
 optimisation between [QCUT,QGAM] = [ 12.51, 25.03] = [ 43.85,175.40] Ry
 Optimized for a Real-space Cutoff    1.47 Angstroem

   l    n(q)    QCUT    max X(q) W(low)/X(q) W(high)/X(q)  e(spline)
   0     11    12.514    11.817    0.25E-04    0.32E-05    0.87E-07
   0     11    12.514     8.461    0.39E-04    0.59E-05    0.18E-06
   1     11    12.514     3.957    0.97E-05    0.57E-05    0.28E-07
   1     11    12.514     4.314    0.42E-04    0.14E-04    0.23E-06
   2     10    12.514    14.565    0.79E-04    0.50E-03    0.16E-05
   2     10    12.514    14.552    0.75E-04    0.48E-03    0.15E-05
 Optimization of the real space projectors (new method)

[...]

   l    n(q)    QCUT    max X(q) W(low)/X(q) W(high)/X(q)  e(spline)
   0      9    12.501   159.560    0.10E-03    0.83E-04    0.71E-07
   0      9    12.501   115.863    0.99E-04    0.81E-04    0.70E-07
   1      8    12.501    88.339    0.20E-03    0.25E-03    0.76E-07
   1      8    12.501    48.592    0.20E-03    0.24E-03    0.75E-07
 Optimization of the real space projectors (new method)

 maximal supplied QI-value         = 24.76
 optimisation between [QCUT,QGAM] = [ 12.38, 25.00] = [ 42.90,175.06] Ry
 Optimized for a Real-space Cutoff    1.16 Angstroem

   l    n(q)    QCUT    max X(q) W(low)/X(q) W(high)/X(q)  e(spline)
   0      9    12.378    20.381    0.16E-03    0.67E-05    0.31E-06
   0      9    12.378    15.268    0.17E-03    0.81E-05    0.33E-06
   1      8    12.378     5.964    0.20E-03    0.16E-03    0.30E-06
   1      8    12.378     5.382    0.18E-03    0.14E-03    0.26E-06
  PAW_PBE Ca_sv 06Sep2000               :
  PAW_PBE Si 05Jan2001                  :
  PAW_PBE O 08Apr2002                   :

 POSCAR: Ca Si  O
  positions in direct lattice
 exchange correlation table for  LEXCH =        8
   RHO(1)=    0.500       N(1)  =     2000
   RHO(2)=  100.500       N(2)  =     4000

 ion  position               nearest neighbor table
   1  0.274  0.754  0.404- 121 2.16 116 2.30
   2  0.387  0.219  0.529- 107 2.28
   3  0.837  0.722  0.362-  63 2.20  55 2.40  60 2.57
   4  0.405  0.630  0.248- 121 1.95  47 3.07
   5  0.234  0.426  0.648- 107 1.89
   6  0.857  0.987  0.076- 108 1.87 100 2.38  99 2.43
   7  0.212  0.798  0.788-  90 2.29  79 2.43  44 2.85
   8  0.933  0.192  0.322- 113 2.17  66 2.21  70 2.42  30 2.86  23 3.11
   9  0.582  0.344  0.386- 119 1.93  74 2.28  85 2.33  42 2.35  96 2.38  34 2.69
  10  0.279  0.064  0.366- 116 2.20  49 3.10
  11  0.671  0.514  0.662-  83 2.41  89 2.46  34 3.08
  12  0.446  0.713  0.889-  76 1.92 114 1.97  71 2.13  31 2.95  52 3.14
  13  0.702  0.277  0.713-  83 2.16 109 2.38 110 2.39  54 3.06
  14  0.633  0.497  0.906-  83 2.13  31 2.40  71 2.46 104 2.48
  15  0.261  0.175  0.068-  65 2.09 125 2.14
  16  0.023  0.617  0.898- 115 2.08 111 2.13  90 2.49 101 2.49  44 3.02  36 3.07
  17  0.880  0.937  0.618-  91 2.13 132 2.38  68 2.49  41 3.12
  18  0.238  0.925  0.583-  82 2.24 116 2.43  84 2.53  49 3.02
  19  0.717  0.758  0.597-  78 1.90  93 2.10 118 2.37  63 2.55  41 2.75  53 2.76
  20  0.774  0.728  0.871- 130 2.12  97 2.18  81 2.41
  21  0.746  0.460  0.173-  96 2.08 104 2.13 102 2.15
  22  0.188  0.318  0.354- 131 2.18  70 2.21
  23  0.868  0.223  0.538- 110 2.43   8 3.11
  24  0.486  0.008  0.769-  59 1.91
  25  0.020  0.539  0.171- 127 2.28  80 2.30  55 2.39
  26  0.164  0.246  0.831- 129 2.40 117 2.42
  27  0.093  0.842  0.061-  98 2.25  88 2.36 115 2.53  29 3.00
  28  0.574  0.772  0.391-  87 1.51  63 1.68 120 1.79  38 2.87
  29  0.015  0.941  0.241- 100 1.48 124 1.62  98 1.69  58 1.75  49 2.64  27 3.00
  30  0.947  0.285  0.135- 128 1.57 102 1.66  66 1.72   8 2.86  32 2.92
  31  0.558  0.595  0.030-  71 1.44 104 1.63 126 1.71 130 2.07  14 2.40  45 2.65  12 2.95
  32  0.907  0.372  0.944- 134 1.50 111 1.62 128 2.00 102 2.44  30 2.92
  33  0.694  0.058  0.504-  91 1.46  72 1.68 133 1.68 109 2.00
  34  0.500  0.449  0.531-  92 1.49 119 1.55  74 1.73  67 2.06   9 2.69  47 2.72  11 3.08
  35  0.111  0.623  0.646-  86 1.60 122 1.87 101 2.20  64 2.39  41 3.10
  36  0.217  0.627  0.011- 127 1.46  90 1.64  95 1.65 106 1.96  50 2.63  16 3.07
  37  0.844  0.705  0.126-  99 1.63  55 1.67  81 1.68  60 2.17  45 2.94
  38  0.512  0.913  0.533- 120 1.64 133 1.66  59 1.69  84 1.71  93 2.18  28 2.87
  39  0.021  0.034  0.833- 117 1.55  61 1.62 129 1.72  68 2.19  54 2.72  44 2.95
  40  0.012  0.513  0.441-  64 1.74  80 1.92  77 2.11
  41  0.904  0.714  0.657- 101 1.58 132 1.64  78 1.79  97 1.96  19 2.75  44 2.93  35 3.10  17 3.12

  42  0.749  0.383  0.404-  96 1.65 113 1.67  94 1.88   9 2.35 119 2.47
  43  0.529  0.938  0.147- 103 1.63  56 1.74 112 1.81  57 1.99  45 3.12
  44  0.006  0.820  0.813- 115 1.53  61 1.58  79 1.80  97 2.06 101 2.51   7 2.85  41 2.93  39 2.95
                            16 3.02
  45  0.631  0.734  0.143- 126 1.60  56 1.62  60 1.64  87 2.33 130 2.46  31 2.65  37 2.94  43 3.12

  46  0.751  0.188  0.966- 108 1.62  69 1.67  73 1.87 134 2.02  54 2.82  48 2.86
  47  0.342  0.507  0.426- 131 1.65 121 1.76  74 1.78  92 2.32  34 2.72   4 3.07
  48  0.557  0.112  0.982- 123 1.52  69 1.66  57 1.74  46 2.86
  49  0.093  0.946  0.417- 135 1.55  58 1.56 116 1.92 124 1.93  29 2.64  18 3.02  10 3.10
  50  0.247  0.438  0.994-  75 1.65 106 1.73  65 1.83  36 2.63
  51  0.440  0.200  0.240-  62 1.55  85 1.59 125 1.86
  52  0.338  0.849  0.039- 112 1.47 114 1.62  88 1.82  95 2.21  12 3.14
  53  0.536  0.717  0.675- 118 1.57  89 1.68  93 1.73  76 1.80  19 2.76
  54  0.852  0.133  0.795-  68 1.48  73 1.61 110 1.94  39 2.72  46 2.82  13 3.06
  55  0.880  0.633  0.217-  37 1.67  25 2.39   3 2.40
  56  0.622  0.852  0.131-  45 1.62  43 1.74
  57  0.597  0.004  0.037-  48 1.74  43 1.99
  58  0.101  0.999  0.317-  49 1.56  29 1.75
  59  0.496  0.987  0.631-  38 1.69  24 1.91
  60  0.716  0.699  0.220-  45 1.64  37 2.17   3 2.57
  61  0.037  0.920  0.860-  44 1.58  39 1.62
  62  0.491  0.242  0.148-  51 1.55
  63  0.695  0.778  0.413-  28 1.68   3 2.20  19 2.55
  64  0.088  0.486  0.540-  40 1.74  35 2.39
  65  0.211  0.315  0.032-  50 1.83  15 2.09
  66  0.016  0.303  0.239-  30 1.72   8 2.21
  67  0.464  0.357  0.644-  34 2.06
  68  0.871  0.028  0.776-  54 1.48  39 2.19  17 2.49
  69  0.630  0.208  0.969-  48 1.66  46 1.67
  70  0.047  0.283  0.423-  22 2.21   8 2.42
  71  0.482  0.579  0.959-  31 1.44  12 2.13  14 2.46
  72  0.717  0.143  0.418-  33 1.68
  73  0.746  0.124  0.845-  54 1.61  46 1.87
  74  0.439  0.420  0.424-  34 1.73  47 1.78   9 2.28
  75  0.190  0.471  0.893-  50 1.65
  76  0.427  0.715  0.749-  53 1.80  12 1.92
  77  0.886  0.585  0.492-  40 2.11
  78  0.784  0.668  0.679-  41 1.79  19 1.90
  79  0.064  0.832  0.696-  44 1.80   7 2.43
  80  0.059  0.583  0.329-  40 1.92  25 2.30
  81  0.856  0.661  0.012-  37 1.68  20 2.41
  82  0.322  0.047  0.654-  18 2.24
  83  0.705  0.408  0.800-  14 2.13  13 2.16  11 2.41
  84  0.401  0.965  0.505-  38 1.71  18 2.53
  85  0.448  0.246  0.347-  51 1.59   9 2.33
  86  0.192  0.618  0.731-  35 1.60
  87  0.569  0.710  0.300-  28 1.51  45 2.33
  88  0.235  0.929  0.015-  52 1.82  27 2.36
  89  0.619  0.664  0.748-  53 1.68  11 2.46
  90  0.195  0.679  0.905-  36 1.64   7 2.29  16 2.49
  91  0.787  0.006  0.514-  33 1.46  17 2.13
  92  0.419  0.506  0.577-  34 1.49  47 2.32
  93  0.588  0.827  0.643-  53 1.73  19 2.10  38 2.18
  94  0.764  0.405  0.539-  42 1.88
  95  0.280  0.703  0.081-  36 1.65  52 2.21
  96  0.701  0.452  0.318-  42 1.65  21 2.08   9 2.38
  97  0.865  0.802  0.763-  41 1.96  44 2.06  20 2.18
  98  0.048  0.985  0.131-  29 1.69  27 2.25
  99  0.887  0.814  0.104-  37 1.63   6 2.43
 100  0.930  0.007  0.233-  29 1.48   6 2.38
 101  0.977  0.660  0.727-  41 1.58  35 2.20  16 2.49  44 2.51
 102  0.858  0.365  0.116-  30 1.66  21 2.15  32 2.44
 103  0.490  0.991  0.247-  43 1.63
 104  0.631  0.518  0.086-  31 1.63  21 2.13  14 2.48
 105  0.287  0.021  0.830-
 106  0.298  0.525  0.071-  50 1.73  36 1.96
 107  0.269  0.335  0.550-   5 1.89   2 2.28
 108  0.813  0.107  0.027-  46 1.62   6 1.87
 109  0.652  0.138  0.620-  33 2.00  13 2.38
 110  0.874  0.247  0.714-  54 1.94  13 2.39  23 2.43
 111  0.953  0.480  0.924-  32 1.62  16 2.13
 112  0.421  0.877  0.101-  52 1.47  43 1.81
 113  0.837  0.315  0.352-  42 1.67   8 2.17
 114  0.345  0.807  0.929-  52 1.62  12 1.97
 115  0.013  0.768  0.912-  44 1.53  16 2.08  27 2.53
 116  0.230  0.916  0.406-  49 1.92  10 2.20   1 2.30  18 2.43
 117  0.034  0.136  0.880-  39 1.55 129 1.96  26 2.42
 118  0.574  0.662  0.582-  53 1.57  19 2.37
 119  0.604  0.410  0.509-  34 1.55   9 1.93  42 2.47
 120  0.481  0.814  0.473-  38 1.64  28 1.79
 121  0.367  0.627  0.385-  47 1.76   4 1.95   1 2.16
 122  0.166  0.738  0.596-  35 1.87
 123  0.448  0.112  0.963-  48 1.52
 124  0.999  0.875  0.339-  29 1.62  49 1.93
 125  0.307  0.204  0.215-  51 1.86  15 2.14
 126  0.531  0.698  0.096-  45 1.60  31 1.71
 127  0.130  0.614  0.072-  36 1.46  25 2.28
 128  0.987  0.282  0.027-  30 1.57  32 2.00
 129  0.126  0.082  0.784-  39 1.72 117 1.96  26 2.40
 130  0.674  0.677  0.978-  31 2.07  20 2.12  45 2.46
 131  0.256  0.463  0.354-  47 1.65  22 2.18
 132  0.908  0.778  0.555-  41 1.64  17 2.38
 133  0.608  0.972  0.487-  38 1.66  33 1.68
 134  0.811  0.322  0.964-  32 1.50  46 2.02
 135  0.077  0.002  0.515-  49 1.55

IMPORTANT INFORMATION: All symmetrisations will be switched off!
NOSYMM: (Re-)initialisation of all symmetry stuff for point group C_1.

Automatic generation of k-mesh.
 generate k-points for:    2    2    2
Space group operators:
 irot       det(A)        alpha          n_x          n_y          n_z        tau_x        tau_y        tau_z
    1     1.000000     0.000000     1.000000     0.000000     0.000000     0.000000     0.000000     0.000000

 Subroutine IBZKPT returns following result:

 Found      8 irreducible k-points:

 Following reciprocal coordinates:
            Coordinates               Weight
  0.000000  0.000000  0.000000      1.000000
  0.500000  0.000000  0.000000      1.000000
  0.000000  0.500000  0.000000      1.000000
  0.500000  0.500000  0.000000      1.000000
  0.000000  0.000000  0.500000      1.000000
  0.500000  0.000000  0.500000      1.000000
  0.000000  0.500000  0.500000      1.000000
  0.500000  0.500000  0.500000      1.000000

 Following cartesian coordinates:
            Coordinates               Weight
  0.000000  0.000000  0.000000      1.000000
[...]
     0.000000000  0.000000000 13.670863650     0.000000000  0.000000000  0.073148268

  length of vectors
    13.670863650 13.670863650 13.670863650     0.073148268  0.073148268  0.073148268

 FORCES acting on ions
    electron-ion (+dipol)            ewald-force                    non-local-force                 convergence-correction
   0.127E+03 0.462E+02 0.101E+03   -.128E+03 -.448E+02 -.968E+02   -.579E+00 -.464E+00 -.264E+01   0.292E-03 0.253E-02 0.263E-03
   0.180E+02 0.146E+03 -.117E+03   -.200E+02 -.139E+03 0.122E+03   0.233E+01 -.554E+01 -.303E+01   -.243E-02 -.763E-02 0.381E-02
   -.157E+03 -.513E+02 0.421E+01   0.156E+03 0.483E+02 -.306E+01   0.208E+01 0.221E+01 -.569E+00   0.197E-03 0.125E-02 -.879E-05
   0.645E+02 0.129E+03 0.154E+03   -.633E+02 -.128E+03 -.153E+03   0.221E+00 -.126E+01 -.480E+01   -.453E-03 0.875E-03 -.971E-03
   0.839E+02 0.769E+02 -.272E+03   -.814E+02 -.767E+02 0.265E+03   -.227E+01 0.235E+01 0.761E+01   -.487E-03 -.225E-02 0.178E-02
   0.160E+03 -.372E+02 -.281E+02   -.156E+03 0.362E+02 0.350E+02   -.144E+01 -.369E+01 -.348E+01   -.141E-03 -.120E-02 -.131E-02
   -.213E+03 -.147E+03 0.966E+02   0.214E+03 0.141E+03 -.944E+02   0.124E+01 0.409E+01 -.156E+01   0.321E-02 0.864E-02 0.981E-03
   0.308E+02 0.206E+03 0.200E+02   -.281E+02 -.200E+03 -.209E+02   -.188E+01 -.698E+01 0.103E+01   -.181E-02 -.283E-02 -.234E-03
   -.298E+00 0.252E+03 0.303E+03   -.667E+01 -.253E+03 -.304E+03   0.325E+01 -.228E+01 -.332E+01   -.737E-03 -.517E-03 -.481E-03
   -.695E+02 -.179E+03 0.127E+03   0.687E+02 0.172E+03 -.128E+03   0.112E+01 0.540E+01 0.171E-01   0.937E-03 -.261E-02 0.366E-02
   -.114E+02 0.202E+03 -.236E+02   0.138E+02 -.199E+03 0.252E+02   -.134E+01 -.172E+01 -.184E+01   0.131E-03 0.112E-02 0.135E-02
   -.842E+02 0.971E+01 -.946E+01   0.812E+02 -.981E+01 0.607E+01   0.505E+01 -.693E+00 0.416E+01   -.424E-03 0.325E-02 -.586E-03
   0.165E+03 0.536E+02 -.585E+02   -.164E+03 -.529E+02 0.583E+02   -.180E+01 -.112E+01 -.526E+00   -.961E-04 -.756E-03 0.138E-02
   0.144E+03 0.320E+03 0.460E+01   -.139E+03 -.324E+03 -.108E+02   -.292E+01 0.197E+01 0.376E+01   -.165E-02 0.321E-03 0.236E-03
   -.545E+02 0.681E+02 0.101E+03   0.565E+02 -.642E+02 -.967E+02   -.125E+01 -.541E+01 -.397E+01   0.222E-02 -.279E-02 -.480E-02
   0.691E+01 0.333E+03 0.351E+02   -.586E+01 -.332E+03 -.342E+02   0.725E-01 -.213E+01 -.969E+00   0.535E-03 0.167E-02 0.523E-04
   -.729E+02 -.240E+03 0.628E+02   0.724E+02 0.238E+03 -.657E+02   0.186E+01 0.106E+01 0.305E+01   0.449E-03 0.788E-04 0.124E-02
   0.353E+02 -.632E+02 -.608E+02   -.331E+02 0.688E+02 0.598E+02   -.207E+01 -.471E+01 0.153E+01   0.571E-02 0.862E-02 0.752E-02
   -.425E+02 -.146E+03 0.170E+03   0.371E+02 0.144E+03 -.171E+03   0.361E+01 0.462E+01 -.295E+01   -.191E-02 0.202E-02 0.189E-02
   0.111E+03 -.136E+03 -.673E+02   -.112E+03 0.132E+03 0.679E+02   0.347E+00 0.221E+01 -.799E+00   -.160E-02 0.193E-02 -.246E-03
   0.696E+02 0.166E+03 0.146E+02   -.688E+02 -.167E+03 -.141E+02   0.321E+00 0.112E+01 -.101E+01   -.179E-02 0.623E-03 -.960E-03
   -.266E+02 0.886E+02 0.842E+02   0.219E+02 -.848E+02 -.797E+02   0.358E+01 -.360E+01 -.381E+01   0.354E-02 0.149E-03 0.171E-03
   -.208E+03 -.425E+01 -.411E+02   0.206E+03 0.790E+01 0.425E+02   0.203E+01 -.252E+01 -.137E+01   0.129E-05 -.997E-03 0.224E-02
   -.598E+02 -.204E+03 -.303E+03   0.543E+02 0.204E+03 0.296E+03   0.356E+01 0.332E+00 0.825E+01   -.105E-01 -.432E-03 -.331E-02
   -.113E+03 0.188E+03 -.744E+02   0.114E+03 -.182E+03 0.788E+02   -.921E+00 -.525E+01 -.330E+01   0.541E-03 0.187E-02 -.801E-03
   -.169E+03 -.176E+03 0.107E+03   0.165E+03 0.169E+03 -.105E+03   0.276E+01 0.524E+01 -.146E+01   0.326E-02 -.685E-02 -.227E-02
   -.759E+02 -.429E+02 -.218E+03   0.779E+02 0.490E+02 0.215E+03   -.129E+01 -.588E+01 0.164E+01   0.221E-02 0.126E-02 -.186E-02
   0.613E+02 -.701E+02 0.134E+02   -.526E+02 0.622E+02 -.208E+02   -.570E+01 0.939E+01 0.130E+02   -.402E-03 0.663E-03 0.501E-03
   -.553E+02 0.771E+02 0.142E+02   0.442E+02 -.622E+02 -.131E+02   0.146E+02 -.124E+02 -.131E+01   0.539E-03 -.444E-03 -.114E-03
   -.193E+02 0.108E+03 -.451E+02   0.201E+02 -.103E+03 0.410E+02   -.634E+00 -.281E+01 0.644E+01   -.132E-03 -.246E-03 -.601E-03
   0.391E+02 0.907E+02 -.710E+02   -.443E+02 -.935E+02 0.646E+02   0.128E+02 0.783E+01 0.131E+02   -.354E-03 0.140E-03 -.479E-03
   -.815E+02 0.297E+02 0.106E+03   0.774E+02 -.268E+02 -.104E+03   0.986E+01 -.134E+01 0.545E+00   -.618E-04 -.103E-03 -.665E-03
   0.783E+02 -.758E+02 0.347E+02   -.670E+02 0.741E+02 -.382E+02   -.191E+02 0.802E+01 0.371E+01   -.770E-03 -.895E-03 0.592E-03
   -.800E+01 -.149E+02 -.439E+02   0.198E+01 0.132E+02 0.473E+02   0.451E+01 -.392E+01 -.139E+01   0.406E-03 0.545E-03 -.886E-03
   0.544E+02 0.139E+03 0.125E+03   -.406E+02 -.135E+03 -.118E+03   -.120E+02 0.389E+00 -.807E+01   0.105E-03 0.627E-03 0.387E-03
   -.105E+03 0.118E+03 0.973E+01   0.938E+02 -.107E+03 -.365E+01   0.183E+02 -.759E+01 -.917E+01   0.513E-03 0.802E-03 -.182E-03
   0.336E+02 -.220E+02 -.420E+02   -.236E+02 0.222E+02 0.364E+02   -.901E+01 -.141E+01 0.371E+01   -.110E-03 0.473E-03 -.452E-03
   0.198E+00 -.174E+02 0.283E+02   -.391E+01 0.279E+02 -.280E+02   0.373E+01 -.574E+01 0.296E+01   -.141E-02 0.162E-02 0.267E-02
   0.496E+02 -.440E+02 0.209E+02   -.362E+02 0.529E+02 -.185E+02   -.103E+02 -.892E+01 -.520E+01   0.269E-02 -.279E-03 -.742E-03
   0.154E+02 0.586E+02 0.117E+02   -.147E+02 -.565E+02 -.105E+02   -.147E+01 0.171E+01 -.985E+00   -.870E-04 0.345E-03 0.142E-03
   -.553E+02 0.836E+02 0.824E+02   0.526E+02 -.836E+02 -.822E+02   -.182E+01 0.527E+00 -.287E-01   -.323E-03 0.793E-03 0.350E-03
   -.455E+02 0.206E+02 -.204E+02   0.511E+02 -.221E+02 0.164E+02   0.173E+01 0.320E+01 0.732E+01   -.318E-03 -.811E-04 0.186E-03
   -.154E+02 -.108E+03 -.990E+01   0.122E+02 0.111E+03 0.198E+02   0.318E+01 -.338E+01 -.116E+02   -.544E-03 -.792E-05 -.894E-03
   0.453E+02 -.400E+02 0.583E+02   -.398E+02 0.414E+02 -.514E+02   -.865E+01 -.172E+01 -.145E+02   0.840E-03 0.117E-02 0.103E-03
   -.216E+02 -.292E+02 -.380E+01   0.212E+02 0.327E+02 0.726E+01   0.223E+01 -.231E+01 -.231E+01   -.341E-03 0.188E-03 -.746E-03
   0.371E+02 -.546E+02 -.429E+02   -.361E+02 0.445E+02 0.461E+02   0.757E+00 0.106E+02 -.498E+01   -.684E-03 -.492E-03 -.447E-03
   0.561E+02 -.169E+02 -.387E+02   -.610E+02 0.130E+02 0.310E+02   0.528E+01 0.234E+01 0.770E+01   0.753E-04 0.186E-03 -.363E-03
   -.730E+01 -.417E+02 -.166E+01   -.670E+01 0.396E+02 0.764E+00   0.150E+02 0.389E+00 0.376E+01   -.144E-02 -.535E-03 -.107E-02
   0.377E+02 0.559E+02 -.334E+02   -.370E+02 -.427E+02 0.333E+02   0.472E-01 -.160E+02 -.159E+01   0.902E-03 -.789E-04 0.803E-03
   -.108E+03 0.130E+03 -.413E+01   0.103E+03 -.127E+03 -.586E+00   0.324E+01 -.512E+01 0.551E+01   0.842E-03 -.168E-03 -.426E-03
   -.378E+02 0.899E+02 0.411E+02   0.411E+02 -.762E+02 -.461E+02   -.715E+01 -.123E+02 0.412E+01   0.951E-04 -.172E-03 -.444E-03
   0.254E+02 -.740E+02 -.909E+02   -.232E+02 0.785E+02 0.819E+02   -.127E+02 -.571E+01 0.209E+01   -.281E-03 0.119E-02 -.172E-02
   0.171E+03 -.136E+02 -.403E+02   -.161E+03 0.850E+01 0.377E+02   -.106E+02 0.564E+01 0.635E+01   -.143E-03 0.163E-02 0.579E-03
   -.624E+02 -.117E+03 0.539E+00   0.590E+02 0.108E+03 -.474E+00   0.396E+01 0.183E+02 -.104E+01   0.236E-03 -.483E-03 -.243E-03
   -.740E+02 0.711E+02 -.877E+02   0.791E+02 -.857E+02 0.107E+03   -.414E+01 0.148E+02 -.210E+02   -.240E-04 0.945E-03 -.470E-03
   -.728E+02 -.195E+03 -.118E+02   0.898E+02 0.211E+03 0.411E+01   -.182E+02 -.139E+02 0.878E+01   -.682E-03 0.127E-03 -.135E-02
   -.366E+02 -.529E+02 0.450E+01   0.539E+02 0.360E+02 -.544E+01   -.188E+02 0.187E+02 0.172E+01   -.117E-02 -.635E-03 -.168E-02
   -.849E+02 -.166E+03 0.810E+02   0.975E+02 0.187E+03 -.991E+02   -.108E+02 -.172E+02 0.151E+02   0.930E-03 -.117E-02 0.543E-03
   -.159E+02 -.152E+03 -.423E+02   0.143E+02 0.166E+03 0.488E+02   0.269E+01 -.154E+02 -.720E+01   -.566E-02 0.798E-03 0.195E-02
   -.103E+02 -.504E+01 -.517E+02   0.226E+02 -.497E+01 0.766E+02   -.116E+02 0.106E+02 -.288E+02   -.349E-03 0.506E-03 -.742E-03
[...]
   -.620E+02 0.662E+02 0.182E+03   0.652E+02 -.532E+02 -.185E+03   -.336E+01 -.151E+02 0.964E+00   0.899E-03 0.306E-02 0.683E-03
   0.108E+03 -.121E+03 0.366E+02   -.146E+03 0.120E+03 -.430E+02   0.365E+02 0.170E+01 0.540E+01   -.316E-02 -.167E-02 -.368E-02
   0.502E+02 0.135E+03 -.613E+02   -.670E+02 -.154E+03 0.765E+02   0.173E+02 0.161E+02 -.124E+02   0.788E-03 -.329E-05 0.191E-03
   0.224E+02 -.253E+02 0.141E+02   -.358E+02 0.312E+02 -.147E+02   0.155E+02 -.744E+01 0.261E+01   0.809E-03 -.457E-03 -.891E-03
   0.134E+03 -.254E+02 -.517E+02   -.164E+03 0.390E+02 0.480E+02   0.283E+02 -.160E+02 0.470E+01   -.395E-03 0.483E-03 -.117E-02
   0.311E+02 0.835E+02 -.177E+03   -.572E+02 -.846E+02 0.200E+03   0.171E+02 -.122E+01 -.187E+02   0.764E-03 0.128E-02 -.383E-03
   -.156E+03 0.804E+02 0.665E+02   0.175E+03 -.922E+02 -.895E+02   -.178E+02 0.125E+02 0.193E+02   0.451E-03 -.488E-03 -.104E-02
   -.119E+03 -.114E+03 0.150E+03   0.142E+03 0.117E+03 -.158E+03   -.220E+02 -.495E+01 0.529E+01   0.840E-02 -.359E-02 -.540E-03
   0.323E+02 -.616E+02 -.123E+02   -.240E+02 0.653E+02 0.968E+01   -.123E+02 -.502E+01 0.465E+01   -.823E-03 0.996E-03 -.679E-03
   0.675E+02 -.225E+02 0.123E+03   -.868E+02 0.185E+02 -.139E+03   0.213E+02 0.543E+01 0.174E+02   0.784E-03 0.229E-03 -.255E-03
   -.127E+03 -.170E+02 0.212E+03   0.134E+03 0.270E+02 -.238E+03   -.757E+01 -.984E+01 0.279E+02   0.488E-04 0.113E-02 0.534E-03
   -.141E+02 -.109E+03 0.178E+03   0.183E+02 0.106E+03 -.192E+03   -.436E+01 0.340E+01 0.128E+02   -.222E-02 -.313E-03 0.253E-02
   0.117E+03 0.438E+02 0.385E+02   -.143E+03 -.461E+02 -.291E+02   0.193E+02 -.286E+01 -.110E+02   -.628E-03 0.118E-04 -.640E-03
   0.667E+02 -.198E+03 -.886E+02   -.728E+02 0.218E+03 0.118E+03   0.578E+01 -.207E+02 -.287E+02   0.237E-02 -.303E-03 0.222E-02
   0.104E+02 0.212E+03 0.192E+02   -.696E-12 0.105E-11 -.327E-12   -.104E+02 -.212E+03 -.192E+02   -.913E-03 0.348E-01 0.144E-02

 POSITION                                       TOTAL-FORCE (eV/Angst)
      3.74505     10.30536      5.51891        -1.218017      0.906007      1.812413
      5.28964      3.00043      7.23774         0.314636      1.447676      2.080834
     11.43797      9.86801      4.95231         1.011851     -0.777033      0.583644
      5.54007      8.61121      3.39475         1.419484     -0.003508     -4.245551
      3.20502      5.82392      8.85822         0.260688      2.548575      0.791534
     11.72088     13.49712      1.03845         2.557899     -4.658601      3.463029
      2.89985     10.90579     10.77872         1.483170     -1.168036      0.635205
     12.75925      2.62929      4.40589         0.803926     -0.651796      0.149553
      7.96276      4.70083      5.27586        -3.715884     -3.543853     -4.161087
      3.81916      0.87145      5.00548         0.272630     -1.354710     -0.701347
      9.17558      7.02795      9.05501         0.986534      1.153682     -0.252823
      6.09479      9.74790     12.14712         1.995295     -0.791059      0.775562
      9.59834      3.78300      9.74052        -0.759666     -0.438676     -0.664710
      8.65407      6.79209     12.38140         1.750220     -1.499746     -2.428404
      3.56828      2.38661      0.92999         0.685668     -1.454814     -0.028521
      0.32019      8.43019     12.28310         1.129265     -1.171804     -0.108513
     12.03676     12.81451      8.45073         1.384817     -0.611482      0.083830
      3.24874     12.65129      7.96753         0.228688      0.954420      0.498925
      9.80449     10.36114      8.15572        -1.832136      1.886922     -3.709148
     10.58483      9.94875     11.90515        -0.314576     -0.968527     -0.235849
     10.19893      6.28376      2.36452         1.054799      0.649195     -0.480355
      2.57100      4.34698      4.83658        -1.159047      0.209659      0.643736
     11.86798      3.04523      7.36047        -0.566581      1.130477      0.025613
      6.64801      0.10946     10.51194        -1.899009      0.615116      1.076556
      0.27317      7.37235      2.33667        -0.127670      0.504830      1.142302
      2.24090      3.36545     11.36286        -1.021800     -2.087664      0.519420
      1.26517     11.51581      0.83723         0.693911      0.233359     -1.450073
      7.84586     10.55744      5.34537         2.947188      1.547077      5.550994
      0.20485     12.86438      3.29400         3.453346      2.519713     -0.265866
     12.94784      3.89778      1.85028         0.088902      2.550661      2.345938
      7.62855      8.13313      0.41640         7.623257      4.989952      6.736016
     12.40548      5.08263     12.90504         5.740161      1.564055      1.811327
      9.48938      0.79372      6.89610        -7.788883      6.342110      0.250786
      6.83651      6.14083      7.25578        -1.504938     -5.550208      2.065039
      1.52323      8.51470      8.82698         1.804978      4.069088     -0.792214
      2.97292      8.57344      0.15423         6.742136      3.585228     -3.093135
     11.53821      9.64228      1.72565         0.993812     -1.211875     -1.835131
      6.99318     12.48822      7.28699         0.014239      4.732266      3.343239
      0.28516      0.46836     11.38363         3.129795     -0.021389     -2.752189
      0.16625      7.01186      6.03154        -0.726777      3.752153      0.171238
     12.35628      9.75912      8.97516        -4.491924      0.570008      0.193615
     10.24274      5.23168      5.52248         7.360573      1.707085      3.308773
      7.22643     12.82341      2.01631         0.010305     -0.116556     -1.663392
      0.08524     11.20475     11.11163        -3.082252     -0.232806     -7.602827
      8.63126     10.03893      1.95454         1.875951      1.132819      1.150536
     10.26936      2.56400     13.20942         1.684477      0.425306     -1.863257
      4.67328      6.93693      5.81786         0.386406     -1.490817      0.012928
      7.61687      1.52587     13.42196         1.004670     -1.779060      2.861434
      1.26814     12.93136      5.70531         0.720140     -2.822685     -1.628400
      3.37312      5.98612     13.59365        -1.633602     -2.224003      0.797292
      6.01924      2.74025      3.28672        -3.854660      1.343522     -0.841674
      4.62315     11.60001      0.53559       -10.460833     -1.175266     -6.888471
      7.32277      9.79770      9.23113        -0.832408      0.495842      3.774181
     11.65080      1.81398     10.86624         0.558315      9.114967     -0.972827
     12.02387      8.65081      2.97251         0.944697      0.182329     -1.406816
      8.49872     11.64997      1.79547        -1.201579      1.426653      1.101500
      8.16089      0.05786      0.51151        -1.500432      1.705195      0.780549
      1.38043     13.65123      4.32688         1.803692      4.144887     -3.024176
      6.78349     13.48902      8.63143         1.027954     -1.131511     -0.678425
      9.78833      9.55959      3.00649         0.745845      0.596216     -3.961889
[...]
      5.01314      8.56880      5.26698        -0.878266     -1.899522      2.494263
      2.27281     10.08552      8.15143        -0.192568     -2.160807     -1.764192
      6.12056      1.53101     13.15904        -1.783645      0.507949     -1.016165
     13.65791     11.96593      4.62927         0.490096     -3.329490      2.700906
      4.19336      2.78813      2.94199         1.993369     -1.621718      2.055506
      7.25306      9.53898      1.30608        -1.828171     -2.399180      0.979293
      1.78389      8.39691      0.97779        -8.902402     -2.321226      4.105947
     13.49161      3.85078      0.37539         1.105190      0.687633     -3.709431
      1.72708      1.11697     10.71725         0.652218     -1.708269     -2.462178
      9.21110      9.25947     13.36691        -3.924180     -1.359227      2.076760
      3.49376      6.32380      4.84073         1.891943      1.422749      1.154506
     12.41829     10.63337      7.58463        -0.888663      0.187974      1.440109
      8.30773     13.28746      6.65738        -0.141990     -0.417853     -0.906755
     11.09332      4.40310     13.18210        -6.648419     -5.137635     -1.673140
      1.04637      0.02565      7.03647        -0.335058     -0.368861      1.201706
    total drift:                                0.002894      0.006463      0.013830

  FREE ENERGIE OF THE ION-ELECTRON SYSTEM (eV)
  free  energy   TOTEN  =      -857.73526135 eV

  energy  without entropy=     -857.69015906  energy(sigma->0) =     -857.71271021