 vasp.5.4.4.18Apr17-6-g9f103f2a35 (build Oct 31 2019 15:01:46) complex

 executed on             LinuxIFC date 2024.04.29  11:46:30

 INCAR:
 POTCAR:    PAW_PBE Ca_sv 06Sep2000
 POTCAR:    PAW_PBE Si 05Jan2001
 POTCAR:    PAW_PBE O 08Apr2002
 POTCAR:    PAW_PBE Ca_sv 06Sep2000
   VRHFIN =Ca: 3s3p4s

   TITEL  = PAW_PBE Ca_sv 06Sep2000
   POMASS =   40.078; ZVAL   =   10.000    mass and valenz
   ENMAX  =  266.622; ENMIN  =  199.967 eV

   TITEL  = PAW_PBE Si 05Jan2001
   POMASS =   28.085; ZVAL   =    4.000    mass and valenz
   ENMAX  =  245.345; ENMIN  =  184.009 eV

   TITEL  = PAW_PBE O 08Apr2002
   POMASS =   16.000; ZVAL   =    6.000    mass and valenz
   ENMAX  =  400.000; ENMIN  =  300.000 eV

 Optimization of the real space projectors (new method)

 maximal supplied QI-value         = 16.25
 optimisation between [QCUT,QGAM] = [ 12.51, 25.03] = [ 43.85,175.40] Ry
 Optimized for a Real-space Cutoff    1.47 Angstroem

   l    n(q)    QCUT    max X(q) W(low)/X(q) W(high)/X(q)  e(spline)
   0     11    12.514    11.817    0.25E-04    0.32E-05    0.87E-07
   0     11    12.514     8.461    0.39E-04    0.59E-05    0.18E-06
   1     11    12.514     3.957    0.97E-05    0.57E-05    0.28E-07
   1     11    12.514     4.314    0.42E-04    0.14E-04    0.23E-06
   2     10    12.514    14.565    0.79E-04    0.50E-03    0.16E-05
   2     10    12.514    14.552    0.75E-04    0.48E-03    0.15E-05
 Optimization of the real space projectors (new method)

[...]

   l    n(q)    QCUT    max X(q) W(low)/X(q) W(high)/X(q)  e(spline)
   0      9    12.501   159.560    0.10E-03    0.83E-04    0.71E-07
   0      9    12.501   115.863    0.99E-04    0.81E-04    0.70E-07
   1      8    12.501    88.339    0.20E-03    0.25E-03    0.76E-07
   1      8    12.501    48.592    0.20E-03    0.24E-03    0.75E-07
 Optimization of the real space projectors (new method)

 maximal supplied QI-value         = 24.76
 optimisation between [QCUT,QGAM] = [ 12.38, 25.00] = [ 42.90,175.06] Ry
 Optimized for a Real-space Cutoff    1.16 Angstroem

   l    n(q)    QCUT    max X(q) W(low)/X(q) W(high)/X(q)  e(spline)
   0      9    12.378    20.381    0.16E-03    0.67E-05    0.31E-06
   0      9    12.378    15.268    0.17E-03    0.81E-05    0.33E-06
   1      8    12.378     5.964    0.20E-03    0.16E-03    0.30E-06
   1      8    12.378     5.382    0.18E-03    0.14E-03    0.26E-06
  PAW_PBE Ca_sv 06Sep2000               :
  PAW_PBE Si 05Jan2001                  :
  PAW_PBE O 08Apr2002                   :

 POSCAR: Ca Si  O
  positions in direct lattice
 exchange correlation table for  LEXCH =        8
   RHO(1)=    0.500       N(1)  =     2000
   RHO(2)=  100.500       N(2)  =     4000

 ion  position               nearest neighbor table
   1  0.137  0.847  0.801-  96 2.27 116 2.28  87 2.37  72 2.46
   2  0.892  0.276  0.811-  84 2.11 125 2.45  32 2.58
   3  0.144  0.411  0.723- 120 2.41  46 2.73  50 2.87
   4  0.626  0.657  0.786- 130 2.35 102 2.45
   5  0.114  0.090  0.378- 132 2.13  79 2.20 131 2.34  69 2.35  28 2.67  36 2.82  54 2.89
   6  0.098  0.518  0.378- 115 2.10  97 2.24  44 2.99
   7  0.921  0.735  0.725-  99 1.90 116 2.02  63 2.26 101 2.40  38 2.64  51 2.83  50 2.92  13 3.14

   8  0.218  0.368  0.985-  74 1.97  90 2.37  75 2.49  12 3.14
   9  0.434  0.834  0.697- 111 2.11  95 2.28
  10  0.883  0.422  0.570- 115 2.37  84 2.42  45 2.83
  11  0.493  0.890  0.430-  80 2.22 100 2.24  82 2.41  27 3.17
  12  0.449  0.403  0.955-  76 2.02  71 2.21  56 2.50  42 3.12   8 3.14
  13  0.917  0.891  0.549- 131 2.06  61 2.16  38 2.63  36 2.74  20 2.91   7 3.14
  14  0.404  0.396  0.414-  88 2.04  93 2.09  77 2.33
  15  0.706  0.543  0.419-  65 2.18 119 2.19
  16  0.252  0.896  0.508- 113 2.03  96 2.05  80 2.19  69 2.55  26 2.70  28 2.85  39 3.14
  17  0.107  0.641  0.963- 134 2.35  67 2.41  90 2.42 107 2.49 126 2.50  42 2.78
  18  0.714  0.226  0.965- 125 1.99
  19  0.796  0.253  0.274-  92 2.40  65 2.47  81 2.57  41 3.11
  20  0.992  0.843  0.349- 135 2.03 127 2.28 131 2.44  13 2.91
  21  0.759  0.911  0.361-  82 2.11 112 2.35 117 2.41  47 2.69
  22  0.322  0.941  0.188- 113 2.47 103 2.50  86 2.51 105 2.54  48 3.07  28 3.16
  23  0.520  0.223  0.222-  88 2.03  59 2.25 122 2.42  31 2.86
  24  0.654  0.648  0.093- 124 2.01  58 2.26  49 3.03
  25  0.446  0.618  0.257-  85 2.36  52 3.06
  26  0.260  0.023  0.665-  95 2.16  69 2.24  96 2.35  16 2.70
  27  0.515  0.094  0.552-  95 2.24  64 2.52 112 2.52  11 3.17
  28  0.313  0.064  0.390- 113 1.63 132 1.66  64 1.88  69 2.00   5 2.67  16 2.85  22 3.16
  29  0.933  0.904  0.931- 128 1.66  63 1.67 133 1.69  72 1.73  37 3.06  43 3.11
  30  0.480  0.125  0.835-  78 1.52 109 1.71  71 1.90 108 1.97  35 3.08
  31  0.615  0.414  0.239-  58 1.63  65 1.70 122 1.80  88 1.95  23 2.86
  32  0.731  0.299  0.706-  84 1.61 125 1.61 118 1.71 110 1.81   2 2.58  40 3.14
  33  0.530  0.881  0.919-  68 1.42 108 1.81 111 1.83 103 2.38
  34  0.497  0.612  0.525-  89 1.75 123 1.85 130 1.93  77 1.98  40 2.76  44 3.10
  35  0.368  0.162  0.033-  56 1.55  59 1.64  86 1.85  30 3.08
  36  0.004  0.078  0.559-  73 1.53  61 1.56  70 1.72 131 1.78  13 2.74   5 2.82
  37  0.821  0.959  0.124- 133 1.52 104 1.61  66 1.62 135 2.29  47 2.97  29 3.06
  38  0.856  0.704  0.541-  99 1.58 117 1.70 101 1.71 119 1.80  13 2.63   7 2.64
  39  0.241  0.751  0.322- 127 1.48  85 1.69  55 1.77  80 2.08  44 2.98  16 3.14
  40  0.567  0.455  0.641- 106 1.57 130 1.65  77 1.68 110 1.76  34 2.76  32 3.14
  41  0.946  0.358  0.129-  57 1.49  81 1.62 129 2.08  19 3.11
  42  0.303  0.582  0.918- 126 1.57  76 1.60 107 1.67  90 2.05  17 2.78  12 3.12
  43  0.067  0.883  0.121- 128 1.58 105 1.82  62 1.92 135 1.95  29 3.11
  44  0.267  0.611  0.494-  55 1.50  93 1.66  94 1.74 123 1.97  39 2.98   6 2.99  34 3.10
  45  0.967  0.280  0.436-  79 1.56  92 1.64 115 1.77  70 1.83  10 2.83
  46  0.283  0.270  0.775- 114 1.60  75 1.66  74 1.70 109 1.76   3 2.73
  47  0.641  0.857  0.207- 100 1.63  66 1.77 124 1.78  21 2.69  37 2.97
  48  0.285  0.817  0.996- 107 1.64 103 1.67 105 1.70  87 1.86  22 3.07
  49  0.881  0.630  0.101-  98 1.49 134 1.62  91 1.74  51 2.52  24 3.03
  50  0.098  0.615  0.673- 116 1.49  94 1.65 120 1.71 101 2.23   3 2.87   7 2.92
  51  0.870  0.651  0.913-  67 1.54 102 1.54 134 1.75  63 2.01  49 2.52   7 2.83
  52  0.255  0.526  0.168-  60 1.45  97 1.62  90 1.67  25 3.06
  53  0.768  0.091  0.593-  83 1.59 118 1.64  61 1.88
  54  0.169  0.128  0.172- 121 1.65  86 1.66  62 1.71 132 1.93   5 2.89
  55  0.213  0.692  0.437-  44 1.50  39 1.77
  56  0.392  0.269  0.074-  35 1.55  12 2.50
  57  0.945  0.386  0.238-  41 1.49
  58  0.626  0.534  0.216-  31 1.63  24 2.26
  59  0.426  0.116  0.131-  35 1.64  23 2.25
  60  0.317  0.437  0.181-  52 1.45
  61  0.892  0.051  0.539-  36 1.56  53 1.88 131 1.91  13 2.16
  62  0.109  0.015  0.161-  54 1.71  43 1.92
  63  0.890  0.797  0.880-  29 1.67  51 2.01   7 2.26
  64  0.422  0.154  0.398-  28 1.88  27 2.52
  65  0.710  0.410  0.324-  31 1.70  15 2.18  19 2.47
  66  0.765  0.857  0.159-  37 1.62  47 1.77
  67  0.961  0.599  0.865-  51 1.54  17 2.41
[...]
 121  0.124  0.244  0.165-  54 1.65
 122  0.650  0.323  0.145-  31 1.80  23 2.42
 123  0.382  0.683  0.554-  34 1.85  44 1.97
 124  0.572  0.750  0.166-  47 1.78  24 2.01
 125  0.709  0.270  0.822-  32 1.61  18 1.99   2 2.45
 126  0.226  0.584  0.829-  42 1.57  17 2.50
 127  0.136  0.772  0.290-  39 1.48  20 2.28
 128  0.028  0.885  0.010-  43 1.58  29 1.66
 129  0.992  0.389  0.983-  41 2.08
 130  0.586  0.577  0.634-  40 1.65  34 1.93   4 2.35
 131  0.994  0.990  0.458-  36 1.78  61 1.91  13 2.06   5 2.34  20 2.44
 132  0.247  0.089  0.288-  28 1.66  54 1.93   5 2.13
 133  0.866  0.966  0.019-  37 1.52  29 1.69
 134  0.945  0.687  0.015-  49 1.62  51 1.75  17 2.35
 135  0.956  0.904  0.214-  43 1.95  20 2.03  37 2.29

IMPORTANT INFORMATION: All symmetrisations will be switched off!
NOSYMM: (Re-)initialisation of all symmetry stuff for point group C_1.

Automatic generation of k-mesh.
 generate k-points for:    2    2    2
Space group operators:
 irot       det(A)        alpha          n_x          n_y          n_z        tau_x        tau_y        tau_z
    1     1.000000     0.000001     1.000000     0.000000     0.000000     0.000000     0.000000     0.000000

 Subroutine IBZKPT returns following result:

 Found      8 irreducible k-points:

 Following reciprocal coordinates:
            Coordinates               Weight
  0.000000  0.000000  0.000000      1.000000
  0.500000  0.000000  0.000000      1.000000
  0.000000  0.500000  0.000000      1.000000
  0.500000  0.500000  0.000000      1.000000
  0.000000  0.000000  0.500000      1.000000
  0.500000  0.000000  0.500000      1.000000
  0.000000  0.500000  0.500000      1.000000
  0.500000  0.500000  0.500000      1.000000

 Following cartesian coordinates:
            Coordinates               Weight
  0.000000  0.000000  0.000000      1.000000
  0.037563  0.000000  0.000000      1.000000
  0.000000  0.037563  0.000000      1.000000
  0.037563  0.037563  0.000000      1.000000
  0.000000  0.000000  0.037563      1.000000
  0.037563  0.000000  0.037563      1.000000
  0.000000  0.037563  0.037563      1.000000
  0.037563  0.037563  0.037563      1.000000

 SYSTEM =  unknown system
 POSCAR =  Ca Si  O

 Startparameter for this run:
   NWRITE =      2    write-flag & timer
   PREC   = a         normal or accurate (medium, high low for compatibility)
   ISTART =      0    job   : 0-new  1-cont  2-samecut
   ICHARG =      2    charge: 1-file 2-atom 10-const
   ISPIN  =      1    spin polarized calculation?
   LNONCOLLINEAR =      F non collinear calculations
   LSORBIT =      F    spin-orbit coupling
   INIWAV =      1    electr: 0-lowe 1-rand  2-diag
   LASPH  =      F    aspherical Exc in radial PAW
   METAGGA=      F    non-selfconsistent MetaGGA calc.

 Electronic Relaxation 1
   ENCUT  =  600.0 eV  44.10 Ry    6.64 a.u.  26.59 26.59 26.59*2*pi/ulx,y,z
   ENINI  =  600.0     initial cutoff
   ENAUG  =  605.4 eV  augmentation charge cutoff
   NELM   =     60;   NELMIN=  2; NELMDL= -5     # of ELM steps
   EDIFF  = 0.1E-05   stopping-criterion for ELM
   LREAL  =      T    real-space projection
   NLSPLINE    = F    spline interpolate recip. space projectors
   LCOMPAT=      F    compatible to vasp.4.4
   GGA_COMPAT  = T    GGA compatible to vasp.4.4-vasp.4.6
   LMAXPAW     = -100 max onsite density
   LMAXMIX     =    2 max onsite mixed and CHGCAR
   VOSKOWN=      0    Vosko Wilk Nusair interpolation
   ROPT   =   -0.00025  -0.00025  -0.00025
 Ionic relaxation
   EDIFFG = -.1E-01   stopping-criterion for IOM
   NSW    =      1    number of steps for IOM
   NBLOCK =      1;   KBLOCK =      1    inner block; outer block
   IBRION =     -1    ionic relax: 0-MD 1-quasi-New 2-CG
   NFREE  =      0    steps in history (QN), initial steepest desc. (CG)
   ISIF   =      2    stress and relaxation
   IWAVPR =     10    prediction:  0-non 1-charg 2-wave 3-comb
   ISYM   =      0    0-nonsym 1-usesym 2-fastsym
   LCORR  =      T    Harris-Foulkes like correction to forces

   POTIM  = 1.0000    time-step for ionic-motion
   TEIN   =    0.0    initial temperature
[...]
     0.000000000  0.000000000 13.310935620     0.000000000  0.000000000  0.075126199

  length of vectors
    13.310935620 13.310935620 13.310935620     0.075126199  0.075126199  0.075126199

 FORCES acting on ions
    electron-ion (+dipol)            ewald-force                    non-local-force                 convergence-correction
   -.180E+02 -.130E+03 -.117E+03   0.216E+02 0.135E+03 0.113E+03   -.280E+01 -.369E+01 0.328E+01   -.408E-03 0.237E-02 -.238E-02
   -.277E+03 0.200E+03 -.221E+03   0.274E+03 -.194E+03 0.222E+03   0.438E+01 -.558E+01 0.692E+00   -.244E-02 -.302E-02 0.688E-03
   0.340E+02 0.173E+03 0.852E+02   -.321E+02 -.173E+03 -.835E+02   -.120E+01 -.567E+00 -.115E+01   0.312E-02 -.304E-02 -.285E-02
   0.382E+02 -.423E+02 -.152E+03   -.372E+02 0.401E+02 0.151E+03   -.589E+00 0.178E+01 0.124E+01   -.866E-03 0.124E-02 0.762E-03
   0.564E+02 -.217E+03 0.110E+03   -.601E+02 0.221E+03 -.108E+03   0.983E+00 -.290E+01 -.108E+01   0.277E-02 0.338E-02 0.214E-02
   0.338E+02 0.145E+03 0.674E+02   -.369E+02 -.148E+03 -.711E+02   0.226E+01 0.295E+01 0.270E+01   0.240E-02 -.423E-02 0.110E-02
   0.205E+03 -.114E+03 -.169E+03   -.204E+03 0.111E+03 0.172E+03   0.509E+00 0.241E+01 0.137E+01   -.118E-02 0.212E-02 0.164E-02
   0.218E+03 0.886E+02 -.148E+03   -.220E+03 -.940E+02 0.147E+03   0.113E+01 0.448E+01 0.365E+01   0.162E-02 -.171E-02 -.216E-03
   -.204E+03 0.142E+03 -.919E+02   0.200E+03 -.136E+03 0.947E+02   0.259E+01 -.432E+01 -.342E+01   0.187E-02 0.694E-02 0.345E-02
   -.235E+02 0.550E+02 -.326E+02   0.217E+02 -.522E+02 0.328E+02   0.741E+00 -.100E+01 0.207E+00   -.174E-03 -.140E-02 -.223E-03
   -.159E+03 0.288E+01 -.140E+02   0.159E+03 -.638E+01 0.113E+02   0.299E+00 0.252E+01 0.259E+01   -.360E-02 0.215E-02 0.389E-02
   -.295E+03 -.653E+02 -.623E+02   0.294E+03 0.593E+02 0.579E+02   0.252E+01 0.215E+01 0.400E+01   0.173E-02 -.296E-02 -.186E-02
   0.140E+03 0.476E+02 -.239E+03   -.139E+03 -.423E+02 0.240E+03   -.103E+01 -.517E+01 0.207E+01   0.305E-03 0.232E-02 0.310E-02
   0.182E+03 0.258E+03 -.143E+03   -.177E+03 -.257E+03 0.141E+03   -.492E+01 -.361E+01 0.282E+01   -.261E-02 -.395E-02 0.251E-02
   -.652E+02 0.137E+02 0.105E+03   0.653E+02 -.140E+02 -.104E+03   -.736E+00 0.105E+01 -.185E+01   -.171E-02 -.264E-02 0.776E-03
   0.129E+03 0.410E+02 -.780E+02   -.126E+03 -.451E+02 0.805E+02   -.428E+01 0.238E+01 -.119E+01   0.240E-02 0.281E-02 0.188E-02
   0.607E+02 0.956E+02 -.126E+03   -.632E+02 -.998E+02 0.124E+03   0.112E+01 0.321E+01 0.146E+01   -.302E-03 -.267E-03 -.952E-03
   -.531E+02 0.153E+03 -.142E+03   0.506E+02 -.148E+03 0.142E+03   0.131E+01 -.413E+01 0.356E+01   -.387E-02 -.297E-02 -.389E-02
   0.855E+02 0.153E+03 0.915E+02   -.814E+02 -.147E+03 -.925E+02   -.278E+01 -.470E+01 0.336E+00   -.188E-03 0.128E-02 -.753E-03
   0.451E+02 0.161E+03 0.526E+02   -.430E+02 -.162E+03 -.593E+02   -.121E+01 -.125E+01 0.646E+01   0.892E-03 0.163E-02 0.105E-02
   -.305E+02 -.660E+02 0.172E+03   0.244E+02 0.668E+02 -.168E+03   0.581E+01 0.210E+00 -.347E+01   0.647E-03 0.265E-02 0.279E-02
   -.234E+03 -.515E+01 0.120E+03   0.234E+03 0.755E+01 -.124E+03   0.712E+00 -.146E+01 0.272E+01   -.347E-03 0.252E-02 0.418E-03
   -.155E+03 0.159E+03 0.763E+01   0.149E+03 -.158E+03 -.117E+02   0.411E+01 -.370E+01 0.229E+01   -.150E-02 0.885E-03 -.568E-03
   0.129E+02 0.616E+02 0.276E+03   -.121E+02 -.635E+02 -.269E+03   0.124E+01 -.350E+00 -.709E+01   -.574E-03 -.274E-02 -.247E-02
   -.778E+02 0.112E+03 0.150E+03   0.776E+02 -.107E+03 -.150E+03   0.924E+00 -.335E+01 0.189E+00   -.124E-02 -.216E-02 0.162E-03
   0.439E+02 -.289E+03 -.358E+03   -.427E+02 0.290E+03 0.355E+03   -.187E+01 0.119E+01 0.421E+01   0.350E-02 0.249E-02 0.228E-03
   -.113E+03 -.352E+03 -.940E+02   0.110E+03 0.347E+03 0.945E+02   0.233E+01 0.466E+01 0.382E+00   -.222E-02 0.990E-03 0.634E-02
   -.108E+03 -.174E+03 -.311E+02   0.105E+03 0.169E+03 0.280E+02   0.448E+01 0.918E+01 0.541E+01   -.116E-03 0.132E-02 0.125E-02
   0.128E+03 -.129E+03 0.388E+02   -.119E+03 0.130E+03 -.437E+02   -.575E+01 0.111E+01 0.200E+01   -.726E-03 0.960E-03 -.121E-02
   0.751E+01 0.856E+01 -.697E+02   0.618E+01 -.532E+01 0.619E+02   -.166E+02 -.476E+00 0.945E+01   0.539E-02 -.353E-02 -.261E-02
   0.425E+02 0.278E+02 0.624E+02   -.324E+02 -.250E+02 -.609E+02   -.736E+01 -.584E+01 -.863E+00   -.250E-03 -.620E-03 -.216E-03
   0.105E+03 0.489E+02 0.395E+02   -.984E+02 -.417E+02 -.290E+02   -.970E+01 -.451E+01 -.117E+02   -.183E-02 -.179E-02 0.928E-03
   -.301E+02 0.527E+02 -.322E+02   0.434E+02 -.427E+02 0.341E+02   -.260E+02 -.101E+02 -.846E+01   -.294E-03 0.415E-02 -.372E-02
   0.130E+02 0.215E+02 -.653E+02   -.107E+02 -.165E+02 0.607E+02   -.136E+01 -.434E+01 0.390E+01   -.422E-03 -.625E-03 0.343E-03
   0.154E+02 0.619E+02 0.172E+03   -.760E+01 -.542E+02 -.154E+03   -.823E+01 -.991E+01 -.138E+02   0.135E-02 -.765E-04 -.834E-03
   -.249E+01 -.153E+03 -.121E+03   0.489E+01 0.145E+03 0.127E+03   0.874E+00 0.108E+02 -.837E+01   0.935E-03 0.604E-03 0.617E-03
   0.648E+02 -.825E+02 0.752E+02   -.647E+02 0.888E+02 -.727E+02   0.110E+01 -.420E+01 0.336E+01   0.736E-04 0.102E-02 -.179E-02
   0.291E+02 0.381E+02 0.905E+02   -.328E+02 -.419E+02 -.837E+02   0.123E+01 -.368E+01 -.863E+01   -.226E-03 0.678E-04 0.869E-03
   -.270E+02 0.618E+02 0.418E+02   0.203E+02 -.587E+02 -.491E+02   0.155E+02 -.371E+01 0.101E+02   0.118E-02 0.273E-03 0.299E-03
   0.322E+02 0.598E+02 -.584E+02   -.378E+02 -.636E+02 0.659E+02   0.673E+01 0.820E+00 -.749E+01   -.883E-03 -.124E-02 0.427E-03
   -.864E+02 -.200E-01 0.106E+03   0.767E+02 -.260E+01 -.959E+02   0.907E+01 0.140E+01 -.191E+02   -.362E-03 -.568E-03 -.801E-04
   -.863E+02 0.332E+02 0.145E+01   0.902E+02 -.316E+02 -.105E+02   -.202E+01 -.817E+00 0.102E+02   0.683E-03 -.452E-03 -.278E-03
   0.400E+02 0.213E+02 -.389E+02   -.429E+02 -.187E+02 0.306E+02   0.497E+01 0.180E+01 0.107E+02   0.292E-03 0.959E-03 -.770E-03
   -.421E+02 0.162E+03 -.112E+03   0.403E+02 -.155E+03 0.102E+03   0.716E+01 -.781E+01 0.143E+02   0.701E-03 -.946E-03 0.217E-03
   -.516E+02 -.760E+02 -.301E+02   0.456E+02 0.672E+02 0.201E+02   0.605E+01 0.866E+01 0.939E+01   0.118E-02 -.400E-03 0.863E-04
   -.157E+02 0.208E+02 0.661E+02   0.916E+01 -.200E+02 -.656E+02   0.804E+01 -.346E+01 0.290E+01   0.140E-02 -.911E-03 -.139E-02
   0.703E+01 -.322E+02 0.112E+03   -.128E+02 0.315E+02 -.105E+03   0.236E+01 -.203E+01 -.875E+01   -.765E-03 0.505E-03 -.134E-02
   -.692E+02 0.534E+02 0.121E+02   0.714E+02 -.417E+02 -.155E+02   -.222E+01 -.487E+01 0.807E+00   0.669E-03 0.547E-03 -.465E-03
   -.191E+02 0.522E+02 -.705E+01   0.113E+02 -.544E+02 0.182E+02   0.665E+01 -.467E+01 -.118E+02   -.469E-03 -.722E-03 -.779E-03
   -.116E+03 0.120E+03 -.282E+02   0.106E+03 -.113E+03 0.289E+02   0.668E+01 -.114E+02 -.351E+01   0.262E-03 -.149E-03 0.631E-05
   0.131E+03 0.379E+01 -.352E+02   -.127E+03 -.161E+02 0.278E+02   -.189E+01 0.140E+02 0.796E+01   -.510E-03 0.349E-03 -.373E-03
   -.618E+01 -.314E+02 -.295E+02   0.700E+01 0.190E+02 0.328E+02   -.693E+01 0.177E+02 -.422E+01   0.729E-03 -.109E-02 0.433E-03
   0.561E+01 -.595E+02 0.416E+01   -.153E+02 0.509E+02 0.555E+01   0.996E+01 0.660E+01 -.964E+01   -.110E-02 0.144E-03 0.194E-02
   0.856E+02 -.117E+03 0.533E+02   -.857E+02 0.124E+03 -.622E+02   0.922E+00 -.558E+01 0.646E+01   0.418E-03 0.488E-03 0.513E-03
   0.115E+03 0.683E+02 0.490E+01   -.137E+03 -.475E+02 -.444E+01   0.195E+02 -.180E+02 -.543E+01   0.183E-02 -.358E-03 0.782E-03
   -.178E+02 -.829E+02 -.462E+02   0.250E+02 0.107E+03 0.611E+02   -.849E+01 -.189E+02 -.159E+02   0.983E-03 -.683E-03 -.650E-03
   -.524E+02 -.757E+02 -.324E+00   0.526E+02 0.870E+02 0.390E+02   0.420E+00 -.981E+01 -.352E+02   0.121E-04 -.133E-02 0.300E-03
   -.122E+02 -.777E+01 0.841E+02   0.215E+02 0.301E+02 -.853E+02   -.122E+02 -.215E+02 0.392E+00   -.399E-03 -.184E-02 -.587E-03
   -.190E+03 0.885E+02 0.184E+02   0.197E+03 -.978E+02 -.248E+00   -.357E+01 0.618E+01 -.178E+02   0.110E-03 0.759E-03 -.127E-02
   -.456E+02 0.142E+03 -.650E+02   0.707E+02 -.180E+03 0.698E+02   -.200E+02 0.336E+02 -.282E+01   0.345E-03 -.142E-02 0.997E-03
[...]
   -.462E+02 0.298E+02 0.170E+03   0.565E+02 -.383E+02 -.186E+03   -.122E+02 0.964E+01 0.186E+02   -.298E-03 -.342E-03 -.971E-03
   -.607E+02 0.915E+02 -.193E+03   0.554E+02 -.722E+02 0.196E+03   0.673E+01 -.229E+02 -.299E+01   0.280E-03 0.122E-03 0.198E-04
   0.664E+02 -.561E+02 0.871E+02   -.823E+02 0.482E+02 -.893E+02   0.168E+02 0.112E+02 0.380E+01   -.154E-02 -.161E-02 -.215E-02
   0.781E+02 0.922E+01 -.818E+02   -.906E+02 -.135E+02 0.101E+03   0.128E+02 0.390E+01 -.194E+02   -.421E-02 -.457E-02 -.275E-03
   -.514E+02 0.589E+02 0.163E+03   0.363E+02 -.568E+02 -.188E+03   0.129E+02 -.319E+01 0.246E+02   0.893E-03 -.636E-03 -.336E-03
   0.130E+03 0.858E+02 0.118E+03   -.162E+03 -.837E+02 -.132E+03   0.265E+02 0.430E+00 0.129E+02   0.122E-02 0.365E-03 0.294E-03
   0.322E+02 -.992E+02 0.378E+02   -.186E+02 0.993E+02 -.536E+02   -.143E+02 -.149E+01 0.150E+02   -.607E-03 0.139E-02 -.151E-02
   0.179E+02 0.864E+02 0.365E+02   -.192E+02 -.816E+02 -.477E+02   0.194E+01 -.519E+01 0.141E+02   -.620E-03 -.899E-03 0.153E-03
   0.109E+02 -.717E+02 -.124E+03   0.427E+01 0.906E+02 0.126E+03   -.162E+02 -.155E+02 -.158E+01   -.840E-03 -.786E-03 0.480E-03
   -.485E+01 -.350E+02 0.118E+03   0.261E+01 0.306E+02 -.132E+03   0.724E+01 0.201E+01 0.995E+01   0.120E-02 0.155E-02 0.141E-02
   -.573E+02 -.228E+03 0.770E+02   0.574E+02 0.228E+03 -.908E+02   -.653E+00 0.147E+01 0.123E+02   0.548E-03 0.176E-02 0.149E-02
   0.123E+03 -.211E+03 0.142E+03   -.119E+03 0.228E+03 -.158E+03   -.364E+01 -.167E+02 0.111E+02   -.763E-03 0.138E-02 -.336E-02
   0.265E+02 -.139E+02 -.131E+03   -.424E+01 0.347E+02 0.125E+03   -.229E+02 -.205E+02 0.796E+01   -.670E-03 0.261E-03 -.145E-02
   0.853E+02 -.606E+02 0.115E+03   -.931E+02 0.672E+02 -.110E+03   0.865E+01 -.724E+01 -.853E+01   0.732E-03 0.127E-02 -.764E-03
   -.467E+02 0.999E+02 -.571E+02   -.810E-12 0.142E-13 0.171E-12   0.467E+02 -.100E+03 0.571E+02   0.173E-01 0.150E-01 0.845E-02

 POSITION                                       TOTAL-FORCE (eV/Angst)
      1.82799     11.27334     10.65985         0.776614      1.982978     -0.505116
     11.87504      3.67147     10.79072         1.752068      0.571047      2.076891
      1.91681      5.46805      9.61997         0.738849     -0.420502      0.614079
      8.33254      8.73964     10.46685         0.435036     -0.443702     -0.121846
      1.52333      1.19818      5.03730        -2.763761      1.082542      0.500245
      1.30253      6.89501      5.03808        -0.787184      0.237075     -1.088724
     12.26566      9.78431      9.64919         1.603874     -0.708753      3.998849
      2.90207      4.90137     13.10512        -1.419281     -0.931864      1.981058
      5.77065     11.09544      9.27852        -1.753290      1.487453     -0.560922
     11.75055      5.61585      7.59191        -1.021806      1.853249      0.388249
      6.55761     11.84756      5.72803        -0.162773     -0.975627     -0.125515
      5.98068      5.36431     12.71754         0.939946     -3.818081     -0.433139
     12.20396     11.86361      7.30243        -0.324507      0.147204      2.284970
      5.38223      5.27538      5.50462        -0.067894     -2.063206      0.750348
      9.40143      7.23166      5.57674        -0.576764      0.759877     -0.520884
      3.35028     11.92704      6.75703        -0.988484     -1.713685      1.307552
      1.42691      8.53215     12.81685        -1.352288     -0.985117     -0.115998
      9.50335      3.00199     12.83918        -1.279959      0.109582      2.797907
     10.59119      3.37081      3.64927         1.321151      1.051583     -0.635721
     13.20415     11.21464      4.64511         0.952946     -1.376043     -0.194203
     10.10650     12.12687      4.80927        -0.228568      1.017119      0.128915
      4.28768     12.52648      2.49584         0.321458      0.938956     -1.396846
      6.91620      2.96517      2.95856        -1.336266     -2.405737     -1.786231
      8.70556      8.61949      1.23395         2.039557     -2.290728     -0.476604
      5.93551      8.22583      3.42636         0.750504      1.434413      0.528506
      3.46217      0.30657      8.85783        -0.718434      2.100882      1.778648
      6.85415      1.25078      7.34168         0.104135     -0.177958      0.849390
      4.16893      0.85748      5.19139         1.343778      4.313906      2.319945
     12.41436     12.02664     12.39560         2.822387      1.529718     -2.819397
      6.38336      1.67002     11.10831        -2.924292      2.753063      1.639851
      8.18976      5.51554      3.17654         2.823412     -3.016867      0.696758
      9.72962      3.97583      9.39802        -3.032030      2.715259     -1.126171
      7.05408     11.73150     12.22909       -12.633673     -0.172027     -6.626664
      6.61956      8.14491      6.99129         0.884388      0.732180     -0.649249
      4.89335      2.15858      0.44349        -0.450968     -2.181710      3.415789
      0.05876      1.03400      7.43856         3.271920      3.166144     -1.889940
     10.92486     12.77085      1.64655         1.216475      2.077377      5.825515
     11.39796      9.36605      7.19542        -2.446354     -7.482714     -1.762646
      3.20699     10.00202      4.28450         8.734242     -0.661671      2.723916
      7.54860      6.05680      8.53341         1.142115     -2.952077      0.033079
     12.59749      4.76065      1.72374        -0.696309     -1.216678     -8.672189
      4.03226      7.74966     12.22501         1.867929      0.730207      1.186514
      0.89422     11.75204      1.61583         2.061318      4.461671      2.382040
      3.55039      8.13623      6.57866         5.341586     -0.643418      4.147695
     12.87777      3.72820      5.80421         0.046376     -0.105701     -0.556142
      3.77137      3.59186     10.32089         1.534227     -2.718965      3.414984
      8.52793     11.40737      2.75207        -3.426619     -2.731141     -1.471073
      3.79254     10.87829     13.26246        -0.045256      6.834073     -2.509001
     11.72887      8.39152      1.35026        -1.146007     -6.792522     -0.577253
      1.29985      8.18889      8.95600        -3.471534     -4.204406     -2.904513
     11.57794      8.66475     12.15651         2.382261      1.705097      0.571469
      3.39950      6.99653      2.23634        -6.105291      5.325329     -0.898241
     10.22403      1.21148      7.89746         0.235652     -1.903492      0.076822
      2.24772      1.70276      2.28900         0.771121      0.742271     -2.514947
      2.82911      9.21022      5.82270        -3.091085      2.762166     -4.973077
      5.21672      3.58062      0.98242        -1.307756      5.501292     -0.982414
     12.58050      5.14377      3.16712         0.624558      1.481084      3.502622
      8.33434      7.10539      2.87272        -2.975704      0.820441     -0.833208
      5.67007      1.53778      1.74176         3.269810     -3.131767      0.338916
      4.21918      5.81228      2.41275         5.081969     -5.066809      1.912406
[...]
      1.65188      3.24332      2.20095         0.879773     -2.800994      0.311729
      8.64751      4.30560      1.93073        -1.913473      1.166530      2.219978
      5.07891      9.09325      7.37593         1.348849     -3.629413      0.458744
      7.60803      9.98385      2.21570         0.883599      3.323643      1.616409
      9.43086      3.59890     10.93778         0.323795     -0.355505     -0.149745
      3.00532      7.77628     11.03560        -2.226197     -1.064659     -0.920112
      1.81491     10.27907      3.85908        -5.772484      2.522440     -1.376228
      0.37072     11.77953      0.12851        -0.682219     -1.431997     -0.863832
     13.19885      5.17134     13.08258         0.662296     -0.407986      2.863184
      7.80531      7.68011      8.43672        -1.056120      3.479739      0.911363
     13.23744     13.17726      6.10270         5.001037     -2.380882     -3.841749
      3.28148      1.19098      3.83301        -0.539053      1.828888     -1.512032
     11.52447     12.85711      0.25758         0.181627      0.070539     -4.366406
     12.57966      9.14515      0.19988        -0.630171      0.283689      2.095312
     12.72044     12.02798      2.85386         0.920439     -0.591946     -3.606420
    total drift:                               -0.014895      0.003324      0.014347

  FREE ENERGIE OF THE ION-ELECTRON SYSTEM (eV)
  free  energy   TOTEN  =      -871.34051077 eV

  energy  without entropy=     -871.31585478  energy(sigma->0) =     -871.32818277