 vasp.5.4.4.18Apr17-6-g9f103f2a35 (build Mar 16 2023 09:39:13) complex

 executed on             LinuxIFC date 2024.04.30  13:13:16

 INCAR:
 POTCAR:    PAW_PBE Ca_sv 06Sep2000
 POTCAR:    PAW_PBE Si 05Jan2001
 POTCAR:    PAW_PBE O 08Apr2002
 POTCAR:    PAW_PBE Ca_sv 06Sep2000
   VRHFIN =Ca: 3s3p4s

   TITEL  = PAW_PBE Ca_sv 06Sep2000
   POMASS =   40.078; ZVAL   =   10.000    mass and valenz
   ENMAX  =  266.622; ENMIN  =  199.967 eV

   TITEL  = PAW_PBE Si 05Jan2001
   POMASS =   28.085; ZVAL   =    4.000    mass and valenz
   ENMAX  =  245.345; ENMIN  =  184.009 eV

   TITEL  = PAW_PBE O 08Apr2002
   POMASS =   16.000; ZVAL   =    6.000    mass and valenz
   ENMAX  =  400.000; ENMIN  =  300.000 eV

 Optimization of the real space projectors (new method)

 maximal supplied QI-value         = 16.25
 optimisation between [QCUT,QGAM] = [ 12.51, 25.03] = [ 43.85,175.40] Ry
 Optimized for a Real-space Cutoff    1.47 Angstroem

   l    n(q)    QCUT    max X(q) W(low)/X(q) W(high)/X(q)  e(spline)
   0     11    12.514    11.817    0.25E-04    0.32E-05    0.87E-07
   0     11    12.514     8.461    0.39E-04    0.59E-05    0.18E-06
   1     11    12.514     3.957    0.97E-05    0.57E-05    0.28E-07
   1     11    12.514     4.314    0.42E-04    0.14E-04    0.23E-06
   2     10    12.514    14.565    0.79E-04    0.50E-03    0.16E-05
   2     10    12.514    14.552    0.75E-04    0.48E-03    0.15E-05
 Optimization of the real space projectors (new method)

[...]

   l    n(q)    QCUT    max X(q) W(low)/X(q) W(high)/X(q)  e(spline)
   0      9    12.501   159.560    0.10E-03    0.83E-04    0.71E-07
   0      9    12.501   115.863    0.99E-04    0.81E-04    0.70E-07
   1      8    12.501    88.339    0.20E-03    0.25E-03    0.76E-07
   1      8    12.501    48.592    0.20E-03    0.24E-03    0.75E-07
 Optimization of the real space projectors (new method)

 maximal supplied QI-value         = 24.76
 optimisation between [QCUT,QGAM] = [ 12.38, 25.00] = [ 42.90,175.06] Ry
 Optimized for a Real-space Cutoff    1.16 Angstroem

   l    n(q)    QCUT    max X(q) W(low)/X(q) W(high)/X(q)  e(spline)
   0      9    12.378    20.381    0.16E-03    0.67E-05    0.31E-06
   0      9    12.378    15.268    0.17E-03    0.81E-05    0.33E-06
   1      8    12.378     5.964    0.20E-03    0.16E-03    0.30E-06
   1      8    12.378     5.382    0.18E-03    0.14E-03    0.26E-06
  PAW_PBE Ca_sv 06Sep2000               :
  PAW_PBE Si 05Jan2001                  :
  PAW_PBE O 08Apr2002                   :

 POSCAR: Ca Si  O
  positions in direct lattice
 exchange correlation table for  LEXCH =        8
   RHO(1)=    0.500       N(1)  =     2000
   RHO(2)=  100.500       N(2)  =     4000

 ion  position               nearest neighbor table
   1  0.959  0.539  0.198- 110 2.38  90 2.45
   2  0.547  0.575  0.478-  73 1.93 117 2.23 108 2.32
   3  0.810  0.217  0.822- 120 2.11  85 2.29  43 2.95
   4  0.622  0.204  0.281-  74 1.98 111 2.32  16 3.17
   5  0.595  0.308  0.567-  79 2.03 106 2.29  82 2.47 133 2.50
   6  0.377  0.275  0.697-  79 2.21  86 2.40 131 2.41
   7  0.581  0.822  0.347- 124 2.05  76 2.20 117 2.31 128 2.41  63 2.44  47 2.82  33 3.07
   8  0.546  0.098  0.887- 102 2.14  85 2.14
   9  0.465  0.571  0.188-  71 2.12 112 2.28  37 3.07
  10  0.286  0.759  0.747-  95 2.17  56 2.22  57 2.41
  11  0.861  0.768  0.577- 123 2.11 114 2.12 104 2.39
  12  0.102  0.114  0.955-  83 2.15  78 2.26 132 2.31  99 2.49  22 3.14  42 3.14
  13  0.513  0.435  0.955- 112 2.19  68 2.22 135 2.25  39 3.12
  14  0.961  0.840  0.350-  91 2.39 105 2.39 104 2.47 100 2.53  81 2.54  53 2.95
  15  0.924  0.144  0.215-  99 2.14  35 2.77
  16  0.407  0.136  0.377- 106 2.30 134 2.32 128 2.48  47 2.86  32 3.10   4 3.17
  17  0.125  0.423  0.597-  72 2.12  97 2.29  87 2.52
  18  0.876  0.631  0.878-  92 2.12 119 2.27 125 2.30  75 2.37  34 3.01  54 3.05
  19  0.158  0.412  0.873-  86 2.06  84 2.40  97 2.40  65 2.45
  20  0.287  0.669  0.979-  96 1.94  59 1.96  57 2.56
  21  0.868  0.104  0.516- 105 2.31  77 2.32  70 2.48 116 2.53
  22  0.246  0.041  0.774- 131 2.29 132 2.34  78 2.38  56 2.41  38 3.04  49 3.09  12 3.14
  23  0.206  0.393  0.166- 130 2.07  84 2.21  59 2.49 118 2.55  29 3.10  36 3.12
  24  0.374  0.087  0.119- 102 2.15  67 2.22 111 2.29 121 2.34 134 2.34  36 2.78  50 2.88  48 3.08

  25  0.950  0.888  0.967- 119 2.31  83 2.31  51 2.68
  26  0.874  0.478  0.563-  72 2.15 109 2.33
  27  0.612  0.711  0.777-  98 2.16 108 2.23  75 2.32  39 3.06
  28  0.980  0.322  0.375- 118 1.58  77 1.74 113 1.75  72 1.86
  29  0.211  0.629  0.210- 110 1.53 130 1.71  94 1.92  59 2.22  23 3.10
  30  0.748  0.418  0.348- 109 1.53  74 1.60  90 1.71 113 1.71  44 3.00
  31  0.684  0.934  0.629-  70 1.58 114 1.65  63 1.77 103 1.90  47 2.89
  32  0.391  0.370  0.429-  87 1.65  73 1.67 106 1.70  58 2.00  16 3.10
  33  0.755  0.776  0.193-  76 1.59  64 1.67  88 1.69  91 1.87  44 2.72  35 2.81  51 2.92   7 3.07

[...]

  51  0.753  0.823  0.972-  62 1.58  88 1.65 119 1.68  98 1.76  25 2.68  33 2.92  37 2.98
  52  0.792  0.441  0.008- 115 1.54 125 1.65  69 1.68 127 1.82
  53  0.065  0.950  0.521- 105 1.50  60 1.51 100 1.73 116 1.78  45 2.82  14 2.95
  54  0.071  0.641  0.745-  92 1.46  97 1.59  95 1.79  57 1.87  18 3.05
  55  0.239  0.697  0.470-  45 1.63  41 1.72
  56  0.339  0.908  0.682-  49 1.65  10 2.22  22 2.41
  57  0.141  0.709  0.852-  54 1.87  10 2.41  20 2.56
  58  0.368  0.310  0.288-  36 1.97  32 2.00
  59  0.240  0.551  0.061-  20 1.96  29 2.22  23 2.49
  60  0.134  0.860  0.550-  53 1.51  45 1.56
  61  0.298  0.881  0.378-  41 1.57  40 1.65
  62  0.721  0.940  0.965-  51 1.58  43 1.88
  63  0.654  0.908  0.498-  31 1.77  47 1.81   7 2.44
  64  0.642  0.733  0.149-  33 1.67  37 1.84
  65  0.006  0.306  0.913-  42 1.69  19 2.45
  66  0.791  0.049  0.338-  35 1.62
  67  0.295  0.970  0.022-  46 1.61  50 1.66  24 2.22
  68  0.454  0.275  0.933-  48 1.62  13 2.22
  69  0.886  0.390  0.083-  52 1.68  42 1.82
  70  0.747  0.038  0.649-  31 1.58  21 2.48
  71  0.491  0.628  0.036-  37 1.58   9 2.12
  72  0.005  0.409  0.487-  28 1.86  17 2.12  26 2.15
  73  0.458  0.478  0.408-  32 1.67   2 1.93
  74  0.648  0.350  0.320-  30 1.60   4 1.98
  75  0.754  0.606  0.745-  34 1.60  27 2.32  18 2.37
  76  0.714  0.874  0.254-  33 1.59  35 1.72   7 2.20
  77  0.992  0.201  0.431-  28 1.74  21 2.32
  78  0.274  0.136  0.929-  48 1.55  12 2.26  22 2.38
  79  0.493  0.392  0.652-  39 1.82   5 2.03   6 2.21
  80  0.163  0.907  0.210-  40 1.65  46 1.81
  81  0.902  0.929  0.186-  35 1.89  14 2.54
  82  0.708  0.415  0.678-  34 1.61   5 2.47
  83  0.115  0.952  0.991-  46 1.65  12 2.15  25 2.31
  84  0.087  0.397  0.044-  42 1.54  23 2.21  19 2.40
  85  0.689  0.162  0.939-  43 1.67   8 2.14   3 2.29
  86  0.280  0.313  0.851-  48 1.65  19 2.06   6 2.40
  87  0.273  0.384  0.475-  32 1.65  17 2.52
  88  0.815  0.786  0.077-  51 1.65  33 1.69
  89  0.456  0.000  0.528-  49 1.57  47 1.83
  90  0.791  0.526  0.285-  30 1.71  44 1.91   1 2.45
  91  0.847  0.711  0.284-  44 1.66  33 1.87  14 2.39
  92  0.963  0.675  0.747-  54 1.46  18 2.12
  93  0.142  0.248  0.693-  38 1.57
  94  0.320  0.709  0.273-  41 1.76  29 1.92
  95  0.173  0.674  0.658-  54 1.79  45 2.04  10 2.17
  96  0.269  0.797  0.057-  46 1.73  20 1.94  50 2.46
  97  0.085  0.519  0.740-  54 1.59  17 2.29  19 2.40
  98  0.637  0.763  0.933-  51 1.76  37 1.80  27 2.16
  99  0.033  0.209  0.108-  42 1.68  15 2.14  12 2.49
 100  0.106  0.964  0.395-  40 1.69  53 1.73  14 2.53
 101  0.407  0.852  0.884-  50 1.52
 102  0.477  0.014  0.012-  50 1.67   8 2.14  24 2.15
 103  0.561  0.962  0.705-  49 1.78  31 1.90
 104  0.017  0.721  0.490-  45 1.59  11 2.39  14 2.47
 105  0.950  0.946  0.501-  53 1.50  21 2.31  14 2.39
 106  0.440  0.266  0.494-  32 1.70   5 2.29  16 2.30
 107  0.722  0.064  0.126-  35 1.79  43 1.79
 108  0.551  0.606  0.655-  39 1.70  27 2.23   2 2.32
 109  0.727  0.446  0.462-  30 1.53  26 2.33
 110  0.097  0.659  0.219-  29 1.53   1 2.38
[...]
 121  0.324  0.257  0.080-  36 1.64  48 1.84  24 2.34
 122  0.392  0.528  0.798-  39 1.64
 123  0.805  0.653  0.477-  44 1.60  11 2.11
 124  0.449  0.762  0.411-  41 1.59   7 2.05
 125  0.788  0.568  0.020-  52 1.65  18 2.30
 126  0.881  0.110  0.977-  43 1.57
 127  0.799  0.441  0.868-  34 1.68  52 1.82
 128  0.536  0.002  0.333-  47 1.61   7 2.41  16 2.48
 129  0.510  0.842  0.087-  37 1.62  50 2.12
 130  0.224  0.513  0.272-  29 1.71  23 2.07
 131  0.401  0.090  0.704-  49 1.67  22 2.29   6 2.41
 132  0.067  0.057  0.790-  38 1.73  12 2.31  22 2.34
 133  0.593  0.138  0.475-  47 1.66   5 2.50
 134  0.285  0.053  0.273-  40 1.70  16 2.32  24 2.34
 135  0.604  0.497  0.820-  34 1.63  39 1.86  13 2.25

IMPORTANT INFORMATION: All symmetrisations will be switched off!
NOSYMM: (Re-)initialisation of all symmetry stuff for point group C_1.

Automatic generation of k-mesh.
 generate k-points for:    2    2    2
Space group operators:
 irot       det(A)        alpha          n_x          n_y          n_z        tau_x        tau_y        tau_z
    1     1.000000     0.000000     1.000000     0.000000     0.000000     0.000000     0.000000     0.000000

 Subroutine IBZKPT returns following result:

 Found      8 irreducible k-points:

 Following reciprocal coordinates:
            Coordinates               Weight
  0.000000  0.000000  0.000000      1.000000
  0.500000  0.000000  0.000000      1.000000
  0.000000  0.500000  0.000000      1.000000
  0.500000  0.500000  0.000000      1.000000
  0.000000  0.000000  0.500000      1.000000
  0.500000  0.000000  0.500000      1.000000
  0.000000  0.500000  0.500000      1.000000
  0.500000  0.500000  0.500000      1.000000

 Following cartesian coordinates:
            Coordinates               Weight
  0.000000  0.000000  0.000000      1.000000
  0.038669  0.000000  0.000000      1.000000
  0.000000  0.038669  0.000000      1.000000
  0.038669  0.038669  0.000000      1.000000
  0.000000  0.000000  0.038669      1.000000
  0.038669  0.000000  0.038669      1.000000
  0.000000  0.038669  0.038669      1.000000
  0.038669  0.038669  0.038669      1.000000

 SYSTEM =  unknown system
 POSCAR =  Ca Si  O

 Startparameter for this run:
   NWRITE =      2    write-flag & timer
   PREC   = a         normal or accurate (medium, high low for compatibility)
   ISTART =      0    job   : 0-new  1-cont  2-samecut
   ICHARG =      2    charge: 1-file 2-atom 10-const
   ISPIN  =      1    spin polarized calculation?
   LNONCOLLINEAR =      F non collinear calculations
   LSORBIT =      F    spin-orbit coupling
   INIWAV =      1    electr: 0-lowe 1-rand  2-diag
   LASPH  =      F    aspherical Exc in radial PAW
   METAGGA=      F    non-selfconsistent MetaGGA calc.

 Electronic Relaxation 1
   ENCUT  =  600.0 eV  44.10 Ry    6.64 a.u.  25.83 25.83 25.83*2*pi/ulx,y,z
   ENINI  =  600.0     initial cutoff
   ENAUG  =  605.4 eV  augmentation charge cutoff
   NELM   =     60;   NELMIN=  2; NELMDL= -5     # of ELM steps
   EDIFF  = 0.1E-05   stopping-criterion for ELM
   LREAL  =      T    real-space projection
   NLSPLINE    = F    spline interpolate recip. space projectors
   LCOMPAT=      F    compatible to vasp.4.4
[...]
     0.000000000  0.000000000 12.930412990     0.000000000  0.000000000  0.077337050

  length of vectors
    12.930412990 12.930412990 12.930412990     0.077337050  0.077337050  0.077337050

 FORCES acting on ions
    electron-ion (+dipol)            ewald-force                    non-local-force                 convergence-correction
   -.814E+02 -.522E+02 0.266E+02   0.824E+02 0.502E+02 -.255E+02   -.630E+00 0.106E+01 -.100E+01   0.129E-02 -.338E-03 -.645E-03
   0.117E+03 -.733E+02 -.116E+03   -.118E+03 0.727E+02 0.116E+03   0.192E+01 0.249E+01 0.193E+01   -.184E-03 0.839E-03 -.498E-03
   0.847E+02 -.112E+02 0.170E+03   -.782E+02 0.121E+02 -.168E+03   -.511E+01 0.466E+00 -.115E+01   0.958E-03 -.105E-02 -.275E-03
   -.144E+03 0.214E+02 0.439E+02   0.143E+03 -.172E+02 -.446E+02   0.691E+00 -.581E+01 0.790E-01   -.122E-02 -.126E-02 0.507E-03
   -.210E+03 0.149E+03 -.574E+02   0.208E+03 -.146E+03 0.560E+02   0.463E+01 -.349E+01 -.353E+00   -.379E-03 -.163E-02 0.202E-03
   0.925E+02 -.551E+01 0.121E+03   -.927E+02 0.670E+01 -.122E+03   -.102E+01 -.122E+01 0.316E+00   -.561E-03 -.165E-02 0.366E-03
   0.104E+03 -.768E+00 -.211E+02   -.107E+03 -.164E+00 0.227E+02   0.261E+01 0.102E+01 -.190E+01   -.884E-03 0.114E-02 0.113E-02
   -.110E+03 -.158E+02 0.246E+03   0.110E+03 0.158E+02 -.241E+03   -.977E+00 -.715E-01 -.615E+01   0.158E-03 -.818E-03 -.713E-03
   -.181E+02 0.923E+01 -.185E+03   0.151E+02 -.130E+02 0.183E+03   0.199E+01 0.246E+01 0.460E+01   -.209E-02 0.168E-03 -.417E-03
   -.773E+02 0.683E+02 0.799E+02   0.734E+02 -.666E+02 -.811E+02   0.405E+01 -.165E+01 0.162E+01   -.951E-03 0.129E-02 0.573E-03
   -.120E+03 -.912E+02 -.157E+03   0.117E+03 0.880E+02 0.157E+03   0.420E+01 0.310E+01 0.885E+00   -.386E-03 0.119E-02 0.123E-02
   0.140E+03 -.223E+02 -.491E+02   -.142E+03 0.224E+02 0.472E+02   0.719E-01 0.178E+01 0.192E+01   -.242E-03 0.760E-04 -.151E-02
   -.429E+02 -.480E+02 0.427E+02   0.452E+02 0.451E+02 -.403E+02   -.128E+01 0.289E+01 -.183E+01   -.580E-03 -.510E-03 0.918E-03
   -.104E+03 0.249E+02 0.105E+03   0.105E+03 -.235E+02 -.106E+03   -.473E+00 -.997E+00 -.738E+00   0.436E-03 0.522E-03 0.998E-03
   -.714E+02 -.349E+02 -.949E+02   0.761E+02 0.369E+02 0.940E+02   -.373E+01 -.142E+01 0.154E+01   0.321E-03 -.340E-03 -.421E-03
   0.253E+03 -.157E+00 -.101E+03   -.255E+03 0.144E+01 0.102E+03   0.108E+01 -.102E+01 -.636E+00   0.108E-02 -.983E-03 0.100E-03
   -.114E+03 -.788E+01 0.586E+02   0.114E+03 0.491E+01 -.629E+02   0.207E+01 0.170E+01 0.301E+01   -.756E-03 -.433E-03 0.694E-03
   -.244E+03 0.452E+02 -.111E+03   0.239E+03 -.445E+02 0.107E+03   0.429E+01 -.162E+01 0.370E+01   0.248E-03 0.506E-03 -.742E-03
   0.474E+02 -.197E+03 0.101E+03   -.507E+02 0.194E+03 -.993E+02   0.873E+00 0.414E+01 -.582E+00   -.713E-03 -.514E-03 0.281E-03
   0.453E+02 0.569E+02 0.176E+03   -.501E+02 -.584E+02 -.172E+03   0.549E+01 0.399E+00 -.699E+01   -.815E-03 0.533E-03 0.517E-03
   0.765E+02 -.170E+03 -.966E+02   -.705E+02 0.168E+03 0.963E+02   -.493E+01 0.219E+01 0.568E+00   -.589E-03 -.180E-02 0.200E-02
   0.990E+02 0.111E+03 0.189E+03   -.976E+02 -.110E+03 -.190E+03   -.106E+01 -.148E+01 0.701E+00   -.349E-03 0.185E-03 0.310E-04
   0.472E+02 0.105E+03 -.120E+03   -.501E+02 -.990E+02 0.123E+03   0.286E+01 -.594E+01 -.165E+01   0.353E-03 0.901E-03 -.274E-03
   0.633E+02 0.488E+02 -.205E+03   -.618E+02 -.492E+02 0.203E+03   -.173E+01 0.445E+00 0.245E+01   0.262E-03 -.169E-03 -.251E-03
   -.152E+03 0.338E+02 0.909E+02   0.155E+03 -.325E+02 -.916E+02   -.901E+00 -.385E+00 0.729E+00   0.393E-03 0.278E-03 -.133E-02
   -.128E+03 0.606E+02 -.130E+03   0.125E+03 -.631E+02 0.125E+03   0.126E+01 0.290E+01 0.525E+01   0.491E-03 0.696E-03 0.880E-03
   0.170E+03 -.163E+03 0.678E+02   -.164E+03 0.160E+03 -.722E+02   -.430E+01 0.290E+01 0.216E+01   0.151E-02 0.156E-02 -.736E-03
   -.169E+02 0.411E+02 -.299E+02   0.271E+02 -.401E+02 0.271E+02   -.893E+01 -.897E+00 0.685E+01   0.380E-03 0.795E-04 -.532E-04
   -.210E+02 -.543E+02 0.102E+02   0.906E+01 0.452E+02 -.160E+01   0.160E+02 0.457E+01 -.670E+01   0.140E-03 -.140E-03 -.174E-04
   -.244E+02 0.260E+02 0.667E+02   0.188E+02 -.272E+02 -.573E+02   0.696E+01 -.104E+00 -.122E+02   0.819E-04 0.161E-03 -.120E-03
   -.811E+01 -.305E+02 -.721E+02   0.146E+02 0.313E+02 0.724E+02   -.916E+01 -.217E+01 0.178E+00   0.154E-03 0.287E-03 0.796E-04
   0.603E+02 -.269E+02 0.750E+01   -.667E+02 0.301E+02 0.191E+00   0.317E+01 -.277E+01 -.830E+01   -.129E-03 -.325E-04 -.256E-03
   -.756E+02 0.667E+02 0.468E+01   0.676E+02 -.622E+02 -.953E+01   0.846E+01 -.719E+01 0.193E+01   -.131E-03 0.144E-03 -.106E-03
   -.591E+02 0.659E+02 0.596E+01   0.571E+02 -.645E+02 -.119E+02   0.261E+01 -.310E+01 0.526E+01   0.359E-03 0.124E-03 -.918E-04
   -.958E+01 -.395E+02 0.260E+02   0.152E+02 0.423E+02 -.195E+02   -.381E+01 -.413E+01 -.805E+01   -.214E-04 0.403E-04 0.108E-03
   -.233E+02 -.490E+02 -.855E+02   0.271E+02 0.491E+02 0.808E+02   -.324E+01 0.327E+01 0.741E+01   -.215E-03 0.164E-04 -.203E-03
   0.663E+01 0.249E+02 0.455E+02   -.136E+02 -.223E+02 -.404E+02   0.102E+02 -.116E+00 -.389E+01   -.215E-03 0.281E-03 0.896E-04
   0.226E+01 0.203E+02 0.829E+02   -.529E+01 -.125E+02 -.780E+02   0.222E+01 -.117E+02 -.580E+01   -.195E-03 -.395E-03 0.378E-03
   0.855E+02 -.782E+01 0.417E+02   -.894E+02 0.117E+02 -.410E+02   0.530E+01 -.515E+01 -.189E+01   0.187E-04 0.116E-04 0.197E-03
   0.313E+02 -.571E+02 -.369E+02   -.276E+02 0.576E+02 0.332E+02   -.213E+01 0.143E+01 0.258E+01   0.214E-03 -.253E-03 -.512E-04
   0.353E+02 0.583E+02 -.731E+02   -.286E+02 -.548E+02 0.678E+02   -.650E+01 -.710E+01 0.208E+01   0.490E-04 0.926E-04 -.171E-03
   0.958E+02 0.226E+02 -.432E+02   -.831E+02 -.179E+02 0.351E+02   -.145E+02 -.551E+01 0.544E+01   0.130E-03 -.234E-03 -.459E-03
   -.154E+01 0.186E+02 0.183E+02   0.761E+01 -.908E+01 -.218E+02   -.977E+01 -.103E+02 0.515E+01   0.148E-03 0.145E-03 -.471E-03
   -.382E+02 0.265E+02 0.109E+02   0.336E+02 -.275E+02 -.325E+01   0.629E+01 -.457E+01 -.669E+01   0.336E-04 0.317E-03 0.214E-03
   -.404E+02 0.889E+02 -.147E+02   0.352E+02 -.866E+02 0.121E+02   0.632E+01 -.744E+01 0.563E+01   -.179E-03 0.565E-04 0.345E-05
   0.109E+03 0.514E+02 -.824E+02   -.104E+03 -.538E+02 0.731E+02   -.495E+01 -.193E+01 0.102E+02   -.194E-04 -.248E-03 -.168E-03
   -.423E+02 0.138E+02 -.656E+02   0.400E+02 -.677E+01 0.596E+02   0.172E+01 -.573E+01 0.860E+01   0.974E-04 -.205E-03 0.445E-03
   0.462E+01 -.365E+02 0.146E+02   -.449E+01 0.355E+02 -.221E+02   0.465E+00 0.533E+01 0.777E+01   -.197E-03 -.167E-03 -.578E-05
   -.509E+01 0.553E+02 0.859E+01   0.125E+01 -.512E+02 -.932E+01   0.413E+01 -.339E+01 0.476E+01   0.331E-03 -.271E-04 0.118E-03
   -.191E+02 0.692E+02 -.436E+01   0.221E+02 -.667E+02 -.607E+01   0.267E-01 -.187E+01 0.148E+02   -.538E-04 -.574E-04 -.146E-03
   -.365E+01 0.655E+01 0.191E+02   0.678E+01 -.179E+01 -.259E+02   -.514E+01 -.719E+01 0.303E+01   0.102E-03 0.836E-04 -.572E-03
   -.483E+02 0.246E+02 -.127E+02   0.346E+02 -.239E+02 0.181E+02   0.131E+02 0.126E+01 -.636E+01   0.127E-03 0.375E-04 -.233E-03
   -.877E+02 -.793E+02 -.821E+02   0.779E+02 0.778E+02 0.803E+02   0.110E+02 0.109E+02 0.207E+01   -.286E-03 0.102E-03 0.342E-03
   -.491E+02 -.221E+02 -.726E+00   0.410E+02 0.193E+02 0.238E+01   0.189E+02 0.344E+01 0.172E+00   -.308E-04 0.227E-03 0.169E-03
   -.384E+02 0.161E+03 -.409E+02   0.473E+02 -.190E+03 0.428E+02   -.827E+01 0.305E+02 -.279E+01   -.110E-03 0.400E-04 -.893E-03
   0.501E+02 0.823E+02 0.100E+03   -.672E+02 -.945E+02 -.969E+02   0.176E+02 0.119E+02 -.412E+01   0.123E-03 0.581E-03 0.158E-03
   0.786E+02 -.423E+02 -.781E+02   -.763E+02 0.509E+02 0.917E+02   -.291E+01 -.998E+01 -.152E+02   -.219E-03 -.609E-04 0.340E-03
   0.103E+03 -.250E+02 -.773E+02   -.115E+03 0.255E+02 0.796E+02   0.136E+02 -.147E+01 -.347E+01   0.353E-03 0.548E-03 -.482E-03
   0.813E+02 0.228E+02 0.253E+02   -.842E+02 -.330E+02 -.284E+02   0.251E+01 0.102E+02 0.630E+01   -.214E-03 -.181E-03 0.613E-03
   -.109E+03 -.509E+02 -.142E+03   0.132E+03 0.550E+02 0.159E+03   -.194E+02 -.439E+01 -.133E+02   -.168E-03 0.314E-03 0.330E-03
[...]
   0.160E+03 -.659E+02 0.435E+02   -.185E+03 0.682E+02 -.291E+02   0.267E+02 -.197E+01 -.149E+02   -.544E-03 -.269E-03 0.958E-03
   -.429E+02 0.535E+02 -.646E+02   0.482E+02 -.570E+02 0.891E+02   -.489E+01 0.332E+01 -.253E+02   -.373E-04 0.479E-03 0.926E-03
   0.649E+02 0.566E+02 -.144E+03   -.406E+02 -.574E+02 0.149E+03   -.249E+02 -.612E+00 -.281E+01   0.879E-04 0.394E-03 -.778E-04
   -.826E+01 -.487E+02 -.108E+03   0.103E+01 0.736E+02 0.114E+03   0.889E+01 -.249E+02 -.544E+01   0.200E-03 0.185E-03 -.408E-03
   -.666E+02 0.174E+01 0.339E+02   0.983E+02 0.112E+02 -.377E+02   -.307E+02 -.144E+02 0.363E+01   0.719E-03 0.431E-03 -.931E-03
   -.118E+03 0.121E+03 0.430E+02   0.133E+03 -.131E+03 -.437E+02   -.136E+02 0.107E+02 0.561E+00   0.517E-03 -.207E-03 0.840E-06
   0.490E+02 0.143E+02 0.115E+03   -.582E+02 -.175E+02 -.144E+03   0.952E+01 0.293E+01 0.297E+02   -.147E-03 0.662E-04 0.262E-03
   0.533E+02 -.594E+02 -.849E+02   -.535E+02 0.842E+02 0.104E+03   -.283E+01 -.250E+02 -.215E+02   -.579E-03 0.358E-03 0.175E-03
   0.883E+01 -.214E+02 -.213E+03   -.756E+01 0.441E+01 0.233E+03   -.298E+00 0.205E+02 -.211E+02   0.340E-03 0.248E-03 -.213E-03
   -.293E+02 -.688E+02 0.582E+02   0.262E+02 0.858E+02 -.509E+02   0.339E+01 -.156E+02 -.675E+01   0.105E-03 -.233E-03 0.117E-03
   0.127E+03 0.162E+03 0.770E+02   -.134E+03 -.182E+03 -.701E+02   0.870E+01 0.217E+02 -.677E+01   -.280E-03 0.120E-03 0.825E-04
   -.118E+03 -.611E+02 -.109E+03   0.120E+03 0.848E+02 0.117E+03   -.591E+00 -.249E+02 -.839E+01   -.164E-03 -.885E-03 0.297E-03
   0.126E+03 -.786E+02 -.748E+02   -.118E+03 0.949E+02 0.662E+02   -.916E+01 -.172E+02 0.988E+01   0.771E-03 -.370E-03 -.131E-03
   0.375E+02 0.344E+02 -.444E+02   -.469E+02 -.351E+02 0.615E+02   0.596E+01 0.130E+01 -.170E+02   0.576E-03 0.118E-03 0.482E-04
   -.125E+03 0.116E+03 -.849E+02   -.298E-12 -.519E-12 0.107E-12   0.125E+03 -.116E+03 0.849E+02   -.428E-02 0.844E-03 0.998E-04

 POSITION                                       TOTAL-FORCE (eV/Angst)
     12.39872      6.97000      2.55650         0.390012     -0.921120      0.136722
      7.07585      7.43718      6.17729         1.667196      1.866858      1.972752
     10.47749      2.80354     10.62666         1.388250      1.397218      0.250999
      8.04469      2.64034      3.63815         0.348997     -1.678691     -0.671531
      7.69598      3.98881      7.32597         2.064572     -0.243387     -1.686638
      4.87256      3.55007      9.01472        -1.203739     -0.040684     -0.722405
      7.51453     10.62304      4.48869        -0.990799      0.089640     -0.213814
      7.06074      1.26484     11.47461        -0.793750      0.022873     -0.531528
      6.01001      7.38197      2.42806        -1.104924     -1.294731      1.969142
      3.70273      9.80783      9.66278         0.236864      0.058332      0.432927
     11.13674      9.93620      7.46572         0.906616     -0.184158      1.671581
      1.32050      1.47973     12.35303        -1.693082      1.940716      0.037451
      6.62721      5.61930     12.34530         1.033065     -0.010812      0.508071
     12.42637     10.85631      4.53152         0.751314      0.375342     -1.079783
     11.94298      1.86410      2.77721         0.989296      0.516535      0.603000
      5.25678      1.75695      4.86948        -1.022511      0.253345      0.718719
      1.62151      5.46740      7.71893         1.787929     -1.274917     -1.235088
     11.33194      8.15298     11.35817        -1.104164     -0.898195      0.197122
      2.03928      5.32750     11.29352        -2.403551      0.781314      0.699099
      3.71039      8.65231     12.65819         0.666446     -1.091184     -3.237183
     11.21793      1.34462      6.67711         1.053820     -0.142475      0.198315
      3.18340      0.53345     10.00864         0.310362     -0.405378     -0.397407
      2.66045      5.08631      2.15263        -0.034877     -0.452257      0.855807
      4.83791      1.12860      1.54257        -0.144814     -0.007653      1.049208
     12.28599     11.48814     12.50042         1.475131      0.942319      0.047242
     11.29551      6.17736      7.27472        -1.918412      0.448287      0.035909
      7.90921      9.19050     10.04969         1.196075      0.126193     -2.239635
     12.66707      4.16906      4.84597         1.259087      0.075797      4.057857
      2.73314      8.13354      2.71883         4.026276     -4.539347      1.890425
      9.66922      5.40685      4.50401         1.342840     -1.263763     -2.792806
      8.84811     12.08103      8.13618        -2.654574     -1.409679      0.449171
      5.05614      4.77780      5.54605        -3.189914      0.426855     -0.601450
      9.76841     10.03249      2.48975         0.419158     -2.748944     -2.923503
      9.32518      6.34939     10.02944         0.594862     -1.701638     -0.629066
     10.03754     12.78743      2.96528         1.835014     -1.302075     -1.523947
      5.49544      3.80652      1.90502         0.519268      3.375879      2.715335
      7.13343      9.49068      0.50486         3.260088      2.540009      1.297042
      0.72286      2.11607      9.18288        -0.821679     -3.950147     -0.970569
      6.40111      6.60494      9.39386         1.402667     -1.285973     -1.226658
      2.73769     12.33529      4.11516         1.543235      1.899193     -1.106441
      4.22856      9.88385      5.13443         0.198369     -3.544008     -3.162304
     12.91863      4.09101      0.55652        -1.765181     -0.790083     -2.666435
      9.91092      0.96765     12.86359        -3.701504     -0.794808      1.617625
      9.86615      8.39529      4.65699         1.744942     -5.570473      0.982202
      1.72574      9.60722      6.73428         1.099488     -5.135467      3.023384
      2.59111     11.76228      0.98100        -0.200632     -4.294235      0.987531
      7.43379      0.17306      5.83463        -0.579420      1.324375      2.563367
      4.32226      3.08106     12.14400         0.590040      4.304626      0.355232
      5.66705     12.67648      8.35294         0.289051      0.700004      4.029582
      5.20874     11.78551     12.73707         3.068841      0.643696      4.400634
      9.74022     10.64248     12.56284        -2.006654     -2.432689     -3.752104
     10.24313      5.69978      0.10548        -0.698184      1.922409     -1.036810
      0.83742     12.28241      6.73832         1.230707      9.312881      0.323646
      0.91246      8.29052      9.63202        10.762747      0.558401      1.827234
      3.09310      9.00747      6.07459         0.689571      1.689670     -0.886707
      4.38403     11.74529      8.81620         0.443123     -0.302902     -0.635635
      1.81964      9.16254     11.01626        -0.531903     -1.370159     -1.513950
      4.75961      4.00603      3.72324         1.727452     -0.975580     -1.152743
      3.10087      7.11825      0.78369        -0.385691      0.000963      3.198138
      1.73433     11.11907      7.10583         3.282119     -0.290422      3.113644
[...]
      4.19435      3.31770      1.02901        -1.617734     -0.375314     -1.127419
      5.06431      6.82713     10.31557         1.365730      0.288888     -0.473387
     10.41228      8.43859      6.16349         0.419384     -0.206006     -0.737503
      5.80822      9.85409      5.31688        -0.594631     -1.409603      1.966098
     10.19037      7.33846      0.25398         1.657460     -0.012256      0.556193
     11.39761      1.41812     12.63321         0.894382     -1.497806     -0.164729
     10.32691      5.70531     11.22131         0.722912     -0.277418     -0.064342
      6.93583      0.02677      4.30867         0.294409     -0.222545      0.039764
      6.60095     10.88342      1.12730        -3.094180     -0.157575     -2.017542
      2.89518      6.62829      3.51869         0.974164      3.482678     -1.136674
      5.18622      1.16395      9.10081         0.249604      1.380125      0.528527
      0.86306      0.73061     10.21233         1.814035      1.684286      0.178888
      7.67229      1.78493      6.13550         1.203496     -1.206899     -0.830700
      3.68296      0.69099      3.53479        -0.987120     -0.871854      1.241349
      7.80609      6.42227     10.60373        -3.447223      0.673793      0.084650
    total drift:                               -0.008368      0.009886      0.002281

  FREE ENERGIE OF THE ION-ELECTRON SYSTEM (eV)
  free  energy   TOTEN  =      -941.62309608 eV

  energy  without entropy=     -941.62309608  energy(sigma->0) =     -941.62309608