 vasp.5.4.4.18Apr17-6-g9f103f2a35 (build Mar 16 2023 09:39:13) complex

 executed on             LinuxIFC date 2024.04.29  21:07:07

 INCAR:
 POTCAR:    PAW_PBE Ca_sv 06Sep2000
 POTCAR:    PAW_PBE Si 05Jan2001
 POTCAR:    PAW_PBE O 08Apr2002
 POTCAR:    PAW_PBE Ca_sv 06Sep2000
   VRHFIN =Ca: 3s3p4s

   TITEL  = PAW_PBE Ca_sv 06Sep2000
   POMASS =   40.078; ZVAL   =   10.000    mass and valenz
   ENMAX  =  266.622; ENMIN  =  199.967 eV

   TITEL  = PAW_PBE Si 05Jan2001
   POMASS =   28.085; ZVAL   =    4.000    mass and valenz
   ENMAX  =  245.345; ENMIN  =  184.009 eV

   TITEL  = PAW_PBE O 08Apr2002
   POMASS =   16.000; ZVAL   =    6.000    mass and valenz
   ENMAX  =  400.000; ENMIN  =  300.000 eV

 Optimization of the real space projectors (new method)

 maximal supplied QI-value         = 16.25
 optimisation between [QCUT,QGAM] = [ 12.51, 25.03] = [ 43.85,175.40] Ry
 Optimized for a Real-space Cutoff    1.47 Angstroem

   l    n(q)    QCUT    max X(q) W(low)/X(q) W(high)/X(q)  e(spline)
   0     11    12.514    11.817    0.25E-04    0.32E-05    0.87E-07
   0     11    12.514     8.461    0.39E-04    0.59E-05    0.18E-06
   1     11    12.514     3.957    0.97E-05    0.57E-05    0.28E-07
   1     11    12.514     4.314    0.42E-04    0.14E-04    0.23E-06
   2     10    12.514    14.565    0.79E-04    0.50E-03    0.16E-05
   2     10    12.514    14.552    0.75E-04    0.48E-03    0.15E-05
 Optimization of the real space projectors (new method)

[...]

   l    n(q)    QCUT    max X(q) W(low)/X(q) W(high)/X(q)  e(spline)
   0      9    12.501   159.560    0.10E-03    0.83E-04    0.71E-07
   0      9    12.501   115.863    0.99E-04    0.81E-04    0.70E-07
   1      8    12.501    88.339    0.20E-03    0.25E-03    0.76E-07
   1      8    12.501    48.592    0.20E-03    0.24E-03    0.75E-07
 Optimization of the real space projectors (new method)

 maximal supplied QI-value         = 24.76
 optimisation between [QCUT,QGAM] = [ 12.38, 25.00] = [ 42.90,175.06] Ry
 Optimized for a Real-space Cutoff    1.16 Angstroem

   l    n(q)    QCUT    max X(q) W(low)/X(q) W(high)/X(q)  e(spline)
   0      9    12.378    20.381    0.16E-03    0.67E-05    0.31E-06
   0      9    12.378    15.268    0.17E-03    0.81E-05    0.33E-06
   1      8    12.378     5.964    0.20E-03    0.16E-03    0.30E-06
   1      8    12.378     5.382    0.18E-03    0.14E-03    0.26E-06
  PAW_PBE Ca_sv 06Sep2000               :
  PAW_PBE Si 05Jan2001                  :
  PAW_PBE O 08Apr2002                   :

 POSCAR: Ca Si  O
  positions in direct lattice
 exchange correlation table for  LEXCH =        8
   RHO(1)=    0.500       N(1)  =     2000
   RHO(2)=  100.500       N(2)  =     4000

 ion  position               nearest neighbor table
   1  0.369  0.546  0.150-  88 2.14
   2  0.917  0.136  0.742- 130 2.25  80 2.31  67 2.39 120 2.43  52 2.96
   3  0.654  0.226  0.055- 101 2.17 132 2.25 111 2.37 114 2.43   9 3.14
   4  0.108  0.251  0.515-  66 2.26 102 2.29  33 3.03
   5  0.216  0.727  0.877-  89 2.13 100 2.57  43 3.12
   6  0.081  0.866  0.703- 105 1.93 100 2.04  80 2.26  39 2.96  33 2.96
   7  0.241  0.960  0.276- 119 2.29 126 2.51
   8  0.436  0.202  0.907-  70 2.07  81 2.08 104 2.56  36 3.01
   9  0.712  0.114  0.255-  77 2.00  82 2.08 101 2.18   3 3.14
  10  0.841  0.722  0.712- 105 2.21  55 2.35  39 3.10
  11  0.468  0.428  0.701-  86 2.23  92 2.33 104 2.54 108 2.55  50 3.10
  12  0.566  0.922  0.940- 107 2.11  73 2.42
  13  0.234  0.988  0.940- 116 2.35  81 2.51  73 2.52  42 2.84
  14  0.215  0.335  0.841-  92 2.26  68 2.54
  15  0.547  0.538  0.356- 110 2.25  93 2.30 108 2.42  49 2.64  18 3.13  50 3.13
  16  0.518  0.097  0.642- 112 2.08  78 2.29  70 2.56  42 2.97  54 3.05
  17  0.899  0.543  0.928-  72 2.06 127 2.28  64 2.28  40 3.12
  18  0.662  0.339  0.405-  95 2.36 103 2.41 106 2.46  49 2.85  15 3.13
  19  0.897  0.802  0.272-  62 2.05 129 2.38
  20  0.734  0.369  0.848-  64 2.07  72 2.19  98 2.45 104 2.51  51 3.05
  21  0.738  0.720  0.057-  62 2.03 107 2.42  60 2.45  46 2.67
  22  0.936  0.467  0.388- 103 2.00  94 2.31 121 2.40 125 2.42  57 2.57  53 3.04
  23  0.972  0.100  0.058-  67 2.35  63 2.44  61 2.46  99 2.53  37 3.03  48 3.07
  24  0.778  0.731  0.476- 113 2.03  76 2.26  39 2.95
  25  0.538  0.011  0.420- 124 2.28  78 2.32  82 2.54
  26  0.348  0.736  0.514-  56 2.32  90 2.37
  27  0.174  0.364  0.223- 121 2.07  88 2.23  34 2.88
  28  0.448  0.783  0.101-  84 1.66  85 1.68 135 1.69 133 1.75  47 2.27
  29  0.773  0.124  0.502-  74 1.57  77 1.59  71 1.75 106 1.83  54 3.01
  30  0.854  0.335  0.587-  98 1.53  83 1.62  71 1.85 103 1.98  31 2.98
  31  0.014  0.481  0.643- 109 1.53 123 1.66  94 1.74  83 1.81  45 2.83  30 2.98  35 2.99
  32  0.311  0.158  0.109- 128 1.53  75 1.68 119 1.75  81 1.80  38 2.89
  33  0.134  0.079  0.661-  91 1.61 102 1.62  80 1.63 116 2.01   6 2.96   4 3.03
  34  0.153  0.569  0.288-  88 1.52 121 1.57  87 1.62 131 1.68  27 2.88  45 2.94  40 3.07
  35  0.229  0.529  0.684-  89 1.56 123 1.73 117 1.74  92 1.77  45 2.93  31 2.99
  36  0.506  0.412  0.953- 122 1.60 104 1.61  59 1.62 111 1.92   8 3.01  51 3.14
  37  0.964  0.304  0.957-  68 1.55  64 1.62  67 1.69  99 1.88  23 3.03
  38  0.481  0.033  0.160-  82 1.57 132 1.76 119 1.80  85 1.88  32 2.89
  39  0.990  0.752  0.535- 105 1.58  76 1.60 129 1.69  69 1.73  45 2.73  24 2.95   6 2.96  10 3.10

  40  0.056  0.619  0.084-  97 1.67  87 1.71 118 1.75  79 1.92  34 3.07  17 3.12
  41  0.297  0.972  0.525- 126 1.56  56 1.59  91 1.68  58 1.74
  42  0.362  0.003  0.770-  73 1.56  70 1.81  58 1.84 116 1.87  13 2.84  16 2.97
  43  0.998  0.796  0.929- 127 1.66  65 1.73 118 1.80 100 1.91   5 3.12
  44  0.857  0.309  0.187- 101 1.54 125 1.56  99 1.61  96 1.72  53 3.00  48 3.14
  45  0.124  0.599  0.505- 117 1.62  94 1.72 131 1.73  69 1.78  39 2.73  31 2.83  35 2.93  34 2.94

[...]

  55  0.728  0.852  0.678-  54 1.62  10 2.35
  56  0.237  0.871  0.510-  41 1.59  26 2.32
  57  0.851  0.604  0.282-  53 1.55  22 2.57
  58  0.368  0.974  0.635-  41 1.74  42 1.84
  59  0.572  0.507  0.916-  51 1.59  36 1.62
  60  0.763  0.541  0.091-  53 1.72  21 2.45
  61  0.019  0.053  0.231-  48 1.65  23 2.46
  62  0.830  0.815  0.134-  46 1.82  21 2.03  19 2.05
  63  0.811  0.017  0.090-  46 1.59  23 2.44
  64  0.872  0.374  0.921-  37 1.62  20 2.07  17 2.28
  65  0.910  0.883  0.967-  43 1.73  46 1.75
  66  0.108  0.213  0.349-  48 1.60   4 2.26
  67  0.970  0.188  0.906-  37 1.69  23 2.35   2 2.39
  68  0.067  0.356  0.960-  37 1.55  14 2.54
  69  0.117  0.727  0.542-  39 1.73  45 1.78
  70  0.386  0.137  0.775-  42 1.81   8 2.07  16 2.56
  71  0.865  0.201  0.556-  29 1.75  30 1.85
  72  0.758  0.531  0.865-  51 1.81  17 2.06  20 2.19
  73  0.403  0.950  0.865-  42 1.56  12 2.42  13 2.52
  74  0.802  0.030  0.567-  29 1.57  54 1.88
  75  0.197  0.105  0.099-  32 1.68
  76  0.922  0.654  0.520-  39 1.60  24 2.26
  77  0.788  0.109  0.384-  29 1.59   9 2.00
  78  0.616  0.974  0.572-  54 1.67  16 2.29  25 2.32
  79  0.949  0.531  0.122-  53 1.64  40 1.92
  80  0.025  0.022  0.668-  33 1.63   6 2.26   2 2.31
  81  0.302  0.161  0.975-  32 1.80   8 2.08  13 2.51
  82  0.565  0.062  0.238-  38 1.57   9 2.08  25 2.54
  83  0.969  0.355  0.622-  30 1.62  31 1.81
  84  0.534  0.745  0.018-  28 1.66
  85  0.465  0.892  0.162-  28 1.68  47 1.80  38 1.88
  86  0.555  0.570  0.718-  50 1.85  51 1.91  11 2.23
  87  0.086  0.633  0.209-  34 1.62  40 1.71
  88  0.244  0.515  0.246-  34 1.52   1 2.14  27 2.23
  89  0.218  0.621  0.757-  35 1.56   5 2.13
  90  0.504  0.701  0.591-  50 1.63  26 2.37
  91  0.197  0.036  0.568-  33 1.61  41 1.68
  92  0.293  0.417  0.715-  35 1.77  14 2.26  11 2.33
  93  0.651  0.467  0.238-  49 1.62  15 2.30
  94  0.047  0.496  0.518-  45 1.72  31 1.74  22 2.31
  95  0.550  0.260  0.293-  49 1.97  18 2.36
  96  0.931  0.243  0.270-  48 1.62  44 1.72
  97  0.161  0.570  0.037-  40 1.67
  98  0.787  0.374  0.672-  30 1.53  20 2.45
  99  0.924  0.281  0.091-  44 1.61  37 1.88  23 2.53
 100  0.093  0.874  0.855-  43 1.91   6 2.04   5 2.57
 101  0.756  0.253  0.180-  44 1.54   3 2.17   9 2.18
 102  0.127  0.199  0.678-  33 1.62   4 2.29
 103  0.818  0.410  0.463-  30 1.98  22 2.00  18 2.41
 104  0.547  0.351  0.856-  36 1.61  20 2.51  11 2.54   8 2.56
 105  0.967  0.803  0.640-  39 1.58   6 1.93  10 2.21
 106  0.649  0.184  0.505-  29 1.83  18 2.46
 107  0.715  0.881  0.974-  46 1.49  12 2.11  21 2.42
 108  0.527  0.491  0.531-  50 1.70  15 2.42  11 2.55
 109  0.931  0.532  0.705-  31 1.53
 110  0.443  0.427  0.284-  49 1.78  15 2.25
 111  0.558  0.373  0.082-  36 1.92  49 1.93   3 2.37
 112  0.626  0.054  0.747-  52 1.62  54 1.99  16 2.08
 113  0.682  0.626  0.531-  50 1.67  24 2.03
 114  0.641  0.115  0.911-  52 1.56   3 2.43
[...]
 121  0.099  0.467  0.313-  34 1.57  27 2.07  22 2.40
 122  0.389  0.416  0.978-  36 1.60
 123  0.121  0.461  0.705-  31 1.66  35 1.73
 124  0.484  0.852  0.386-  47 1.73  25 2.28
 125  0.843  0.411  0.242-  44 1.56  53 1.78  22 2.42
 126  0.340  0.018  0.425-  41 1.56   7 2.51
 127  0.953  0.694  0.871-  43 1.66  17 2.28
 128  0.332  0.235  0.191-  32 1.53
 129  0.976  0.823  0.431-  39 1.69  19 2.38
 130  0.758  0.190  0.764-  52 1.61   2 2.25
 131  0.196  0.614  0.398-  34 1.68  45 1.73
 132  0.532  0.109  0.066-  38 1.76   3 2.25
 133  0.480  0.716  0.210-  47 1.58  28 1.75
 134  0.319  0.782  0.293-  47 1.73
 135  0.337  0.785  0.041-  28 1.69

IMPORTANT INFORMATION: All symmetrisations will be switched off!
NOSYMM: (Re-)initialisation of all symmetry stuff for point group C_1.

Automatic generation of k-mesh.
 generate k-points for:    2    2    2
Space group operators:
 irot       det(A)        alpha          n_x          n_y          n_z        tau_x        tau_y        tau_z
    1     1.000000     0.000001     1.000000     0.000000     0.000000     0.000000     0.000000     0.000000

 Subroutine IBZKPT returns following result:

 Found      8 irreducible k-points:

 Following reciprocal coordinates:
            Coordinates               Weight
  0.000000  0.000000  0.000000      1.000000
  0.500000  0.000000  0.000000      1.000000
  0.000000  0.500000  0.000000      1.000000
  0.500000  0.500000  0.000000      1.000000
  0.000000  0.000000  0.500000      1.000000
  0.500000  0.000000  0.500000      1.000000
  0.000000  0.500000  0.500000      1.000000
  0.500000  0.500000  0.500000      1.000000

 Following cartesian coordinates:
            Coordinates               Weight
  0.000000  0.000000  0.000000      1.000000
  0.037563  0.000000  0.000000      1.000000
  0.000000  0.037563  0.000000      1.000000
  0.037563  0.037563  0.000000      1.000000
  0.000000  0.000000  0.037563      1.000000
  0.037563  0.000000  0.037563      1.000000
  0.000000  0.037563  0.037563      1.000000
  0.037563  0.037563  0.037563      1.000000

 SYSTEM =  unknown system
 POSCAR =  Ca Si  O

 Startparameter for this run:
   NWRITE =      2    write-flag & timer
   PREC   = a         normal or accurate (medium, high low for compatibility)
   ISTART =      0    job   : 0-new  1-cont  2-samecut
   ICHARG =      2    charge: 1-file 2-atom 10-const
   ISPIN  =      1    spin polarized calculation?
[...]
     0.000000000  0.000000000 13.310935620     0.000000000  0.000000000  0.075126199

  length of vectors
    13.310935620 13.310935620 13.310935620     0.075126199  0.075126199  0.075126199

 FORCES acting on ions
    electron-ion (+dipol)            ewald-force                    non-local-force                 convergence-correction
   -.429E+02 -.868E+02 0.143E+03   0.380E+02 0.826E+02 -.139E+03   0.439E+01 0.343E+01 -.436E+01   0.881E-03 -.186E-02 0.169E-02
   -.178E+03 -.230E+00 0.849E+01   0.174E+03 -.210E+01 -.733E+01   0.394E+01 0.220E+01 -.131E+01   -.451E-03 0.477E-04 -.106E-02
   -.724E+01 -.179E+02 0.553E+02   0.432E+01 0.158E+02 -.537E+02   0.213E+01 0.149E+01 -.235E+01   -.778E-03 0.222E-03 0.350E-03
   -.270E+03 0.305E+02 0.113E+03   0.267E+03 -.324E+02 -.111E+03   0.187E+01 0.214E+01 -.186E+01   0.426E-02 0.159E-02 0.140E-02
   -.243E+03 0.491E+02 -.727E+02   0.242E+03 -.540E+02 0.729E+02   0.118E+01 0.380E+01 0.143E+01   -.164E-02 -.877E-03 -.808E-03
   -.188E+03 0.244E+02 0.352E+02   0.184E+03 -.197E+02 -.360E+02   0.685E+01 -.260E+01 -.677E+00   -.112E-02 -.624E-03 0.946E-04
   0.266E+03 0.505E+02 -.214E+02   -.261E+03 -.499E+02 0.228E+02   -.497E+01 -.692E+00 -.609E+00   0.247E-02 0.156E-02 0.235E-02
   0.350E+02 -.118E+03 0.397E+02   -.369E+02 0.114E+03 -.404E+02   0.427E+01 0.407E+01 0.149E+01   0.105E-02 0.133E-03 -.405E-03
   -.561E+02 0.270E+03 -.615E+02   0.567E+02 -.267E+03 0.640E+02   0.140E-01 -.255E+01 -.358E+01   -.220E-02 0.848E-03 -.181E-03
   0.147E+03 0.263E+02 -.496E+02   -.148E+03 -.237E+02 0.509E+02   -.527E+00 -.322E+01 0.707E-01   -.964E-03 -.494E-03 0.675E-03
   0.138E+03 0.108E+03 0.181E+03   -.137E+03 -.102E+03 -.180E+03   -.378E+00 -.503E+01 -.680E+00   -.111E-02 -.444E-03 -.277E-02
   0.146E+03 0.145E+03 0.717E+02   -.142E+03 -.147E+03 -.732E+02   -.397E+01 0.187E+01 0.280E+00   0.169E-02 -.561E-04 -.597E-03
   0.105E+03 0.130E+03 -.167E+03   -.105E+03 -.125E+03 0.166E+03   -.881E+00 -.400E+01 0.228E+01   0.520E-03 -.221E-03 -.145E-02
   -.445E+02 0.900E+01 -.615E+02   0.410E+02 -.601E+01 0.609E+02   0.195E+01 -.283E+01 0.125E+01   0.289E-03 0.746E-03 -.346E-02
   0.117E+03 -.239E+03 -.101E+03   -.119E+03 0.234E+03 0.101E+03   0.108E+01 0.593E+01 0.725E+00   -.913E-03 -.278E-02 0.124E-02
   0.237E+03 -.228E+03 0.178E+03   -.231E+03 0.223E+03 -.176E+03   -.573E+01 0.479E+01 -.310E+01   -.107E-02 0.876E-03 -.196E-02
   -.208E+03 -.824E+02 -.104E+02   0.203E+03 0.790E+02 0.748E+01   0.527E+01 0.213E+01 0.280E+01   -.417E-03 0.139E-02 -.640E-03
   0.187E+03 -.346E+02 -.188E+03   -.185E+03 0.288E+02 0.190E+03   -.707E+00 0.420E+01 0.133E-01   -.271E-02 0.163E-03 0.341E-03
   -.611E+02 -.196E+03 -.955E+02   0.638E+02 0.194E+03 0.945E+02   -.572E+00 0.108E+01 0.213E+01   -.120E-02 -.142E-02 -.369E-03
   0.139E+03 0.707E+02 0.956E+02   -.133E+03 -.692E+02 -.101E+03   -.608E+01 -.273E+01 0.271E+01   -.450E-03 0.491E-03 -.739E-03
   0.185E+03 0.687E+02 -.680E+02   -.187E+03 -.711E+02 0.673E+02   -.974E+00 -.885E+00 -.117E+01   0.475E-03 -.594E-03 -.151E-02
   -.657E+02 -.219E+02 0.103E+00   0.627E+02 0.223E+02 0.649E+00   0.334E+01 0.880E+00 -.183E+01   -.287E-03 0.810E-03 0.160E-02
   -.189E+03 0.185E+03 -.223E+02   0.186E+03 -.184E+03 0.219E+02   0.238E+01 -.161E+01 0.769E-01   -.195E-02 -.197E-03 -.704E-03
   0.203E+03 -.233E+03 0.207E+03   -.203E+03 0.226E+03 -.201E+03   -.118E+00 0.698E+01 -.605E+01   0.107E-03 -.817E-03 0.174E-02
   0.366E+02 -.506E+01 0.185E+02   -.369E+02 0.112E+01 -.176E+02   0.166E+00 0.370E+01 -.722E+00   -.196E-02 0.282E-02 0.383E-03
   -.116E+03 0.851E+02 -.512E+02   0.117E+03 -.813E+02 0.509E+02   -.104E+01 -.330E+01 -.273E+00   -.481E-03 -.724E-03 0.338E-03
   -.166E+03 0.233E+03 0.821E+02   0.169E+03 -.230E+03 -.790E+02   -.118E+01 -.499E+01 -.389E+01   0.257E-02 0.256E-03 0.350E-02
   0.392E+02 0.545E+02 0.305E+02   -.381E+02 -.580E+02 -.436E+02   -.162E+01 0.462E+00 0.540E+01   0.346E-03 0.122E-03 -.195E-03
   0.638E+01 0.109E+02 0.278E+02   -.409E+01 -.163E+02 -.306E+02   -.402E+01 0.907E+01 0.330E+01   -.570E-03 0.416E-03 0.398E-03
   0.385E+02 0.257E+02 0.762E+02   -.437E+02 -.196E+02 -.625E+02   0.343E+01 -.680E+01 -.170E+02   -.152E-04 0.398E-03 0.159E-03
   -.468E+02 -.192E+01 -.117E+02   0.384E+02 0.612E+01 0.229E+02   0.749E+01 -.778E+01 -.106E+02   0.798E-04 0.160E-03 -.143E-03
   0.345E+01 -.450E+02 0.460E+01   -.115E+02 0.517E+02 0.519E+01   0.364E+01 -.887E+01 -.122E+02   0.842E-03 0.388E-03 0.898E-03
   -.508E+02 -.385E+02 0.818E+01   0.442E+02 0.403E+02 -.127E+02   0.742E+01 -.283E+01 0.645E+01   0.322E-03 0.774E-03 -.333E-03
   -.366E+02 -.133E+03 -.119E+02   0.404E+02 0.121E+03 0.892E+01   -.496E+01 0.145E+02 0.449E+01   0.126E-03 -.296E-03 0.837E-03
   -.137E+03 -.176E+01 0.728E+01   0.131E+03 0.392E+01 -.101E+01   0.457E+01 -.645E+01 -.675E+01   -.827E-04 -.619E-03 -.762E-03
   0.797E+02 -.580E+02 -.525E+02   -.859E+02 0.585E+02 0.456E+02   0.645E+01 0.202E+00 0.984E+01   0.231E-03 -.158E-03 0.201E-03
   -.627E+02 0.284E+02 0.178E+01   0.684E+02 -.227E+02 -.829E+01   -.749E+01 -.727E+01 0.664E+01   -.261E-03 0.252E-03 -.273E-03
   0.575E+02 0.613E+02 -.251E+01   -.491E+02 -.490E+02 0.752E+01   -.937E+01 -.885E+01 -.622E+01   0.235E-03 0.494E-03 0.415E-03
   -.324E+02 -.662E+02 0.740E+02   0.269E+02 0.660E+02 -.746E+02   0.670E+01 0.193E+01 -.303E+01   0.161E-03 -.309E-03 0.196E-03
   -.152E+02 -.319E+02 0.390E+02   0.290E+02 0.293E+02 -.386E+02   -.106E+02 0.131E+01 0.206E+01   -.731E-03 0.232E-03 -.325E-03
   -.447E+02 -.400E+02 0.154E+02   0.382E+02 0.347E+02 -.237E+02   0.427E+01 0.489E+01 0.109E+02   0.349E-03 0.823E-03 -.303E-03
   -.143E+02 0.706E+02 0.683E+02   0.144E+02 -.678E+02 -.605E+02   -.411E+01 0.228E+01 -.129E+02   0.335E-03 0.486E-03 -.527E-03
   -.596E+02 -.461E+02 -.300E+02   0.535E+02 0.405E+02 0.288E+02   0.463E+01 0.672E+01 0.220E+01   -.562E-03 -.193E-03 -.481E-03
   -.482E+02 -.755E+01 0.655E+01   0.426E+02 0.492E+01 -.728E+01   0.838E+01 0.361E+00 0.701E+00   -.469E-03 0.312E-03 -.117E-03
   -.270E+01 -.234E+02 0.231E+02   0.125E+02 0.233E+02 -.223E+02   -.787E+01 0.213E+01 -.248E+01   0.420E-04 -.441E-03 0.362E-03
   -.399E+02 -.156E+02 -.662E+02   0.326E+02 0.199E+02 0.630E+02   0.137E+02 -.318E+01 0.580E+01   -.120E-03 -.327E-03 -.456E-03
   -.354E+02 -.439E+01 -.584E+02   0.285E+02 -.195E+01 0.664E+02   0.259E+01 0.845E+01 0.131E+01   0.127E-03 0.353E-03 0.335E-03
   -.801E+02 0.798E+02 -.171E+02   0.792E+02 -.825E+02 0.215E+02   -.908E-01 -.622E-01 -.325E+01   0.464E-03 0.300E-03 0.377E-03
   0.979E+02 0.201E+02 0.176E+02   -.951E+02 -.164E+02 -.101E+02   -.598E+01 -.885E+01 -.869E+01   -.697E-03 -.603E-03 0.743E-03
   0.279E+02 -.527E+01 0.238E+01   -.309E+02 0.114E+02 -.586E+01   0.301E+01 -.522E+01 0.575E+01   0.780E-04 -.318E-03 0.625E-04
   0.676E+02 -.697E+02 0.386E+02   -.646E+02 0.786E+02 -.365E+02   0.185E+00 -.286E+01 -.516E+01   0.552E-03 0.378E-03 -.431E-03
   -.410E+02 0.309E+02 -.544E+02   0.371E+02 -.249E+02 0.505E+02   0.719E+01 -.631E+01 0.138E+01   0.832E-04 -.351E-03 0.103E-03
   0.514E+02 -.493E+02 -.399E+01   -.520E+02 0.569E+02 0.240E+01   -.261E+01 -.959E+01 -.280E+01   -.420E-03 0.253E-03 -.324E-03
   -.103E+02 0.393E+02 0.141E+02   0.675E+01 -.521E+02 -.200E+02   0.445E+01 0.120E+02 0.534E+01   0.214E-03 -.456E-03 0.479E-03
   0.103E+03 0.903E+02 0.310E+02   -.105E+03 -.116E+03 -.231E+02   0.294E+01 0.253E+02 -.877E+01   0.579E-03 -.147E-02 0.960E-03
   0.652E+02 0.402E+02 0.701E+02   -.876E+02 -.628E+02 -.751E+02   0.241E+02 0.206E+02 0.509E+01   -.524E-03 -.341E-03 0.587E-05
   0.864E+02 -.189E+03 -.906E+02   -.855E+02 0.207E+03 0.116E+03   -.854E+00 -.152E+02 -.229E+02   -.399E-04 0.294E-03 0.737E-03
   -.714E+02 0.889E+02 0.175E+02   0.808E+02 -.951E+02 -.182E+02   -.776E+01 0.658E+01 0.244E+01   0.383E-03 0.150E-02 -.787E-03
   0.142E+03 -.174E+03 -.728E+02   -.141E+03 0.179E+03 0.846E+02   -.266E+01 -.353E+01 -.997E+01   0.716E-03 0.834E-04 0.425E-03
   0.154E+03 -.442E+02 0.143E+02   -.173E+03 0.386E+02 -.322E+02   0.204E+02 0.719E+01 0.197E+02   -.275E-03 0.332E-04 -.912E-03
[...]
   0.196E+03 -.103E+03 -.112E+02   -.227E+03 0.104E+03 0.190E+02   0.302E+02 -.776E+00 -.835E+01   0.391E-03 -.131E-03 0.476E-03
   -.697E+02 0.626E+02 -.975E+02   0.727E+02 -.788E+02 0.115E+03   -.312E+01 0.168E+02 -.186E+02   -.147E-03 -.273E-03 -.124E-02
   -.984E+02 0.947E+02 -.689E+02   0.103E+03 -.919E+02 0.918E+02   -.395E+01 -.371E+01 -.266E+02   -.300E-03 0.952E-03 0.701E-03
   0.228E+02 -.246E+02 -.471E+02   -.318E+02 0.341E+02 0.700E+02   0.988E+01 -.578E+01 -.229E+02   -.869E-03 0.731E-03 -.149E-04
   0.432E+01 -.177E+03 0.601E+02   0.593E+01 0.191E+03 -.865E+02   -.863E+01 -.131E+02 0.251E+02   0.112E-02 0.313E-02 -.210E-03
   -.555E+02 -.295E+01 0.291E+02   0.482E+02 -.172E+02 -.424E+02   0.807E+01 0.226E+02 0.137E+02   -.109E-02 0.709E-04 -.817E-03
   0.810E+01 -.120E+03 -.170E+03   0.337E+01 0.142E+03 0.199E+03   -.119E+02 -.183E+02 -.290E+02   0.183E-02 0.137E-02 0.377E-02
   -.481E+02 -.213E+03 0.144E+03   0.512E+02 0.230E+03 -.161E+03   -.439E+01 -.178E+02 0.163E+02   -.119E-03 -.768E-03 0.893E-03
   0.542E+02 -.109E+03 0.627E+02   -.490E+02 0.132E+03 -.797E+02   -.468E+01 -.219E+02 0.183E+02   0.281E-03 0.625E-03 -.223E-03
   -.161E+03 -.828E+02 0.396E+02   0.186E+03 0.926E+02 -.364E+02   -.283E+02 -.920E+01 -.364E+01   -.168E-03 -.675E-03 0.100E-02
   0.825E+02 0.496E+02 -.727E+01   -.735E+02 -.386E+02 -.603E+01   -.123E+02 -.140E+02 0.141E+02   0.182E-03 -.267E-03 0.605E-03
   -.989E+02 0.144E+03 -.570E+02   0.115E+03 -.177E+03 0.580E+02   -.147E+02 0.312E+02 -.276E+01   0.620E-03 -.711E-03 -.102E-03
   0.136E+03 0.612E+02 0.492E+01   -.159E+03 -.716E+02 0.166E+00   0.252E+02 0.126E+02 -.627E+01   -.274E-03 -.602E-04 0.997E-03
   0.121E+03 0.550E+02 0.553E+02   -.143E+03 -.549E+02 -.662E+02   0.226E+02 -.161E-01 0.121E+02   0.344E-04 -.107E-03 -.374E-03
   -.931E+02 -.343E+02 0.912E+02   0.284E-12 -.178E-12 -.341E-12   0.931E+02 0.344E+02 -.912E+02   -.105E-01 0.109E-01 0.526E-02

 POSITION                                       TOTAL-FORCE (eV/Angst)
      4.90849      7.26450      1.99309        -0.539312     -0.737602     -0.317432
     12.20124      1.80455      9.88326        -0.792693     -0.136077     -0.153873
      8.71016      3.00225      0.73159        -0.794718     -0.573878     -0.729487
      1.44363      3.33929      6.85677        -0.750512      0.246840      0.873057
      2.87543      9.67930     11.66741         0.448137     -1.143495      1.666388
      1.07689     11.52971      9.35751         2.550786      2.070162     -1.555585
      3.20342     12.77370      3.68043         0.328424     -0.085341      0.784852
      5.80462      2.68505     12.06699         2.451716     -0.038385      0.791852
      9.47249      1.52056      3.39060         0.664438      0.146811     -1.065695
     11.19918      9.60537      9.47927        -1.500880     -0.577727      1.387895
      6.22313      5.69634      9.33225         0.584711      0.244540     -0.302607
      7.53942     12.27563     12.51604         0.029063     -0.156962     -1.194046
      3.11179     13.15227     12.51228        -0.347456      1.365075      0.886279
      2.85624      4.45861     11.19417        -1.556008      0.154646      0.597046
      7.28763      7.16586      4.74533        -0.436963      1.272449      1.275128
      6.90171      1.29249      8.54657         0.638865      0.478947     -0.719300
     11.96032      7.22345     12.35833         0.163769     -1.269965     -0.073853
      8.81835      4.51293      5.38675         0.762265     -1.553788      1.360399
     11.93701     10.66942      3.62696         2.119266     -0.658659      1.157364
      9.77285      4.91743     11.28630        -0.099279     -1.132387     -2.897925
      9.82390      9.58976      0.75630        -3.035612     -3.279922     -1.943976
     12.45437      6.21952      5.17123         0.304472      1.351071     -1.078400
     12.93689      1.32668      0.77691        -0.473422     -0.478463     -0.348983
     10.35194      9.73477      6.33568        -0.030704      0.070157      0.553774
      7.16643      0.14953      5.58817        -0.108577     -0.234757      0.162545
      4.63089      9.80121      6.84651         0.128843      0.484780     -0.553698
      2.31124      4.84887      2.97131         1.401476     -1.158208     -0.710460
      5.96953     10.41917      1.34635        -0.465613     -2.997070     -7.707160
     10.28545      1.64484      6.67849        -1.730638      3.733927      0.475835
     11.36765      4.46494      7.80810        -1.779504     -0.753473     -3.246232
      0.18104      6.40874      8.56518        -0.949011     -3.585450      0.612599
      4.14169      2.09919      1.45500        -4.394645     -2.140250     -2.395260
      1.77792      1.04523      8.80473         0.800133     -1.009400      1.976623
      2.03649      7.57858      3.83567        -1.155540      1.811797      1.540358
      3.05235      7.04244      9.11007        -1.454478     -4.297843     -0.485838
      6.73948      5.48050     12.68285         0.311389      0.740933      2.897132
     12.83093      4.04125     12.73761        -1.759769     -1.508442      0.127024
      6.40349      0.43278      2.13420        -1.006481      3.460487     -1.212082
     13.17708     10.01334      7.12567         1.193776      1.725192     -3.671785
      0.74941      8.24153      1.12419         3.156428     -1.246492      2.453644
      3.95706     12.94457      6.98468        -2.203198     -0.364732      2.532484
      4.81858      0.04462     10.24923        -4.018502      5.168489     -5.102141
     13.28951     10.59026     12.36817        -1.471084      1.205278      1.044743
     11.40278      4.10891      2.48947         2.693138     -2.265799     -0.033095
      1.64859      7.97967      6.71865         1.899677      2.097940     -1.658824
     10.68379     12.10411      0.52153         6.422103      1.133580      2.631967
      5.89850     10.81268      3.57618        -4.251809      2.110015      9.284682
      0.37749      2.26483      3.59823        -0.991075     -2.729397      1.124534
      7.42141      5.19756      2.99710        -3.228541     -5.183571     -1.192934
      7.60291      7.97499      7.75394         0.032792      0.923625      2.267341
      8.41922      7.65254     11.15657         3.166218      6.047514     -2.973608
      9.49738      1.24180     10.93746         3.370579     -0.337991     -2.514198
     11.25507      7.10283      2.51962        -3.211101     -1.958732     -4.386364
      9.44298     12.92028      8.73152         0.867786     -0.790672     -0.496632
      9.68761     11.34145      9.02220         1.070916     -0.037907     -0.835305
      3.15237     11.59112      6.79303         1.666837     -1.961890      0.084619
     11.33031      8.03708      3.74925         0.023930      2.558300      2.448042
      4.89554     12.97100      8.44887         1.659337      0.373299      1.779803
      7.61277      6.75453     12.18738        -1.078964      1.701301      1.850977
     10.15210      7.19970      1.20627         1.702520      1.647445      1.854024
[...]
      1.31947      6.21777      4.16615        -4.429463     -2.233637      2.091450
      5.17540      5.54282     13.02225        -0.113554      0.094356     -0.569340
      1.60605      6.13998      9.37869        -0.153291      0.659015     -1.022413
      6.44149     11.34537      5.13379         0.450108     -0.895252     -3.697868
     11.22392      5.46999      3.22146         0.842532      3.744975      0.051703
      4.52232      0.24403      5.66337         1.632858      1.114669     -1.319119
     12.68703      9.24274     11.59825         0.824740      2.470495      0.390110
      4.42047      3.13090      2.54377        -0.387056      3.504622      0.513249
     12.99145     10.95397      5.73968        -1.297339     -0.882369      0.178470
     10.08921      2.53035     10.16449         0.499902      1.171059      1.326174
      2.61256      8.17921      5.29789        -3.052384      0.652702     -0.351149
      7.08660      1.45636      0.87886        -3.319016     -3.020665      0.765847
      6.39297      9.53078      2.79359         0.929838     -1.919036     -1.696930
      4.24624     10.41260      3.89841         2.179971      2.203277     -1.191359
      4.48700     10.44724      0.54509         1.114752      0.009497      1.203739
    total drift:                               -0.027020      0.023916     -0.015953

  FREE ENERGIE OF THE ION-ELECTRON SYSTEM (eV)
  free  energy   TOTEN  =      -923.68209912 eV

  energy  without entropy=     -923.68185848  energy(sigma->0) =     -923.68197880