 vasp.5.4.4.18Apr17-6-g9f103f2a35 (build Oct 31 2019 15:01:46) complex

 executed on             LinuxIFC date 2024.04.19  17:37:36

 INCAR:
 POTCAR:    PAW_PBE Sc_sv 07Sep2000
 POTCAR:    PAW_PBE F 08Apr2002
 POTCAR:    PAW_PBE C 08Apr2002
 POTCAR:    PAW_PBE Sc_sv 07Sep2000
   VRHFIN =Sc: 3p4s3d

   TITEL  = PAW_PBE Sc_sv 07Sep2000
   POMASS =   44.956; ZVAL   =   11.000    mass and valenz
   ENMAX  =  222.660; ENMIN  =  166.995 eV

 POTCAR:    PAW_PBE F 08Apr2002
   VRHFIN =F: s2p5

   TITEL  = PAW_PBE F 08Apr2002
   POMASS =   18.998; ZVAL   =    7.000    mass and valenz
   ENMAX  =  400.000; ENMIN  =  300.000 eV

 POTCAR:    PAW_PBE C 08Apr2002
   VRHFIN =C: s2p2

   TITEL  = PAW_PBE C 08Apr2002
   POMASS =   12.011; ZVAL   =    4.000    mass and valenz
   ENMAX  =  400.000; ENMIN  =  300.000 eV

 Optimization of the real space projectors (new method)

 maximal supplied QI-value         = 15.12
 optimisation between [QCUT,QGAM] = [ 12.55, 25.10] = [ 44.09,176.36] Ry
 Optimized for a Real-space Cutoff    1.56 Angstroem

   l    n(q)    QCUT    max X(q) W(low)/X(q) W(high)/X(q)  e(spline)
   0     12    12.548     2.962    0.12E-05    0.11E-06    0.46E-07
   0     12    12.548    26.414    0.30E-04    0.15E-05    0.76E-07
   1     11    12.548     3.969    0.45E-05    0.12E-05    0.60E-07
   1     11    12.548     5.137    0.15E-04    0.18E-04    0.36E-06
   2     11    12.548   143.970    0.20E-03    0.19E-03    0.76E-06
   2     11    12.548   121.201    0.20E-03    0.19E-03    0.76E-06
 Optimization of the real space projectors (new method)

[...]

   l    n(q)    QCUT    max X(q) W(low)/X(q) W(high)/X(q)  e(spline)
   0      9    12.378    14.049    0.11E-03    0.38E-05    0.23E-06
   0      9    12.378     8.945    0.15E-03    0.56E-05    0.30E-06
   1      8    12.378     7.086    0.18E-03    0.14E-03    0.29E-06
   1      8    12.378     6.747    0.16E-03    0.13E-03    0.26E-06
 Optimization of the real space projectors (new method)

 maximal supplied QI-value         = 25.13
 optimisation between [QCUT,QGAM] = [ 12.32, 24.88] = [ 42.47,173.37] Ry
 Optimized for a Real-space Cutoff    1.16 Angstroem

   l    n(q)    QCUT    max X(q) W(low)/X(q) W(high)/X(q)  e(spline)
   0      9    12.315   115.676    0.19E-03    0.80E-05    0.34E-06
   0      9    12.315    87.132    0.19E-03    0.82E-05    0.34E-06
   1      8    12.315     4.429    0.18E-03    0.13E-03    0.22E-06
   1      8    12.315     2.733    0.14E-03    0.10E-03    0.18E-06
  PAW_PBE Sc_sv 07Sep2000               :
  PAW_PBE F 08Apr2002                   :
  PAW_PBE C 08Apr2002                   :

 POSCAR: Sc  F  C
  positions in cartesian coordinates
 exchange correlation table for  LEXCH =        8
   RHO(1)=    0.500       N(1)  =     2000
   RHO(2)=  100.500       N(2)  =     4000

 ion  position               nearest neighbor table
   1  0.081  0.171  0.448-  50 2.14  61 2.18  49 2.24  66 2.34  70 2.36  65 2.39   2 3.14  18 3.23
                            17 3.29  16 3.32  13 3.32   4 3.33  29 3.33   5 3.37   6 3.37
   2  0.079  0.408  0.454-  66 2.15  71 2.19  62 2.29  67 2.30  50 2.30  51 2.46  19 2.96  30 3.05
                             1 3.14  18 3.16  13 3.23   6 3.34  14 3.37   3 3.39   7 3.43
   3  0.076  0.665  0.451-  63 2.18  52 2.19  67 2.28  68 2.34  72 2.34  51 2.34  19 3.06  20 3.19
                            31 3.21  15 3.26   7 3.27   4 3.27  14 3.28   8 3.36   2 3.39
   4  0.086  0.920  0.452-  52 2.13  49 2.17  64 2.24  69 2.26  68 2.36  65 2.40  17 3.08  20 3.25
                             3 3.27   5 3.28   8 3.30  15 3.30  16 3.32   1 3.33  32 3.34
   5  0.336  0.168  0.447-  53 2.02  54 2.06  49 2.18  74 2.30  70 2.35  69 2.43  22 3.18  17 3.20
                             9 3.22  10 3.27   4 3.28  21 3.29   8 3.30   6 3.34   1 3.37
   6  0.341  0.424  0.453-  55 2.04  75 2.18  70 2.25  71 2.28  54 2.28  50 2.48  22 3.12  23 3.13
                            11 3.14  18 3.21  10 3.23   5 3.34   2 3.34   1 3.37   7 3.39
   7  0.331  0.677  0.446-  51 1.94  56 2.12  72 2.27  55 2.32  71 2.44  76 2.50  19 3.12   8 3.13
                            24 3.24   3 3.27  12 3.30  11 3.38   6 3.39  23 3.40   2 3.43
   8  0.336  0.917  0.454-  72 2.15  73 2.19  69 2.23  52 2.24  53 2.28  56 2.36  20 3.06  24 3.12
                             7 3.13  21 3.19   9 3.20   5 3.30   4 3.30   3 3.36  12 3.39
   9  0.578  0.162  0.456-  74 2.12  73 2.20  57 2.21  53 2.24  58 2.26  78 2.33  21 3.05  26 3.09
                            25 3.10   8 3.20   5 3.22  13 3.24  14 3.29  10 3.33  12 3.35
  10  0.584  0.418  0.452-  58 2.08  54 2.20  74 2.29  75 2.29  79 2.33  59 2.35  22 3.09  26 3.15
                            14 3.19   6 3.23  11 3.24  27 3.25   5 3.27  15 3.29   9 3.33
  11  0.580  0.663  0.455-  59 2.14  75 2.19  60 2.19  55 2.22  76 2.29  80 2.30  23 3.11   6 3.14
                            27 3.20  12 3.22  10 3.24  15 3.24  28 3.27  16 3.31   7 3.38
  12  0.593  0.915  0.455-  60 2.21  77 2.23  57 2.25  56 2.29  76 2.31  73 2.38  16 3.12  28 3.13
                            25 3.20  24 3.20  13 3.21  11 3.22   7 3.30   9 3.35   8 3.39
  13  0.827  0.168  0.455-  61 2.17  62 2.20  78 2.23  57 2.23  77 2.24  66 2.35  30 3.07  25 3.12
                            12 3.21   2 3.23   9 3.24  14 3.27  29 3.28   1 3.32  16 3.33
  14  0.826  0.416  0.451-  62 2.14  58 2.23  63 2.24  67 2.27  79 2.28  78 2.39  26 3.07  10 3.19
                            30 3.20  31 3.27  13 3.27   3 3.28   9 3.29  15 3.33   2 3.37
  15  0.831  0.672  0.458-  80 2.14  59 2.24  64 2.25  68 2.26  79 2.31  63 2.39  27 3.11  32 3.15
                            31 3.15  16 3.21  11 3.24   3 3.26  10 3.29   4 3.30  14 3.33
  16  0.831  0.916  0.456-  61 2.19  60 2.22  80 2.25  77 2.25  64 2.25  65 2.29  12 3.12  29 3.15
                            28 3.17  15 3.21  32 3.24  11 3.31   1 3.32   4 3.32  13 3.33
  17  0.172  0.081  0.544-  69 2.20  37 2.23  36 2.24  65 2.25  33 2.35  70 2.36   4 3.08   5 3.20
                            21 3.23  22 3.27   1 3.29  18 3.30  20 3.30  32 3.32  29 3.34
  18  0.168  0.330  0.548-  38 2.14  33 2.25  66 2.26  70 2.27  34 2.28  71 2.36   2 3.16   6 3.21
                             1 3.23  29 3.28  22 3.29  19 3.30  17 3.30  23 3.31  30 3.32
  19  0.163  0.577  0.538-  71 2.13  67 2.22  39 2.23  34 2.29  72 2.32  35 2.37   2 2.96   3 3.06
                             7 3.12  30 3.22  20 3.25  18 3.30  31 3.30  23 3.31  24 3.33
  20  0.177  0.832  0.546-  72 2.15  36 2.18  40 2.23  69 2.23  35 2.27  68 2.34   8 3.06  24 3.12
                             3 3.19   4 3.25  19 3.25  21 3.30  17 3.30  31 3.35
  21  0.422  0.089  0.548-  40 2.20  37 2.23  74 2.27  73 2.28  41 2.28  69 2.36   9 3.05   8 3.19
                            25 3.20  22 3.20  17 3.23  26 3.25   5 3.29  20 3.30  24 3.32
  22  0.419  0.331  0.544-  42 2.10  37 2.10  38 2.16  70 2.27  75 2.28  74 2.30  10 3.09   6 3.12
                             5 3.18  21 3.20  17 3.27  26 3.29  18 3.29  27 3.30  23 3.34
  23  0.417  0.585  0.548-  76 2.19  75 2.28  43 2.28  39 2.37  38 2.37  71 2.41  11 3.11   6 3.13
                            24 3.26  28 3.31  19 3.31  27 3.31  18 3.31  22 3.34   7 3.40
  24  0.415  0.832  0.547-  39 2.10  40 2.16  76 2.26  73 2.29  72 2.30  44 2.31  20 3.12   8 3.12
                            12 3.20   7 3.24  23 3.26  28 3.29  25 3.32  21 3.32  19 3.33
  25  0.665  0.087  0.549-  41 2.10  78 2.18  44 2.23  77 2.32  73 2.33  45 2.37   9 3.10  13 3.12
                            21 3.20  12 3.20  26 3.21  30 3.27  28 3.31  24 3.32  29 3.37
  26  0.672  0.335  0.545-  46 2.08  78 2.17  79 2.18  74 2.32  41 2.34  42 2.36  14 3.07   9 3.09
                            10 3.15  25 3.21  30 3.23  31 3.23  21 3.25  22 3.29  27 3.30
  27  0.669  0.584  0.551-  42 2.12  43 2.25  79 2.30  80 2.31  47 2.32  75 2.38  15 3.11  11 3.20
                            31 3.25  10 3.25  32 3.25  26 3.30  22 3.30  23 3.31  28 3.33
  28  0.668  0.837  0.552-  44 2.17  48 2.23  43 2.26  76 2.28  77 2.34  80 2.38  12 3.13  16 3.17
                            29 3.23  11 3.27  32 3.29  24 3.29  25 3.31  23 3.31  27 3.33
  29  0.918  0.080  0.551-  33 2.12  45 2.13  65 2.18  77 2.29  48 2.34  66 2.40  16 3.15  28 3.23
                            32 3.24  18 3.28  13 3.28   1 3.33  17 3.34  30 3.34  25 3.37
  30  0.917  0.334  0.545-  66 2.20  78 2.21  46 2.22  67 2.25  34 2.25  45 2.27   2 3.05  13 3.07
                            14 3.20  19 3.22  26 3.23  25 3.27  31 3.29  18 3.32  29 3.34
  31  0.915  0.583  0.550-  35 2.12  47 2.16  79 2.26  68 2.28  46 2.30  67 2.33  15 3.15   3 3.21
                            26 3.23  27 3.25  32 3.27  14 3.27  30 3.29  19 3.30  20 3.35
  32  0.916  0.832  0.553-  48 2.10  47 2.17  36 2.22  68 2.29  80 2.34  65 2.39  15 3.15  16 3.24
                            29 3.24  27 3.25  31 3.27  28 3.29  17 3.32   4 3.34
  33  0.078  0.161  0.591-  29 2.12  18 2.25  17 2.35
  34  0.084  0.419  0.590-  30 2.25  18 2.28  19 2.29
  35  0.077  0.660  0.589-  31 2.12  20 2.27  19 2.37
  36  0.093  0.913  0.588-  20 2.18  32 2.22  17 2.24
  37  0.339  0.178  0.588-  22 2.10  21 2.23  17 2.23
  38  0.330  0.399  0.588-  18 2.14  22 2.16  23 2.37
  39  0.320  0.674  0.587-  24 2.10  19 2.23  23 2.37
  40  0.343  0.922  0.590-  24 2.16  21 2.20  20 2.23
  41  0.591  0.165  0.594-  25 2.10  21 2.28  26 2.34
  42  0.573  0.418  0.586-  22 2.10  27 2.12  26 2.36
  43  0.584  0.667  0.595-  27 2.25  28 2.26  23 2.28
  44  0.587  0.921  0.592-  28 2.17  25 2.23  24 2.31
  45  0.846  0.168  0.592-  29 2.13  30 2.27  25 2.37
  46  0.822  0.403  0.588-  26 2.08  30 2.22  31 2.30
  47  0.844  0.669  0.595-  31 2.16  32 2.17  27 2.32
  48  0.833  0.904  0.596-  32 2.10  28 2.23  29 2.34
  49  0.167  0.081  0.409-   4 2.17   5 2.18   1 2.24
  50  0.158  0.325  0.403-   1 2.14   2 2.30   6 2.48
  51  0.185  0.596  0.409-   7 1.94   3 2.34   2 2.46
  52  0.165  0.835  0.413-   4 2.13   3 2.19   8 2.24
  53  0.412  0.089  0.410-   5 2.02   9 2.24   8 2.28
  54  0.417  0.327  0.410-   5 2.06  10 2.20   6 2.28
  55  0.415  0.574  0.411-   6 2.04  11 2.22   7 2.32
  56  0.428  0.835  0.406-   7 2.12  12 2.29   8 2.36
  57  0.661  0.082  0.411-   9 2.21  13 2.23  12 2.25
  58  0.652  0.331  0.412-  10 2.08  14 2.23   9 2.26
  59  0.670  0.599  0.409-  11 2.14  15 2.24  10 2.35
  60  0.668  0.826  0.411-  11 2.19  12 2.21  16 2.22
  61  0.907  0.081  0.414-  13 2.17   1 2.18  16 2.19
  62  0.905  0.332  0.411-  14 2.14  13 2.20   2 2.29
  63  0.915  0.583  0.407-   3 2.18  14 2.24  15 2.39
  64  0.915  0.834  0.410-   4 2.24  15 2.25  16 2.25
  65  0.999  0.006  0.503-  29 2.18  17 2.25  16 2.29   1 2.39  32 2.39   4 2.40
  66  0.003  0.255  0.501-   2 2.15  30 2.20  18 2.26   1 2.34  13 2.35  29 2.40
  67  0.992  0.497  0.497-  19 2.22  30 2.25  14 2.27   3 2.28   2 2.30  31 2.33
  68  0.998  0.752  0.503-  15 2.26  31 2.28  32 2.29  20 2.34   3 2.34   4 2.36
  69  0.249  0.994  0.500-  17 2.20  20 2.23   8 2.23   4 2.26  21 2.36   5 2.43
  70  0.253  0.256  0.497-   6 2.25  22 2.27  18 2.27   5 2.35   1 2.36  17 2.36
  71  0.243  0.498  0.496-  19 2.13   2 2.19   6 2.28  18 2.36  23 2.41   7 2.44
[...]
     0.000000000  0.000000000 26.828094240     0.000000000  0.000000000  0.037274358

  length of vectors
    13.128623400 13.128623399 26.828094240     0.087952903  0.087952903  0.037274358

 FORCES acting on ions
    electron-ion (+dipol)            ewald-force                    non-local-force                 convergence-correction
   -.104E+02 0.200E+02 0.135E+04   0.109E+02 -.189E+02 -.134E+04   -.864E-01 -.124E+01 -.562E+01   -.188E-05 -.543E-05 -.631E-04
   -.744E+01 -.301E+02 0.129E+04   0.800E+01 0.300E+02 -.129E+04   -.500E+00 0.405E+00 -.710E+01   -.335E-04 0.361E-04 -.679E-04
   0.634E+01 0.300E+02 0.132E+04   -.740E+01 -.298E+02 -.131E+04   0.798E+00 0.348E-01 -.598E+01   -.252E-05 0.614E-05 -.353E-04
   0.560E+02 0.112E+02 0.126E+04   -.561E+02 -.119E+02 -.125E+04   -.389E+00 0.898E-01 -.552E+01   0.118E-05 -.493E-04 -.690E-04
   0.713E+02 0.211E+02 0.134E+04   -.715E+02 -.206E+02 -.134E+04   -.516E+00 -.534E+00 -.472E+01   0.412E-04 -.142E-04 -.486E-04
   0.659E+02 0.474E+02 0.125E+04   -.672E+02 -.480E+02 -.124E+04   0.403E+00 -.680E+00 -.620E+01   -.243E-04 0.138E-04 -.535E-04
   -.799E+02 0.561E+01 0.137E+04   0.794E+02 -.631E+01 -.136E+04   0.204E+01 0.239E+00 -.447E+01   0.317E-04 -.233E-05 -.156E-04
   -.253E+02 0.511E+01 0.128E+04   0.244E+02 -.479E+01 -.127E+04   0.588E+00 0.139E+00 -.711E+01   -.220E-04 -.474E-05 -.877E-04
   -.446E+02 0.135E+02 0.122E+04   0.445E+02 -.140E+02 -.122E+04   0.517E+00 0.468E+00 -.614E+01   0.146E-04 0.613E-05 -.100E-03
   0.400E+01 -.802E+02 0.128E+04   -.374E+01 0.793E+02 -.127E+04   -.309E+00 0.110E+01 -.566E+01   0.256E-04 -.350E-05 -.908E-04
   0.294E+02 -.211E+02 0.118E+04   -.284E+02 0.214E+02 -.118E+04   -.704E+00 0.379E+00 -.520E+01   0.101E-04 0.179E-04 -.118E-03
   0.171E+02 0.126E+02 0.121E+04   -.182E+02 -.122E+02 -.120E+04   -.269E-01 -.211E+00 -.575E+01   0.189E-04 0.184E-04 -.978E-04
   -.210E+02 0.158E+01 0.123E+04   0.215E+02 -.185E+01 -.123E+04   -.237E-01 0.879E-01 -.582E+01   -.485E-04 0.834E-05 -.111E-03
   -.160E+01 -.309E+02 0.134E+04   0.339E+01 0.321E+02 -.133E+04   -.116E+01 -.638E+00 -.580E+01   0.303E-04 -.299E-04 -.600E-04
   -.435E+02 0.176E+02 0.115E+04   0.437E+02 -.168E+02 -.115E+04   0.371E+00 -.714E+00 -.591E+01   0.272E-05 0.625E-05 -.903E-04
   -.313E+02 -.709E+01 0.117E+04   0.323E+02 0.730E+01 -.117E+04   -.275E+00 -.860E-01 -.573E+01   -.611E-05 -.128E-04 -.957E-04
   0.343E+02 -.171E+02 -.118E+04   -.352E+02 0.168E+02 0.118E+04   0.199E+00 0.676E+00 0.620E+01   0.342E-04 0.204E-04 0.961E-04
   0.112E+02 -.145E+02 -.127E+04   -.113E+02 0.144E+02 0.127E+04   -.122E+00 0.159E+00 0.548E+01   0.215E-04 0.434E-04 0.887E-04
   -.101E+02 -.130E+01 -.104E+04   0.103E+02 0.107E+01 0.104E+04   -.443E+00 0.676E+00 0.525E+01   -.138E-04 0.620E-06 0.703E-04
   0.168E+02 0.259E+02 -.126E+04   -.194E+02 -.256E+02 0.125E+04   0.927E+00 -.276E+00 0.589E+01   0.143E-04 -.197E-04 0.992E-04
   0.272E+02 -.411E+01 -.132E+04   -.274E+02 0.300E+01 0.131E+04   -.143E+00 0.538E+00 0.613E+01   -.214E-04 0.199E-04 0.116E-03
   0.196E+02 -.634E+01 -.114E+04   -.209E+02 0.642E+01 0.114E+04   0.464E+00 -.394E-01 0.451E+01   0.961E-05 -.485E-04 0.121E-03
   0.517E+02 0.163E+02 -.132E+04   -.516E+02 -.156E+02 0.132E+04   -.638E+00 -.768E+00 0.704E+01   -.491E-04 -.269E-04 0.809E-04
   -.500E+02 0.165E+02 -.125E+04   0.504E+02 -.168E+02 0.124E+04   0.113E+00 0.409E+00 0.526E+01   -.346E-04 -.188E-04 0.945E-04
   -.466E+02 0.340E+02 -.129E+04   0.469E+02 -.341E+02 0.129E+04   0.539E+00 -.396E+00 0.532E+01   -.690E-05 0.214E-04 0.780E-04
   0.591E+02 -.235E+01 -.122E+04   -.581E+02 0.249E+01 0.122E+04   -.173E+01 -.452E+00 0.591E+01   0.224E-04 0.829E-06 0.110E-03
   0.399E+01 -.272E+02 -.135E+04   -.464E+01 0.269E+02 0.134E+04   0.265E+00 0.392E+00 0.605E+01   0.979E-05 -.270E-04 0.829E-04
   0.358E+01 0.137E+02 -.135E+04   -.413E+01 -.144E+02 0.134E+04   0.480E+00 0.157E+00 0.561E+01   -.231E-05 0.199E-04 0.584E-04
   -.613E+01 0.178E+02 -.132E+04   0.662E+01 -.159E+02 0.131E+04   -.417E+00 -.117E+01 0.541E+01   -.128E-04 -.189E-04 0.667E-04
   -.278E+02 -.189E+02 -.121E+04   0.285E+02 0.186E+02 0.121E+04   -.389E+00 0.249E+00 0.546E+01   -.535E-04 0.544E-04 0.955E-04
   -.183E+02 0.227E+02 -.130E+04   0.193E+02 -.213E+02 0.129E+04   -.348E+00 -.122E+01 0.535E+01   0.586E-04 -.430E-04 0.629E-04
   -.230E+02 -.290E+02 -.136E+04   0.241E+02 0.292E+02 0.136E+04   -.144E+00 0.154E+00 0.531E+01   0.220E-04 0.170E-04 0.391E-04
   -.413E+02 -.934E+01 -.159E+04   0.443E+02 0.942E+01 0.160E+04   -.257E+01 0.252E+00 -.161E+02   0.194E-05 -.125E-05 -.659E-05
   -.175E+02 -.234E+02 -.159E+04   0.174E+02 0.246E+02 0.160E+04   0.180E+00 -.108E+01 -.168E+02   -.511E-05 0.869E-05 0.302E-05
   -.438E+02 0.496E+01 -.158E+04   0.474E+02 -.485E+01 0.159E+04   -.317E+01 0.549E-01 -.163E+02   0.303E-05 -.214E-05 0.408E-05
   -.653E+01 -.213E+02 -.155E+04   0.747E+01 0.214E+02 0.157E+04   -.131E+01 0.274E+00 -.140E+02   0.760E-05 -.587E-06 0.448E-05
   0.149E+02 0.268E+02 -.158E+04   -.166E+02 -.273E+02 0.159E+04   0.193E+01 -.143E+00 -.171E+02   -.209E-05 0.482E-05 0.252E-04
   0.226E+02 -.429E+02 -.157E+04   -.212E+02 0.437E+02 0.158E+04   -.147E+01 -.312E-01 -.158E+02   -.526E-05 -.134E-05 0.755E-05
   -.108E+02 0.541E+02 -.155E+04   0.890E+01 -.572E+02 0.157E+04   0.240E+01 0.259E+01 -.160E+02   -.497E-05 0.305E-05 0.238E-05
   0.179E+02 -.262E+01 -.160E+04   -.183E+02 0.353E+01 0.162E+04   0.213E+00 -.102E+01 -.167E+02   -.321E-05 -.944E-05 0.163E-04
   0.309E+02 -.233E+02 -.164E+04   -.320E+02 0.258E+02 0.166E+04   0.446E+00 -.239E+01 -.181E+02   -.131E-05 0.663E-05 0.183E-04
   -.232E+02 0.132E+02 -.156E+04   0.247E+02 -.153E+02 0.158E+04   -.871E+00 0.203E+01 -.156E+02   0.311E-05 -.572E-05 0.208E-04
   0.305E+02 0.179E+02 -.162E+04   -.311E+02 -.180E+02 0.164E+04   0.568E+00 0.453E-01 -.165E+02   -.254E-05 -.361E-05 -.800E-05
   0.143E+02 0.130E+02 -.160E+04   -.165E+02 -.124E+02 0.162E+04   0.206E+01 -.676E+00 -.164E+02   -.360E-05 -.647E-06 -.436E-05
   0.144E+02 -.119E+02 -.160E+04   -.161E+02 0.137E+02 0.161E+04   0.114E+01 -.177E+01 -.160E+02   -.192E-05 0.398E-07 -.765E-05
   -.237E+02 -.237E+02 -.159E+04   0.259E+02 0.237E+02 0.161E+04   -.188E+01 0.558E+00 -.167E+02   0.756E-05 0.115E-06 0.138E-04
   0.831E+01 0.216E+02 -.164E+04   -.831E+01 -.222E+02 0.165E+04   -.573E+00 0.369E+00 -.174E+02   -.294E-05 -.806E-05 -.766E-05
   0.144E+02 -.259E+02 -.164E+04   -.158E+02 0.273E+02 0.166E+04   0.935E+00 -.104E+01 -.177E+02   -.231E-05 0.929E-05 -.237E-04
   0.324E+02 0.523E+01 0.158E+04   -.332E+02 -.477E+01 -.160E+04   0.591E+00 -.438E+00 0.156E+02   -.309E-05 -.493E-05 0.109E-04
   -.552E+01 -.363E+02 0.164E+04   0.756E+01 0.405E+02 -.166E+04   -.221E+01 -.401E+01 0.169E+02   -.370E-05 -.438E-05 0.362E-05
   0.631E+02 0.685E+02 0.160E+04   -.688E+02 -.749E+02 -.162E+04   0.421E+01 0.577E+01 0.153E+02   -.756E-05 -.137E-05 0.176E-04
   -.642E+01 0.919E+01 0.156E+04   0.848E+01 -.900E+01 -.158E+04   -.207E+01 -.269E+00 0.145E+02   -.238E-05 0.205E-05 -.650E-05
   -.410E+02 0.453E+02 0.161E+04   0.447E+02 -.477E+02 -.162E+04   -.296E+01 0.185E+01 0.163E+02   0.507E-05 -.490E-05 -.179E-04
   0.281E+02 -.415E+02 0.159E+04   -.293E+02 0.443E+02 -.161E+04   0.117E+01 -.203E+01 0.157E+02   0.559E-05 0.376E-05 -.776E-06
   0.149E+02 -.277E+02 0.157E+04   -.159E+02 0.302E+02 -.159E+04   0.928E+00 -.151E+01 0.159E+02   0.980E-05 0.504E-05 0.110E-04
   -.105E+02 -.415E+02 0.163E+04   0.113E+02 0.466E+02 -.164E+04   -.882E+00 -.509E+01 0.173E+02   0.435E-05 0.359E-05 0.112E-04
   -.349E+01 0.763E+01 0.159E+04   0.228E+01 -.832E+01 -.161E+04   0.159E+01 0.687E+00 0.166E+02   0.962E-05 0.322E-05 -.240E-04
   -.343E+02 0.510E+01 0.159E+04   0.348E+02 -.864E+01 -.161E+04   0.270E+00 0.359E+01 0.159E+02   0.555E-05 0.854E-06 -.120E-04
   -.299E+02 0.160E+02 0.160E+04   0.316E+02 -.155E+02 -.162E+04   -.141E+01 -.122E+01 0.174E+02   -.297E-05 0.128E-04 -.586E-05
   0.101E+01 -.108E+02 0.158E+04   0.575E+00 0.967E+01 -.160E+04   -.194E+01 0.153E+01 0.178E+02   0.708E-05 -.387E-06 0.176E-05
[...]
   0.725E+01 -.826E+01 0.360E+02   -.734E+01 0.822E+01 -.360E+02   0.293E+00 0.350E+00 -.239E+00   0.131E-05 0.790E-07 0.109E-04
   -.427E+01 -.863E+01 -.253E+02   0.417E+01 0.880E+01 0.256E+02   0.401E+00 -.608E+00 -.115E+01   -.113E-05 -.427E-05 0.100E-05
   0.490E+01 -.134E+02 -.184E+00   -.498E+01 0.132E+02 0.231E+00   0.136E+00 0.116E+01 -.226E+00   -.261E-05 -.267E-05 0.440E-05
   0.190E+02 0.157E+02 0.341E+02   -.190E+02 -.155E+02 -.342E+02   -.696E-01 -.112E+01 -.158E-01   0.396E-06 0.233E-05 0.672E-05
   -.279E+02 -.572E+01 0.313E+02   0.278E+02 0.557E+01 -.315E+02   0.116E+01 0.390E+00 0.631E+00   -.912E-06 0.277E-05 0.793E-05
   -.719E+01 0.246E+02 0.313E+02   0.693E+01 -.245E+02 -.313E+02   0.100E+01 -.123E+01 -.249E+00   -.263E-05 -.473E-06 0.776E-05
   -.207E+02 0.178E+02 0.576E+01   0.205E+02 -.180E+02 -.592E+01   0.922E+00 0.317E+00 0.732E+00   0.584E-06 -.916E-06 -.616E-06
   0.142E+02 -.802E+01 0.185E+02   -.141E+02 0.799E+01 -.186E+02   -.810E+00 0.646E+00 0.129E+01   0.774E-06 -.918E-06 0.397E-05
   -.530E+01 -.762E+01 -.125E+02   0.528E+01 0.756E+01 0.125E+02   0.471E+00 0.131E+00 0.369E+00   -.834E-05 0.293E-05 -.453E-05
   0.122E+02 0.509E+01 -.314E+02   -.121E+02 -.520E+01 0.315E+02   -.869E-01 0.654E+00 -.759E+00   -.158E-05 -.772E-06 0.299E-05
   -.439E+01 0.130E+01 -.265E+02   0.445E+01 -.102E+01 0.265E+02   -.527E+00 -.120E+01 0.367E+00   0.287E-05 -.323E-05 -.109E-05
   -.578E+01 -.499E+01 -.175E+02   0.592E+01 0.488E+01 0.177E+02   -.540E+00 0.253E+00 -.163E+01   0.336E-05 0.349E-05 0.522E-05
   0.232E+01 -.185E+02 -.137E+02   -.222E+01 0.186E+02 0.138E+02   -.798E+00 0.174E+00 -.731E+00   0.691E-05 -.411E-06 0.550E-05
   0.128E+02 -.820E+01 -.230E+02   -.129E+02 0.821E+01 0.227E+02   -.391E+00 0.940E-01 0.165E+01   0.527E-05 0.426E-05 -.897E-05
   0.357E+00 0.675E+01 0.918E+01   -.217E-12 0.433E-12 -.517E-11   -.358E+00 -.676E+01 -.920E+01   0.138E-04 -.160E-04 0.241E-03

 POSITION                                       TOTAL-FORCE (eV/Angst)
     -0.05142      1.93967     12.02015         0.421954     -0.146774      1.298869
     -1.64801      4.64174     12.17679         0.068026      0.297119     -1.269443
     -3.36812      7.56492     12.09863        -0.263990      0.233605      0.173850
     -4.90633     10.45567     12.12260        -0.441720     -0.605050      0.789555
      3.31359      1.91062     12.00063        -0.766028     -0.028118      1.351024
      1.69152      4.82598     12.15199        -0.890930     -1.328544     -0.136682
     -0.10091      7.69327     11.96363         1.556534     -0.459709      1.401214
     -1.60932     10.42893     12.18049        -0.327978      0.461382     -0.830424
      6.52276      1.84289     12.22261         0.457961     -0.054007     -1.195108
      4.91778      4.75691     12.13201        -0.047506      0.192120      0.162277
      3.26693      7.53921     12.19767         0.328356      0.664166     -0.003994
      1.77622     10.39897     12.20164        -1.050086      0.181466     -0.148102
      9.76015      1.90484     12.19483         0.515277     -0.188060     -0.094611
      8.10933      4.72720     12.09027         0.631403      0.531582      0.226131
      6.50571      7.63917     12.27765         0.557508      0.085321     -0.893366
      4.90018     10.41576     12.23471         0.706779      0.124798     -0.051447
      1.72865      0.91591     14.59541        -0.737799      0.340153      0.305828
      0.03797      3.75039     14.69062        -0.259528      0.060512     -0.275836
     -1.65508      6.56501     14.42389        -0.222932      0.448386      2.222357
     -3.13547      9.45476     14.65217        -1.624926     -0.028486      0.611991
      4.95890      1.00914     14.70515        -0.269993     -0.576924     -0.267284
      3.33104      3.76484     14.58843        -0.870265      0.043223     -0.071613
      1.63884      6.64799     14.69265        -0.505747     -0.081498      0.027157
     -0.01797      9.45879     14.68307         0.429501      0.183721     -0.128910
      8.15499      0.99440     14.71635         0.824950     -0.533509      0.473414
      6.62008      3.80642     14.60825        -0.674760     -0.307838      0.983247
      4.94411      6.64044     14.77482        -0.384719      0.060713     -0.428448
      3.27265      9.51973     14.80290        -0.072498     -0.554894     -0.317682
     11.52565      0.90846     14.77816         0.066859      0.786579     -0.295998
      9.85109      3.79357     14.60859         0.285136     -0.047614      1.453037
      8.18921      6.63200     14.74267         0.641295      0.135403     -0.335964
      6.56231      9.46232     14.84601         0.995441      0.298051     -1.073471
     -0.02925      1.82936     15.86180         0.394528      0.334468     -0.102072
     -1.65560      4.76702     15.83447         0.052258      0.065545     -0.544661
     -3.32680      7.50841     15.81092         0.387892      0.158428     -0.221075
     -4.76566     10.37804     15.76474        -0.363907      0.328351      0.408854
      3.27994      2.01894     15.76192         0.220988     -0.620771      0.160528
      1.70523      4.54179     15.77409        -0.160296      0.715715      0.237719
     -0.22537      7.66149     15.74476         0.470055     -0.550535      0.076250
     -1.54439     10.48219     15.82082        -0.236253     -0.109494      0.148409
      6.67722      1.87230     15.92615        -0.646369      0.129019     -0.328367
      4.77956      4.75761     15.73100         0.654314     -0.092163      0.596007
      3.28602      7.58315     15.96176        -0.022693     -0.111181     -0.481421
      1.65810     10.47575     15.89543        -0.119501     -0.101538     -0.195313
     10.00412      1.91454     15.87618        -0.606125      0.026339     -0.133416
      8.14764      4.58430     15.78791         0.327061      0.635797      0.338490
      6.69042      7.60162     15.96128        -0.567982     -0.219714     -0.122568
      5.00469     10.27540     15.99464        -0.509850      0.451454     -0.173411
      1.65628      0.92385     10.97733        -0.174830      0.019234     -0.202083
     -0.05548      3.70003     10.80530        -0.172030      0.138641      0.632095
     -1.48354      6.77773     10.96222        -1.454295     -0.700347     -0.884408
     -3.31778      9.49807     11.06876        -0.000122     -0.076664     -0.563808
      4.82894      1.01194     11.00722         0.791236     -0.576294     -0.572970
      3.33199      3.71926     11.01190        -0.036116      0.729915     -0.522514
      1.67274      6.53184     11.02835        -0.072060      1.004838     -0.581459
      0.12926      9.49800     10.88391        -0.110414      0.025835      0.459549
      8.13638      0.93173     11.01338         0.372068     -0.006963      0.207226
      6.38888      3.76860     11.04001         0.761670      0.046292     -0.457865
      4.86909      6.81062     10.98349         0.277858     -0.676706      0.280661
      3.35202      9.38797     11.02625        -0.347964      0.407963      0.178560
[...]
     -1.64064      2.90182     13.44627         0.016680     -0.792347     -0.729788
      9.76592      5.64977     13.33758         0.197362      0.311247     -0.231608
      8.17307      8.54584     13.50520         0.299097     -0.434299     -0.871862
     -3.25703     11.30306     13.41097         0.063088      0.914575     -0.178894
      1.64860      2.90889     13.33116        -0.044928     -0.865170     -0.057579
     -0.07808      5.66414     13.31732         1.041252      0.241850      0.384274
     -1.67250      8.60820     13.32296         0.747149     -1.140835     -0.189462
     -0.04867     11.35644     13.39866         0.782547      0.175366      0.575509
      4.97624      2.79714     13.31398        -0.714644      0.621453      1.192862
      3.25220      5.70657     13.39266         0.445543      0.079065      0.435825
      1.67490      8.50316     13.52466        -0.033209      0.543725     -0.572726
      9.86775      0.05720     13.45598        -0.472134     -0.919346      0.363989
      8.20953      2.80710     13.51374        -0.393209      0.139757     -1.368782
      6.57737      5.67011     13.48537        -0.694032      0.241668     -0.682309
      4.94280      8.52020     13.43738        -0.397293      0.100889      1.349477
    total drift:                               -0.000542     -0.005496     -0.014622

  FREE ENERGIE OF THE ION-ELECTRON SYSTEM (eV)
  free  energy   TOTEN  =      -597.09393496 eV

  energy  without entropy=     -597.09393496  energy(sigma->0) =     -597.09393496