 vasp.5.4.4.18Apr17-6-g9f103f2a35 (build Oct 31 2019 15:01:46) complex

 executed on             LinuxIFC date 2024.05.01  23:34:59

 INCAR:
 POTCAR:    PAW_PBE Ca_sv 06Sep2000
 POTCAR:    PAW_PBE Si 05Jan2001
 POTCAR:    PAW_PBE O 08Apr2002
 POTCAR:    PAW_PBE Ca_sv 06Sep2000
   VRHFIN =Ca: 3s3p4s

   TITEL  = PAW_PBE Ca_sv 06Sep2000
   POMASS =   40.078; ZVAL   =   10.000    mass and valenz
   ENMAX  =  266.622; ENMIN  =  199.967 eV

 POTCAR:    PAW_PBE Si 05Jan2001
   VRHFIN =Si: s2p2

   TITEL  = PAW_PBE Si 05Jan2001
   POMASS =   28.085; ZVAL   =    4.000    mass and valenz
   ENMAX  =  245.345; ENMIN  =  184.009 eV

 POTCAR:    PAW_PBE O 08Apr2002
   VRHFIN =O: s2p4

   TITEL  = PAW_PBE O 08Apr2002
   POMASS =   16.000; ZVAL   =    6.000    mass and valenz
   ENMAX  =  400.000; ENMIN  =  300.000 eV

 Optimization of the real space projectors (new method)

 maximal supplied QI-value         = 16.25
 optimisation between [QCUT,QGAM] = [ 12.51, 25.03] = [ 43.85,175.40] Ry
 Optimized for a Real-space Cutoff    1.47 Angstroem

   l    n(q)    QCUT    max X(q) W(low)/X(q) W(high)/X(q)  e(spline)
   0     11    12.514    11.817    0.25E-04    0.32E-05    0.87E-07
   0     11    12.514     8.461    0.39E-04    0.59E-05    0.18E-06
   1     11    12.514     3.957    0.97E-05    0.57E-05    0.28E-07
   1     11    12.514     4.314    0.42E-04    0.14E-04    0.23E-06
   2     10    12.514    14.565    0.79E-04    0.50E-03    0.16E-05
   2     10    12.514    14.552    0.75E-04    0.48E-03    0.15E-05
 Optimization of the real space projectors (new method)

[...]

   l    n(q)    QCUT    max X(q) W(low)/X(q) W(high)/X(q)  e(spline)
   0      9    12.501   159.560    0.10E-03    0.83E-04    0.71E-07
   0      9    12.501   115.863    0.99E-04    0.81E-04    0.70E-07
   1      8    12.501    88.339    0.20E-03    0.25E-03    0.76E-07
   1      8    12.501    48.592    0.20E-03    0.24E-03    0.75E-07
 Optimization of the real space projectors (new method)

 maximal supplied QI-value         = 24.76
 optimisation between [QCUT,QGAM] = [ 12.38, 25.00] = [ 42.90,175.06] Ry
 Optimized for a Real-space Cutoff    1.16 Angstroem

   l    n(q)    QCUT    max X(q) W(low)/X(q) W(high)/X(q)  e(spline)
   0      9    12.378    20.381    0.16E-03    0.67E-05    0.31E-06
   0      9    12.378    15.268    0.17E-03    0.81E-05    0.33E-06
   1      8    12.378     5.964    0.20E-03    0.16E-03    0.30E-06
   1      8    12.378     5.382    0.18E-03    0.14E-03    0.26E-06
  PAW_PBE Ca_sv 06Sep2000               :
  PAW_PBE Si 05Jan2001                  :
  PAW_PBE O 08Apr2002                   :

 POSCAR: Ca Si  O
  positions in direct lattice
 exchange correlation table for  LEXCH =        8
   RHO(1)=    0.500       N(1)  =     2000
   RHO(2)=  100.500       N(2)  =     4000

 ion  position               nearest neighbor table
   1  0.846  0.554  0.996- 126 2.06  61 2.18  62 2.29 118 2.29  52 2.98
   2  0.545  0.946  0.828-  83 1.90 108 2.24   3 2.79   6 2.80  53 3.14
   3  0.604  0.123  0.706-  57 2.04   6 2.76   2 2.79  43 2.95
   4  0.128  0.380  0.619- 123 1.96 116 2.31  20 2.94
   5  0.665  0.950  0.181-  74 2.11 115 2.12 132 2.35 107 2.40  18 2.67  51 2.86  34 2.99
   6  0.618  0.921  0.619- 125 2.09  55 2.11  85 2.16 108 2.27   3 2.76   2 2.80  44 2.85
   7  0.800  0.802  0.810- 104 2.14  67 2.30 108 2.40  98 2.50  83 2.52  34 3.15
   8  0.235  0.252  0.400- 101 2.21 127 2.42  79 2.43  40 2.95
   9  0.922  0.052  0.218- 107 2.21 106 2.23  64 2.28  51 3.06
  10  0.224  0.148  0.735-  73 2.01  86 2.14 116 2.35  66 2.40  29 2.70
  11  0.511  0.052  0.399- 132 2.36 125 2.49  72 2.54  29 3.15
  12  0.065  0.766  0.959- 124 2.10 118 2.27 126 2.46  98 2.52  39 3.03  48 3.08
  13  0.869  0.751  0.239-  74 1.98  96 2.13  65 2.53  82 2.54  34 2.80  51 3.15
  14  0.151  0.917  0.420-  64 2.22 113 2.24  49 2.80  31 3.11
  15  0.836  0.066  0.926- 107 2.14  68 2.25  98 2.29  83 2.37  18 2.68  39 2.88  34 2.93
  16  0.163  0.776  0.703-  94 2.16  75 2.29 117 2.39  87 2.40  27 3.07
  17  0.574  0.641  0.748- 108 2.07 129 2.26  67 2.27  93 2.48  91 2.56  47 2.64  52 2.86  50 3.14

  18  0.692  0.130  0.070- 121 2.25 107 2.31  68 2.40 106 2.47  89 2.47   5 2.67  15 2.68  28 2.78
                            36 3.11
  19  0.313  0.773  0.167- 113 2.27  22 3.17
  20  0.320  0.510  0.657- 123 2.25 129 2.32 110 2.53   4 2.94  40 3.06
  21  0.970  0.264  0.809-  56 2.13  97 2.16 103 2.42 116 2.42  30 2.76
  22  0.330  0.528  0.107-  63 2.02  59 2.25 100 2.29  99 2.31 122 2.48  24 2.95  46 2.99  48 3.01
                            19 3.17
  23  0.439  0.452  0.331- 122 2.34 127 2.36  59 2.37 101 2.40
  24  0.485  0.434  0.957-  99 2.26  58 2.38 129 2.49  22 2.95
  25  0.905  0.656  0.517- 130 2.14  78 2.30  82 2.30  84 2.33 112 2.45  32 3.11
  26  0.180  0.277  0.096-  70 2.25  79 2.39
  27  0.265  0.930  0.863- 105 1.86 124 2.33 117 2.36  39 2.82  16 3.07
  28  0.843  0.293  0.064- 106 1.61  68 1.64  61 1.95  18 2.78
  29  0.352  0.047  0.594-  66 1.54  73 1.58 133 1.58 125 1.65  10 2.70  40 3.07  11 3.15
  30  0.921  0.162  0.620-  60 1.64  56 1.69  77 1.88  76 2.14  21 2.76
  31  0.257  0.693  0.442-  94 1.50 113 1.86  71 1.87 131 1.88  46 2.84  14 3.11
  32  0.913  0.897  0.578-  78 1.64  76 1.70  75 1.71  84 1.80  69 2.11  51 3.06  25 3.11
  33  0.982  0.575  0.765-  87 1.79 103 1.85 126 1.87 112 2.39  38 2.84
  34  0.845  0.867  0.049-  96 1.44 107 1.76 104 1.82  98 2.05  13 2.80  15 2.93   5 2.99   7 3.15

  35  0.776  0.493  0.324-  81 1.68  82 1.82 135 1.85  95 1.85 130 1.86  41 2.50
  36  0.498  0.261  0.152- 121 1.52 102 1.55 122 1.58 114 1.73  42 2.57  18 3.11
  37  0.006  0.376  0.274-  70 1.60 135 1.63 109 1.83  90 2.02  46 3.04
  38  0.789  0.477  0.699- 128 1.61 112 1.74  91 1.81 103 1.84  33 2.84  43 2.97  41 3.05
  39  0.055  0.001  0.899- 105 1.57  97 1.65 124 1.86  98 1.94  27 2.82  15 2.88  12 3.03
  40  0.386  0.289  0.577- 127 1.47 123 1.54  73 1.74  92 1.78   8 2.95  20 3.06  43 3.07  29 3.07

[...]

  43  0.584  0.358  0.704-  58 1.59  91 1.59  92 1.62  57 1.69   3 2.95  38 2.97  40 3.07
  44  0.605  0.808  0.422- 134 1.45  72 1.56  85 1.83  55 1.95  50 2.38  51 2.76   6 2.85
  45  0.634  0.599  0.136- 119 1.61  62 1.64  81 1.67  65 1.74  52 2.32
  46  0.197  0.523  0.305-  71 1.70 101 1.72  59 1.74  90 1.92  31 2.84  22 2.99  37 3.04
  47  0.394  0.658  0.857- 129 1.65 117 1.78  63 1.83  88 2.07  17 2.64
  48  0.094  0.547  0.066- 100 1.53 118 1.58 120 1.69  90 1.81  22 3.01  12 3.08
  49  0.207  0.033  0.237-  79 1.50  64 1.64  80 1.76  42 2.75  14 2.80
  50  0.508  0.670  0.508-  55 1.65 131 1.69  93 1.74 134 1.78  44 2.38  17 3.14
  51  0.778  0.939  0.379-  74 1.56  69 1.58  85 1.64 132 1.75  44 2.76   5 2.86   9 3.06  32 3.06
                            13 3.15
  52  0.640  0.670  0.965-  67 1.65  88 1.66  62 1.71 104 2.02  45 2.32  65 2.51  17 2.86   1 2.98

  53  0.428  0.147  0.923-  86 1.57 114 1.70  89 1.71 111 1.84  42 2.94   2 3.14
  54  0.200  0.409  0.866- 110 1.62 116 1.63  99 1.72 120 1.75
  55  0.576  0.766  0.568-  50 1.65  44 1.95   6 2.11
  56  0.862  0.151  0.741-  30 1.69  21 2.13
  57  0.677  0.264  0.672-  43 1.69   3 2.04
  58  0.499  0.336  0.795-  43 1.59  24 2.38
  59  0.317  0.586  0.277-  46 1.74  22 2.25  23 2.37
  60  0.049  0.188  0.629-  30 1.64
  61  0.934  0.404  0.005-  28 1.95   1 2.18
  62  0.665  0.547  0.020-  45 1.64  52 1.71   1 2.29
  63  0.335  0.638  0.990-  47 1.83  22 2.02
  64  0.087  0.010  0.284-  49 1.64  14 2.22   9 2.28
  65  0.689  0.726  0.150-  45 1.74  52 2.51  13 2.53
  66  0.271  0.979  0.658-  29 1.54  10 2.40
  67  0.716  0.646  0.860-  52 1.65  17 2.27   7 2.30
  68  0.798  0.239  0.954-  28 1.64  15 2.25  18 2.40
  69  0.854  0.001  0.458-  51 1.58  32 2.11
  70  0.026  0.284  0.188-  37 1.60  26 2.25
  71  0.144  0.605  0.399-  46 1.70  31 1.87
  72  0.543  0.864  0.329-  44 1.56  11 2.54
  73  0.342  0.168  0.629-  29 1.58  40 1.74  10 2.01
  74  0.764  0.860  0.284-  51 1.56  13 1.98   5 2.11
  75  0.045  0.871  0.600-  32 1.71  16 2.29
  76  0.936  0.998  0.665-  32 1.70  30 2.14
  77  0.871  0.262  0.520-  41 1.69  30 1.88
  78  0.830  0.800  0.603-  32 1.64  25 2.30
  79  0.219  0.152  0.235-  49 1.50  26 2.39   8 2.43
  80  0.339  0.988  0.217-  42 1.65  49 1.76
  81  0.719  0.525  0.207-  45 1.67  35 1.68
  82  0.788  0.628  0.378-  35 1.82  25 2.30  13 2.54
  83  0.691  0.961  0.867-   2 1.90  15 2.37   7 2.52
  84  0.945  0.827  0.456-  32 1.80  25 2.33
  85  0.714  0.886  0.481-  51 1.64  44 1.83   6 2.16
  86  0.366  0.109  0.821-  53 1.57  10 2.14
  87  0.056  0.625  0.653-  33 1.79  16 2.40
  88  0.522  0.724  0.939-  52 1.66  47 2.07
  89  0.564  0.139  0.919-  53 1.71  18 2.47
  90  0.091  0.490  0.198-  48 1.81  46 1.92  37 2.02
  91  0.656  0.453  0.748-  43 1.59  38 1.81  17 2.56
  92  0.482  0.381  0.627-  43 1.62  40 1.78
  93  0.517  0.552  0.580-  50 1.74  17 2.48
  94  0.215  0.745  0.541-  31 1.50  16 2.16
  95  0.718  0.366  0.373-  41 1.70  35 1.85
  96  0.938  0.842  0.112-  34 1.44  13 2.13
  97  0.039  0.132  0.895-  39 1.65  21 2.16
  98  0.930  0.910  0.916-  39 1.94  34 2.05  15 2.29   7 2.50  12 2.52
  99  0.305  0.433  0.951-  54 1.72  24 2.26  22 2.31
 100  0.180  0.631  0.089-  48 1.53  22 2.29
 101  0.257  0.400  0.306-  46 1.72   8 2.21  23 2.40
 102  0.453  0.179  0.233-  36 1.55  42 1.77
 103  0.912  0.445  0.771-  38 1.84  33 1.85  21 2.42
 104  0.753  0.784  0.973-  34 1.82  52 2.02   7 2.14
 105  0.130  0.960  0.808-  39 1.57  27 1.86
 106  0.853  0.204  0.156-  28 1.61   9 2.23  18 2.47
 107  0.822  0.001  0.083-  34 1.76  15 2.14   9 2.21  18 2.31   5 2.40
 108  0.616  0.800  0.754-  17 2.07   2 2.24   6 2.27   7 2.40
 109  0.028  0.363  0.418-  37 1.83
 110  0.176  0.516  0.798-  54 1.62  20 2.53
 111  0.396  0.033  0.009-  42 1.82  53 1.84
 112  0.813  0.613  0.685-  38 1.74  33 2.39  25 2.45
[...]
 121  0.618  0.277  0.142-  36 1.52  18 2.25
 122  0.435  0.370  0.164-  36 1.58  23 2.34  22 2.48
 123  0.279  0.348  0.592-  40 1.54   4 1.96  20 2.25
 124  0.132  0.917  0.993-  39 1.86  12 2.10  27 2.33
 125  0.470  0.989  0.583-  29 1.65   6 2.09  11 2.49
 126  0.930  0.644  0.887-  33 1.87   1 2.06  12 2.46
 127  0.401  0.325  0.466-  40 1.47  23 2.36   8 2.42
 128  0.764  0.399  0.600-  38 1.61  41 1.61
 129  0.430  0.544  0.801-  47 1.65  17 2.26  20 2.32  24 2.49
 130  0.867  0.508  0.441-  35 1.86  41 1.97  25 2.14
 131  0.404  0.672  0.423-  50 1.69  31 1.88
 132  0.690  0.042  0.343-  51 1.75   5 2.35  11 2.36
 133  0.318  0.039  0.472-  29 1.58
 134  0.570  0.704  0.385-  44 1.45  50 1.78
 135  0.896  0.444  0.254-  37 1.63  35 1.85

IMPORTANT INFORMATION: All symmetrisations will be switched off!
NOSYMM: (Re-)initialisation of all symmetry stuff for point group C_1.

Automatic generation of k-mesh.
 generate k-points for:    2    2    2
Space group operators:
 irot       det(A)        alpha          n_x          n_y          n_z        tau_x        tau_y        tau_z
    1     1.000000     0.000001     1.000000     0.000000     0.000000     0.000000     0.000000     0.000000

 Subroutine IBZKPT returns following result:

 Found      8 irreducible k-points:

[...]
     0.000000000  0.000000000 12.526070000     0.000000000  0.000000000  0.079833499

  length of vectors
    12.526070000 12.526070000 12.526070000     0.079833499  0.079833499  0.079833499

 FORCES acting on ions
    electron-ion (+dipol)            ewald-force                    non-local-force                 convergence-correction
   0.572E+02 0.214E+03 -.132E+03   -.518E+02 -.214E+03 0.130E+03   -.532E+01 0.207E+00 0.228E+01   0.404E-02 0.245E-02 -.117E-01
   0.297E+03 -.943E+01 -.917E+02   -.290E+03 0.224E+01 0.979E+02   -.915E+01 0.477E+01 -.396E+01   0.274E-02 0.204E-03 -.583E-02
   -.533E+02 -.802E+02 0.157E+03   0.577E+02 0.919E+02 -.153E+03   -.342E+01 -.933E+01 -.251E+01   0.602E-02 -.624E-02 -.181E-02
   0.252E+03 -.104E+03 0.208E+03   -.253E+03 0.100E+03 -.207E+03   -.323E+01 0.445E+01 -.748E+00   0.411E-02 -.316E-02 0.771E-02
   0.144E+03 -.858E+01 0.650E+02   -.151E+03 0.379E+01 -.565E+02   0.375E+01 0.252E+01 -.720E+01   0.539E-02 0.406E-02 0.275E-03
   -.451E+02 -.215E+03 0.501E+02   0.459E+02 0.202E+03 -.521E+02   0.190E+01 0.102E+02 0.305E+01   0.108E-01 0.468E-02 0.238E-02
   -.187E+03 -.883E+02 0.183E+03   0.181E+03 0.866E+02 -.185E+03   0.551E+01 0.149E+01 -.142E+01   0.141E-01 0.113E-01 -.134E-01
   0.168E+03 0.166E+03 -.157E+01   -.167E+03 -.162E+03 -.342E+01   -.164E+01 -.400E+01 0.407E+01   0.346E-03 -.549E-02 0.830E-02
   -.212E+03 -.145E+03 -.234E+03   0.213E+03 0.148E+03 0.233E+03   0.126E+00 -.180E+01 0.180E+01   -.247E-02 -.747E-02 0.818E-02
   0.161E+03 -.289E+02 -.525E+02   -.163E+03 0.271E+02 0.533E+02   -.315E+01 0.116E+01 0.971E+00   -.911E-02 -.116E-01 -.603E-02
   0.158E+02 -.234E+03 -.362E+02   -.148E+02 0.228E+03 0.317E+02   -.103E+01 0.461E+01 0.246E+01   0.271E-02 -.920E-03 0.797E-02
   -.194E+03 0.189E+02 0.903E+01   0.189E+03 -.195E+02 -.192E+01   0.300E+01 -.112E+01 -.551E+01   -.144E-02 0.428E-02 -.144E-01
   -.290E+03 0.189E+03 -.120E+03   0.287E+03 -.190E+03 0.123E+03   0.484E+01 -.341E+01 -.591E+00   0.235E-01 0.352E-01 -.614E-02
   0.326E+02 -.102E+03 0.107E+02   -.338E+02 0.974E+02 -.962E+01   0.429E+00 0.320E+01 0.183E+01   -.310E-01 -.134E-01 0.382E-01
   -.725E+02 -.135E+03 0.113E+03   0.711E+02 0.133E+03 -.119E+03   0.121E+01 0.220E+01 0.183E+01   0.491E-02 -.489E-02 -.135E-01
   -.357E+02 0.722E+02 -.216E+02   0.343E+02 -.707E+02 0.110E+02   0.576E+00 -.724E+00 0.844E+01   -.303E-01 0.261E-01 -.241E-01
   0.932E+02 0.808E+02 0.150E+03   -.865E+02 -.785E+02 -.152E+03   -.385E+01 -.259E+01 -.571E-01   -.200E-02 0.516E-02 0.255E-02
   0.110E+03 -.140E+03 -.107E+03   -.113E+03 0.149E+03 0.105E+03   0.813E+00 -.685E+01 0.970E+00   0.365E-02 -.353E-02 -.441E-02
   -.268E+02 -.211E+03 0.448E+02   0.248E+02 0.207E+03 -.392E+02   0.210E+01 0.259E+01 -.458E+01   -.366E-02 -.228E-02 -.691E-03
   0.838E+02 -.178E+03 0.150E+03   -.778E+02 0.176E+03 -.146E+03   -.380E+01 0.239E+01 -.312E+01   -.483E-02 0.461E-02 0.215E-02
   0.390E+02 -.123E+03 -.232E+02   -.406E+02 0.120E+03 0.243E+02   0.126E+01 0.403E+01 0.236E+00   -.752E-03 -.118E-01 -.522E-02
   -.583E+02 0.612E+02 -.982E+02   0.578E+02 -.569E+02 0.972E+02   0.104E+01 -.497E+01 0.175E+01   -.271E-02 0.180E-02 -.361E-02
   -.284E+03 0.451E+02 -.142E+03   0.279E+03 -.457E+02 0.139E+03   0.505E+01 0.107E+01 0.296E+01   -.782E-02 -.236E-02 0.192E-02
   -.181E+03 0.106E+03 -.766E+02   0.177E+03 -.110E+03 0.705E+02   0.397E+01 0.255E+01 0.471E+01   -.170E-02 0.294E-04 -.464E-02
   -.167E+03 0.115E+03 0.725E+02   0.164E+03 -.112E+03 -.723E+02   0.382E+01 -.223E+01 0.443E+00   0.453E-01 0.690E-01 0.404E-01
   -.263E+01 0.180E+03 0.644E+02   -.176E+01 -.179E+03 -.591E+02   0.373E+01 -.322E+00 -.450E+01   -.222E-02 0.255E-02 -.515E-02
   -.208E+03 0.549E+02 -.195E+03   0.209E+03 -.544E+02 0.196E+03   0.485E+01 -.864E+00 0.136E+01   -.100E-01 -.320E-02 -.154E-01
   0.803E+01 -.116E+03 -.653E+02   -.635E+01 0.106E+03 0.609E+02   0.229E+01 0.120E+02 0.235E+01   0.490E-03 -.254E-02 -.323E-02
   -.311E+02 0.144E+02 0.439E+02   0.231E+02 -.237E+02 -.485E+02   0.891E+01 0.379E+01 0.142E+01   -.399E-02 -.260E-02 0.146E-02
   0.589E+02 0.185E+02 0.165E+03   -.527E+02 -.165E+02 -.154E+03   -.718E+01 -.377E+01 -.109E+02   0.185E-02 -.148E-01 0.322E-02
   -.323E+02 0.395E+02 0.116E+02   0.260E+02 -.291E+02 -.361E+01   0.748E+01 -.990E+01 -.164E+02   -.523E-02 0.483E-02 0.477E-02
   -.930E+01 -.102E+03 0.198E+02   0.121E+02 0.936E+02 -.157E+02   -.639E+00 0.758E+01 -.672E+01   0.233E-01 -.129E-02 -.754E-03
   -.568E+02 0.230E+02 0.269E+02   0.558E+02 -.182E+02 -.287E+02   -.124E+01 -.300E+01 0.162E+01   0.253E-02 0.559E-02 -.305E-03
   0.432E+02 0.832E+01 0.450E+01   -.321E+02 -.111E+02 0.312E+01   -.176E+02 0.491E+01 -.162E+02   0.163E-02 0.216E-02 -.332E-02
   0.673E+02 0.759E+02 -.124E+02   -.639E+02 -.699E+02 0.117E+02   0.248E+00 -.354E+01 0.412E+00   -.634E-02 -.169E-01 -.142E-01
   -.424E+02 -.173E+02 -.527E+02   0.472E+02 0.237E+02 0.563E+02   -.618E+01 -.318E+01 -.574E+01   0.359E-03 -.560E-03 -.806E-03
   -.271E+01 0.443E+02 -.865E+02   -.283E+01 -.487E+02 0.841E+02   0.516E+01 0.572E+01 0.517E+01   0.435E-02 -.386E-02 -.412E-02
   -.314E+02 0.458E+02 -.243E+01   0.294E+02 -.406E+02 -.516E+01   0.955E+00 -.208E+01 0.824E+01   0.859E-03 0.777E-04 0.674E-02
   0.152E+02 -.548E+02 -.792E+02   -.632E+01 0.553E+02 0.735E+02   -.933E+01 -.286E+01 0.853E+01   -.244E-02 -.261E-02 -.939E-02
   -.114E+03 0.985E+02 -.931E+01   0.109E+03 -.847E+02 -.395E+01   0.857E+01 -.136E+02 0.188E+02   -.934E-03 -.198E-02 0.144E-02
   0.130E+02 0.724E+02 0.713E+02   -.127E+02 -.715E+02 -.674E+02   0.274E+01 -.644E+00 -.360E+01   -.399E-02 -.155E-01 0.679E-02
   0.110E+03 -.440E+02 0.229E+02   -.988E+02 0.295E+02 -.193E+02   -.704E+01 0.119E+02 -.555E+01   0.236E-02 0.305E-03 -.904E-03
   -.561E+02 0.508E+02 0.670E+02   0.522E+02 -.532E+02 -.593E+02   0.471E+01 -.130E-01 -.698E+01   -.802E-03 -.212E-02 0.137E-02
   -.181E+02 -.219E+02 -.339E+02   0.709E+01 0.164E+02 0.195E+02   0.154E+02 0.124E+02 0.172E+02   -.142E-02 0.867E-02 0.479E-02
   0.367E+02 0.547E+02 -.682E+02   -.417E+02 -.495E+02 0.730E+02   0.524E+01 -.265E+01 0.228E+01   -.336E-02 0.513E-03 -.688E-02
   0.955E+02 -.382E+01 -.564E+02   -.868E+02 0.526E+01 0.586E+02   -.740E+01 -.155E+01 -.345E+01   0.149E-02 0.247E-02 0.863E-03
   0.529E+02 -.751E+02 0.522E+00   -.571E+02 0.708E+02 0.243E+01   0.601E+00 0.676E+01 0.341E+01   -.188E-02 0.153E-02 -.192E-02
   0.398E+02 0.689E+02 -.163E+02   -.370E+02 -.521E+02 0.176E+02   -.437E+01 -.186E+02 -.397E+00   0.113E-02 0.114E-02 -.293E-02
   0.329E+02 0.898E+02 0.384E+02   -.356E+02 -.792E+02 -.378E+02   0.213E+01 -.141E+02 -.159E+01   -.276E-02 -.159E-02 0.452E-02
   0.554E+02 0.565E+02 -.106E+02   -.532E+02 -.581E+02 0.102E+02   -.135E+01 -.212E+01 -.775E+00   -.553E-02 0.296E-02 0.436E-02
   -.863E+02 -.901E+02 0.441E+01   0.829E+02 0.935E+02 0.595E+00   0.762E+00 0.616E+00 -.146E+01   0.106E-01 0.150E-02 0.899E-02
   0.729E+02 -.195E+02 -.965E+02   -.716E+02 0.168E+02 0.836E+02   0.129E+01 0.668E+01 0.996E+01   0.469E-04 0.157E-02 -.316E-02
   0.603E+02 -.666E+02 0.344E+01   -.535E+02 0.578E+02 -.515E+01   -.185E+01 0.651E+01 0.568E+01   0.268E-03 -.650E-03 -.314E-02
   -.200E+02 0.805E+02 -.833E+01   0.192E+02 -.721E+02 0.607E+01   0.135E+01 -.486E+01 0.626E+01   -.805E-03 0.580E-03 -.171E-02
   0.862E+02 0.747E+02 0.151E+02   -.725E+02 -.658E+02 0.850E+01   -.155E+02 -.894E+01 -.260E+02   -.144E-02 0.767E-02 0.667E-02
   0.126E+03 -.229E+01 0.890E+02   -.140E+03 -.593E+01 -.721E+02   0.138E+02 0.102E+02 -.185E+02   0.622E-02 -.157E-01 -.665E-02
   -.897E+02 0.489E+02 0.120E+03   0.115E+03 -.567E+02 -.127E+03   -.290E+02 0.688E+01 0.728E+01   0.148E-02 -.760E-02 0.246E-02
   0.305E+02 0.105E+03 -.798E+02   -.518E+02 -.110E+03 0.952E+02   0.208E+02 0.261E+01 -.109E+02   -.818E-03 -.151E-02 -.784E-03
   -.186E+02 -.914E+02 -.781E+02   0.374E+02 0.105E+03 0.778E+02   -.216E+02 -.144E+02 -.300E-01   -.289E-02 0.209E-02 0.136E-02
   -.177E+02 0.453E+02 0.191E+03   0.424E+02 -.458E+02 -.192E+03   -.245E+02 0.194E+01 0.146E+01   -.309E-02 -.170E-01 0.280E-02
[...]
   -.355E+02 -.385E+01 -.575E+02   0.206E+02 0.244E+02 0.588E+02   0.141E+02 -.178E+02 -.104E+01   -.139E-02 -.176E-03 -.146E-02
   0.401E+02 -.119E+02 0.687E+02   -.585E+02 0.214E+02 -.688E+02   0.152E+02 -.773E+01 0.200E+01   -.765E-03 -.173E-02 0.255E-02
   -.112E+03 -.935E+02 -.246E+03   0.120E+03 0.890E+02 0.262E+03   -.809E+01 0.719E+01 -.160E+02   -.403E-02 -.277E-02 -.989E-02
   0.392E+02 0.752E+01 0.518E+02   -.277E+02 -.233E+02 -.557E+02   -.990E+01 0.183E+02 0.522E+01   -.132E-02 -.531E-03 0.222E-02
   -.991E+02 0.328E+00 0.101E+03   0.934E+02 0.784E+01 -.892E+02   0.942E+01 -.832E+01 -.185E+02   0.337E-02 0.541E-02 -.629E-02
   -.168E+03 0.385E+02 0.148E+03   0.176E+03 -.236E+02 -.179E+03   -.589E+01 -.161E+02 0.222E+02   -.136E-02 -.252E-02 0.292E-02
   0.151E+02 0.523E+02 0.107E+03   -.307E+02 -.669E+02 -.102E+03   0.162E+02 0.168E+02 -.582E+01   -.448E-02 -.978E-02 0.149E-01
   0.507E+02 0.317E+02 0.225E+02   -.444E+02 -.582E+02 -.312E+02   -.706E+01 0.289E+02 0.903E+01   -.247E-02 0.166E-02 -.895E-03
   -.866E+02 0.118E+03 -.258E+02   0.101E+03 -.109E+03 0.292E+02   -.158E+02 -.173E+02 -.205E+01   0.305E-01 -.187E-01 0.171E-01
   0.602E+02 -.148E+02 -.131E+02   -.595E+02 0.151E+02 -.129E+02   -.502E+01 -.460E+00 0.293E+02   -.789E-02 0.314E-02 0.432E-02
   -.311E+02 -.311E+03 -.808E+02   0.222E+02 0.329E+03 0.804E+02   0.972E+01 -.186E+02 -.788E+00   0.587E-02 -.199E-02 0.605E-02
   0.836E+02 0.137E+02 0.161E+03   -.910E+02 -.197E+02 -.186E+03   0.635E+01 0.757E+01 0.221E+02   -.591E-02 -.420E-02 0.753E-02
   -.579E+01 0.185E+03 0.102E+03   -.171E+01 -.216E+03 -.137E+03   0.720E+01 0.190E+02 0.357E+02   -.151E-01 0.910E-02 0.411E-02
   0.315E+02 0.477E+02 0.640E+01   -.401E+02 -.369E+02 -.214E+02   0.684E+01 -.110E+02 0.152E+02   0.810E-02 -.102E-01 -.162E-01
   -.160E+02 0.282E+02 -.328E+02   -.220E-12 0.109E-11 -.608E-12   0.159E+02 -.283E+02 0.328E+02   0.801E-01 0.471E-01 -.451E-01

 POSITION                                       TOTAL-FORCE (eV/Angst)
     10.59785      6.94500     12.47465         0.085871     -0.503486      0.806047
      6.82570     11.85587     10.37471        -2.196608     -2.417014      2.249265
      7.56093      1.53949      8.84278         1.019433      2.394074      1.852458
      1.60953      4.75668      7.75267        -5.111883      0.180056     -0.370542
      8.32421     11.90273      2.26764        -2.959614     -2.259191      1.322103
      7.73529     11.53197      7.75123         2.740670     -2.989298      1.083407
     10.02062     10.04306     10.14393        -0.860009     -0.133871     -2.637958
      2.93949      3.16275      5.01579        -0.488536      0.053633     -0.914298
     11.55450      0.65367      2.73227         0.854772      0.950358      1.162349
      2.80429      1.85727      9.20205        -4.562848     -0.610964      1.689044
      6.39808      0.64648      4.99669        -0.025386     -1.246505     -2.083197
      0.81535      9.60024     12.01082        -1.157144     -1.744438      1.576143
     10.88540      9.41220      2.99255         1.131323     -4.551652      1.974651
      1.89423     11.49166      5.26402        -0.846227     -1.714954      2.948064
     10.47585      0.82840     11.60308        -0.218187      0.177676     -4.490305
      2.03972      9.71903      8.80458        -0.787834      0.847800     -2.186058
      7.18615      8.02297      9.36738         2.881834     -0.284481     -2.515943
      8.66246      1.63197      0.87384        -2.529470      2.336891     -0.482941
      3.91725      9.68764      2.08915         0.142638     -0.865548      1.073459
      4.00887      6.39135      8.23104         2.265598      1.031920      0.570087
     12.14445      3.31240     10.13649        -0.371863      1.370966      1.329682
      4.13370      6.61306      1.34567         0.538570     -0.671556      0.757009
      5.49978      5.66155      4.14911        -0.004939      0.495874     -0.196253
      6.07606      5.43633     11.98810         0.224102     -1.311523     -1.458801
     11.33324      8.21926      6.47698         0.084527      1.625134      0.661354
      2.25625      3.47121      1.20852        -0.660207      0.545922      0.881647
      3.32160     11.65037     10.81215         5.958425     -0.376711      2.140453
     10.55873      3.67006      0.80580         3.966163      2.739791     -2.099675
      4.40812      0.59322      7.43694         0.982468     -5.469636     -3.262207
     11.53435      2.02883      7.76657        -1.024426     -1.773926      0.225243
      3.21754      8.68595      5.53082         1.207247      0.478369     -8.391234
     11.43780     11.23812      7.23499         2.221702     -1.276879     -2.621675
     12.30072      7.20441      9.58384        -2.236741      1.845292     -0.217504
     10.58308     10.85747      0.61242        -6.466496      2.158362     -8.582061
      9.72615      6.17567      4.06423         3.640581      2.459210     -0.256451
      6.23736      3.27366      1.90639        -1.417750      3.214244     -2.132445
      0.07141      4.70903      3.43588        -0.379553      1.348750      2.814401
      9.88328      5.97491      8.75060        -1.067471      3.117258      0.652387
      0.68577      0.01087     11.25771        -0.421320     -2.435743      2.766043
      4.83590      3.62343      7.22601         3.971048      0.246227      5.523518
     10.03727      4.63913      6.01124         3.125938      0.245458      0.290858
      5.02830      1.00177      1.83280         3.717161     -2.516793     -1.972227
      7.31440      4.47825      8.81482         0.805548     -2.415028      0.804028
      7.58113     10.12649      5.28178         4.377507      6.933422      2.808598
      7.94570      7.50601      1.70043         0.264036      2.540321      7.093547
      2.46339      6.54994      3.82212         1.319961     -0.112251     -1.289142
      4.93848      8.24525     10.73668        -3.568204      2.466557      6.356927
      1.17364      6.84964      0.82709        -1.643592     -1.812846      0.940951
      2.59833      0.41095      2.97372        -0.563012     -3.469178     -0.998507
      6.36308      8.39655      6.36396         0.808445     -3.690886     -1.184053
      9.74012     11.76479      4.74427        -2.605171      3.997975      3.549872
      8.02164      8.38629     12.08145         2.496857      3.999209     -2.874055
      5.36607      1.84580     11.56061         4.997584     -2.331987      3.962912
      2.50005      5.12884     10.84946         0.603498      3.560053      3.993845
      7.21853      9.59013      7.11841        -1.868015     -0.028086     -2.380858
     10.80205      1.89339      9.28302        -0.416031      1.950372     -1.561640
      8.47442      3.31150      8.42355        -3.578928     -0.979932      0.360570
      6.24847      4.20291      9.95844        -0.584264     -1.688369      4.534916
      3.97671      7.33776      3.46475        -2.860774     -0.831522     -0.389233
      0.60796      2.35307      7.87311         0.121277      1.420079      0.267142
[...]
      7.73798      3.47253      1.78024         3.579004     -0.622142     -0.938635
      5.44602      4.63508      2.04905        -0.783242      2.733742      0.302423
      3.49366      4.35739      7.41465        -3.251586      1.787497      1.885310
      1.65637     11.48164     12.43520        -0.388689      2.707582     -0.066512
      5.88158     12.38397      7.30367         1.518279      2.496699      1.312130
     11.65031      8.06329     11.10642         3.700181     -0.145104     -6.672913
      5.02689      4.07462      5.83718         1.654006     -1.149942     -8.726483
      9.56802      5.00288      7.51179         0.647973      2.192944     -0.537442
      5.39237      6.81941     10.03785        -0.785712      2.329317      0.337977
     10.86557      6.35801      5.52871        -1.318790     -7.546062      1.355880
      5.06081      8.41439      5.29333        -4.314411     -0.170841      3.280664
      8.64622      0.52704      4.29581         0.839341     -0.586307     -1.188764
      3.98582      0.48258      5.91510        -1.004564      1.519878     -3.612328
      7.14577      8.82144      4.82212        -0.310655    -11.462152      0.168106
     11.22911      5.56202      3.18329        -1.729586     -0.144110      0.167919
    total drift:                               -0.010700     -0.017169     -0.026558

  FREE ENERGIE OF THE ION-ELECTRON SYSTEM (eV)
  free  energy   TOTEN  =      -893.13370207 eV

  energy  without entropy=     -893.08704450  energy(sigma->0) =     -893.11037328