 vasp.5.4.4.18Apr17-6-g9f103f2a35 (build Mar 16 2023 09:39:13) complex

 executed on             LinuxIFC date 2024.04.30  06:14:15

 INCAR:
 POTCAR:    PAW_PBE Ca_sv 06Sep2000
 POTCAR:    PAW_PBE Si 05Jan2001
 POTCAR:    PAW_PBE O 08Apr2002
 POTCAR:    PAW_PBE Ca_sv 06Sep2000
   VRHFIN =Ca: 3s3p4s

   TITEL  = PAW_PBE Ca_sv 06Sep2000
   POMASS =   40.078; ZVAL   =   10.000    mass and valenz
   ENMAX  =  266.622; ENMIN  =  199.967 eV

   TITEL  = PAW_PBE Si 05Jan2001
   POMASS =   28.085; ZVAL   =    4.000    mass and valenz
   ENMAX  =  245.345; ENMIN  =  184.009 eV

   TITEL  = PAW_PBE O 08Apr2002
   POMASS =   16.000; ZVAL   =    6.000    mass and valenz
   ENMAX  =  400.000; ENMIN  =  300.000 eV

 Optimization of the real space projectors (new method)

 maximal supplied QI-value         = 16.25
 optimisation between [QCUT,QGAM] = [ 12.51, 25.03] = [ 43.85,175.40] Ry
 Optimized for a Real-space Cutoff    1.47 Angstroem

   l    n(q)    QCUT    max X(q) W(low)/X(q) W(high)/X(q)  e(spline)
   0     11    12.514    11.817    0.25E-04    0.32E-05    0.87E-07
   0     11    12.514     8.461    0.39E-04    0.59E-05    0.18E-06
   1     11    12.514     3.957    0.97E-05    0.57E-05    0.28E-07
   1     11    12.514     4.314    0.42E-04    0.14E-04    0.23E-06
   2     10    12.514    14.565    0.79E-04    0.50E-03    0.16E-05
   2     10    12.514    14.552    0.75E-04    0.48E-03    0.15E-05
 Optimization of the real space projectors (new method)

[...]

   l    n(q)    QCUT    max X(q) W(low)/X(q) W(high)/X(q)  e(spline)
   0      9    12.501   159.560    0.10E-03    0.83E-04    0.71E-07
   0      9    12.501   115.863    0.99E-04    0.81E-04    0.70E-07
   1      8    12.501    88.339    0.20E-03    0.25E-03    0.76E-07
   1      8    12.501    48.592    0.20E-03    0.24E-03    0.75E-07
 Optimization of the real space projectors (new method)

 maximal supplied QI-value         = 24.76
 optimisation between [QCUT,QGAM] = [ 12.38, 25.00] = [ 42.90,175.06] Ry
 Optimized for a Real-space Cutoff    1.16 Angstroem

   l    n(q)    QCUT    max X(q) W(low)/X(q) W(high)/X(q)  e(spline)
   0      9    12.378    20.381    0.16E-03    0.67E-05    0.31E-06
   0      9    12.378    15.268    0.17E-03    0.81E-05    0.33E-06
   1      8    12.378     5.964    0.20E-03    0.16E-03    0.30E-06
   1      8    12.378     5.382    0.18E-03    0.14E-03    0.26E-06
  PAW_PBE Ca_sv 06Sep2000               :
  PAW_PBE Si 05Jan2001                  :
  PAW_PBE O 08Apr2002                   :

 POSCAR: Ca Si  O
  positions in direct lattice
 exchange correlation table for  LEXCH =        8
   RHO(1)=    0.500       N(1)  =     2000
   RHO(2)=  100.500       N(2)  =     4000

 ion  position               nearest neighbor table
   1  0.211  0.289  0.102-  60 2.02  97 2.14  71 2.20  11 2.72
   2  0.709  0.963  0.026-  93 1.98 115 2.47 116 2.53  43 2.61  35 3.05
   3  0.098  0.398  0.798-  91 2.14  70 2.53  48 2.89
   4  0.435  0.815  0.684- 132 2.06  95 2.13 124 2.30  80 2.40 131 2.55  33 2.79  53 2.83  44 2.90
                            30 3.00
   5  0.402  0.762  0.343-  98 2.03 124 2.24  65 2.30 129 2.37 121 2.39  49 2.93
   6  0.913  0.870  0.563-  64 2.34  84 2.40 126 2.46  13 2.63  54 3.02  41 3.06
   7  0.129  0.896  0.808- 109 2.01  84 2.20  95 2.47  67 2.52  30 2.91  38 2.97
   8  0.789  0.390  0.243- 112 2.21 120 2.29  62 2.35  88 2.45  50 2.79  45 2.95
   9  0.708  0.287  0.987-  62 2.23  76 2.30 107 2.40  88 2.49  48 2.75  29 3.01
  10  0.174  0.296  0.476-  78 1.97  75 2.12  72 2.41  68 2.52  45 2.91  46 3.03
  11  0.430  0.245  0.110-  90 2.16  82 2.22 123 2.35  88 2.51   1 2.72  50 2.94
  12  0.931  0.868  0.228-  77 2.26  74 2.31 105 2.31  64 2.36 134 2.45  81 2.52  54 2.70  15 2.98

  13  0.793  0.982  0.705- 103 2.10 126 2.14 117 2.20 135 2.47  69 2.48   6 2.63  31 3.07  29 3.16

[...]

  38  0.003  0.688  0.778-  66 1.60  67 1.62  59 1.64  84 1.67   7 2.97  35 2.99
  39  0.861  0.620  0.381-  55 1.60  99 1.73 120 1.74 134 1.76 119 2.03  41 2.74  52 3.13
  40  0.271  0.114  0.897- 128 1.55 109 1.63  85 1.67  60 1.69  26 3.01  34 3.02
  41  0.705  0.758  0.471- 119 1.59 129 1.68 131 1.73  73 1.80 134 2.17  39 2.74  37 2.79  44 2.93
                            54 2.98   6 3.06  24 3.16
  42  0.495  0.593  0.120-  57 1.49  98 1.62 127 1.63 101 1.87  23 2.98  24 3.11
  43  0.519  0.035  0.953- 107 1.51  93 1.63 128 1.78  87 1.82   2 2.61  33 3.00
  44  0.655  0.724  0.705-  61 1.53 131 1.73 126 1.79  80 1.82   4 2.90  41 2.93  16 2.94  37 2.96
                            18 3.02  17 3.08
  45  0.010  0.303  0.301- 112 1.58  71 1.63 100 1.68  78 1.77  10 2.91  36 2.91   8 2.95  32 3.02

  46  0.195  0.539  0.536-  94 1.58 111 1.62  75 1.75  72 2.12  53 2.67  52 2.97  10 3.03
  47  0.276  0.515  0.980-  97 1.58  79 1.64  89 1.65  57 1.89  30 2.91
  48  0.885  0.405  0.905-  76 1.65 133 1.69  91 1.76  62 1.94   9 2.75  14 2.79   3 2.89
  49  0.399  0.999  0.295-  86 1.52  90 1.63  65 1.74  58 1.95  21 2.90   5 2.93  51 3.07
  50  0.561  0.374  0.269- 108 1.56  88 1.60 101 1.63  82 1.79   8 2.79  25 2.80  11 2.94
  51  0.465  0.129  0.504-  68 1.61  58 1.66 106 1.73 130 1.78  33 2.79  25 3.04  49 3.07
  52  0.105  0.706  0.380-  55 1.63 111 1.68 105 1.77  92 1.97 121 2.27  46 2.97  53 2.97  28 3.08
                            39 3.13
  53  0.233  0.750  0.586-  95 1.51 124 1.63  92 1.67  94 1.70  46 2.67   4 2.83  52 2.97  30 3.00

[...]

  55  0.982  0.662  0.414-  39 1.60  52 1.63
  56  0.238  0.854  0.103-  28 1.82  15 2.09  23 2.22
  57  0.418  0.537  0.041-  42 1.49  47 1.89
  58  0.501  0.029  0.417-  51 1.66  49 1.95  21 2.55
  59  0.973  0.722  0.906-  35 1.56  38 1.64
  60  0.205  0.146  0.016-  40 1.69   1 2.02  15 2.56
  61  0.691  0.611  0.751-  44 1.53  16 2.13  17 2.41  18 2.42
  62  0.824  0.414  0.054-  48 1.94   9 2.23   8 2.35  14 2.37
  63  0.089  0.028  0.612-  31 1.67  26 2.15  22 2.39
  64  0.915  0.967  0.395-  54 1.56   6 2.34  12 2.36
  65  0.485  0.899  0.240-  49 1.74  23 2.29   5 2.30
  66  0.984  0.578  0.705-  38 1.60  16 2.38
  67  0.136  0.688  0.798-  38 1.62  30 1.63   7 2.52
  68  0.360  0.211  0.516-  51 1.61  26 2.49  25 2.50  10 2.52
  69  0.762  0.124  0.850-  29 1.58  13 2.48
  70  0.070  0.231  0.675-  31 1.58   3 2.53
  71  0.106  0.366  0.230-  45 1.63   1 2.20
  72  0.050  0.451  0.492-  36 1.65  46 2.12  10 2.41
  73  0.714  0.905  0.449-  54 1.52  41 1.80
  74  0.755  0.939  0.237-  54 1.68  12 2.31  21 2.36  24 2.40
  75  0.276  0.420  0.547-  46 1.75  10 2.12
  76  0.756  0.422  0.862-  48 1.65   9 2.30
  77  0.978  0.049  0.217-  32 1.55  15 2.26  12 2.26
  78  0.117  0.215  0.348-  45 1.77  10 1.97
  79  0.276  0.561  0.853-  47 1.64  30 1.72
  80  0.569  0.766  0.821-  44 1.82   4 2.40  18 2.56
  81  0.853  0.726  0.097-  35 1.92  14 2.45  12 2.52
  82  0.416  0.340  0.266-  50 1.79  11 2.22
  83  0.635  0.510  0.569-  37 1.87  16 2.23
  84  0.978  0.818  0.743-  38 1.67   7 2.20   6 2.40
  85  0.306  0.219  0.814-  40 1.67  34 1.68  26 2.52
  86  0.301  0.950  0.359-  49 1.52  22 2.17
  87  0.487  0.974  0.819-  33 1.58  43 1.82
  88  0.619  0.305  0.172-  50 1.60   8 2.45   9 2.49  11 2.51
  89  0.238  0.622  0.055-  47 1.65  28 1.78
  90  0.425  0.090  0.199-  49 1.63  11 2.16  21 2.44
  91  0.989  0.505  0.886-  48 1.76   3 2.14  14 2.25
  92  0.134  0.804  0.506-  53 1.67  52 1.97  22 2.49
  93  0.548  0.928  0.030-  43 1.63   2 1.98  23 2.12
  94  0.160  0.634  0.618-  46 1.58  53 1.70
  95  0.263  0.782  0.703-  53 1.51  30 1.79   4 2.13   7 2.47
  96  0.736  0.088  0.392-  54 1.64  19 1.90  21 2.23
  97  0.270  0.385  0.966-  47 1.58   1 2.14
  98  0.466  0.694  0.203-  42 1.62   5 2.03  23 2.24  24 2.49
  99  0.869  0.508  0.469-  36 1.69  39 1.73  16 2.18
 100  0.915  0.318  0.401-  36 1.60  45 1.68  19 2.44
 101  0.564  0.501  0.224-  50 1.63  42 1.87
 102  0.320  0.796  0.880-  30 1.48
 103  0.626  0.991  0.657-  33 1.49  13 2.10
 104  0.450  0.550  0.408-  37 1.89  25 2.29  20 2.43
 105  0.093  0.842  0.327-  52 1.77  22 2.24  12 2.31
 106  0.593  0.189  0.527-  51 1.73  19 2.05
 107  0.582  0.134  0.995-  43 1.51   9 2.40
 108  0.620  0.348  0.380-  50 1.56  25 2.17  19 2.34
 109  0.174  0.055  0.825-  40 1.63   7 2.01  26 2.36
 110  0.521  0.180  0.754-  33 1.92  34 1.92  27 2.27
 111  0.193  0.605  0.420-  46 1.62  52 1.68  20 2.32
 112  0.925  0.272  0.207-  45 1.58  32 1.85   8 2.21
 113  0.971  0.132  0.006-  32 1.72  29 1.73
 114  0.978  0.933  0.979-  35 1.83  15 2.47
[...]
 121  0.244  0.683  0.255-  28 1.79  20 2.07  52 2.27   5 2.39
 122  0.046  0.700  0.131-  28 1.51  14 2.20
 123  0.492  0.289  0.930-  34 1.66  11 2.35
 124  0.349  0.769  0.520-  53 1.63   5 2.24   4 2.30
 125  0.383  0.408  0.763-  34 1.59  17 2.48
 126  0.779  0.805  0.702-  44 1.79  13 2.14   6 2.46
 127  0.557  0.667  0.025-  42 1.63  18 2.14
 128  0.375  0.067  0.954-  40 1.55  43 1.78
 129  0.578  0.727  0.423-  41 1.68  37 1.91   5 2.37
 130  0.399  0.051  0.610-  51 1.78  33 1.87  26 2.04
 131  0.616  0.783  0.581-  44 1.73  41 1.73  37 2.37   4 2.55
 132  0.449  0.650  0.644-  37 1.81   4 2.06
 133  0.920  0.275  0.866-  48 1.69  29 1.72
 134  0.804  0.741  0.323-  39 1.76  41 2.17  24 2.23  12 2.45
 135  0.943  0.093  0.788-  29 1.55  31 1.73  13 2.47

IMPORTANT INFORMATION: All symmetrisations will be switched off!
NOSYMM: (Re-)initialisation of all symmetry stuff for point group C_1.

Automatic generation of k-mesh.
 generate k-points for:    2    2    2
Space group operators:
 irot       det(A)        alpha          n_x          n_y          n_z        tau_x        tau_y        tau_z
    1     1.000000     0.000000     1.000000     0.000000     0.000000     0.000000     0.000000     0.000000

 Subroutine IBZKPT returns following result:

 Found      8 irreducible k-points:

 Following reciprocal coordinates:
            Coordinates               Weight
  0.000000  0.000000  0.000000      1.000000
  0.500000  0.000000  0.000000      1.000000
  0.000000  0.500000  0.000000      1.000000
  0.500000  0.500000  0.000000      1.000000
  0.000000  0.000000  0.500000      1.000000
  0.500000  0.000000  0.500000      1.000000
  0.000000  0.500000  0.500000      1.000000
  0.500000  0.500000  0.500000      1.000000

 Following cartesian coordinates:
            Coordinates               Weight
  0.000000  0.000000  0.000000      1.000000
  0.041344  0.000000  0.000000      1.000000
  0.000000  0.041344  0.000000      1.000000
  0.041344  0.041344  0.000000      1.000000
  0.000000  0.000000  0.041344      1.000000
  0.041344  0.000000  0.041344      1.000000
  0.000000  0.041344  0.041344      1.000000
  0.041344  0.041344  0.041344      1.000000

 SYSTEM =  unknown system
 POSCAR =  Ca Si  O

 Startparameter for this run:
   NWRITE =      2    write-flag & timer
   PREC   = a         normal or accurate (medium, high low for compatibility)
   ISTART =      0    job   : 0-new  1-cont  2-samecut
   ICHARG =      2    charge: 1-file 2-atom 10-const
   ISPIN  =      1    spin polarized calculation?
   LNONCOLLINEAR =      F non collinear calculations
   LSORBIT =      F    spin-orbit coupling
   INIWAV =      1    electr: 0-lowe 1-rand  2-diag
[...]
     0.000000000  0.000000000 12.093787620     0.000000000  0.000000000  0.082687081

  length of vectors
    12.093787620 12.093787620 12.093787620     0.082687081  0.082687081  0.082687081

 FORCES acting on ions
    electron-ion (+dipol)            ewald-force                    non-local-force                 convergence-correction
   0.986E+02 -.546E+02 -.103E+03   -.106E+03 0.538E+02 0.101E+03   0.473E+01 0.116E+01 0.391E+01   -.103E-02 -.198E-02 -.675E-03
   -.129E+03 -.582E+01 0.745E+02   0.131E+03 0.722E+01 -.747E+02   0.261E+01 -.338E+00 0.229E+00   0.266E-03 0.229E-02 0.344E-03
   -.128E+03 0.990E+02 0.173E+02   0.126E+03 -.984E+02 -.186E+02   0.341E+01 -.129E+01 -.436E+00   -.454E-03 -.339E-02 0.304E-02
   -.269E+00 -.164E+03 -.375E+02   0.190E+01 0.158E+03 0.374E+02   0.482E+00 0.691E+01 0.605E+00   0.185E-02 0.158E-03 0.178E-02
   0.786E+02 -.329E+02 -.924E+02   -.778E+02 0.333E+02 0.940E+02   -.170E+01 0.492E+00 0.902E+00   0.292E-03 0.401E-03 -.173E-02
   -.145E+03 0.232E+01 0.280E+02   0.148E+03 -.583E+01 -.279E+02   -.108E+01 0.188E+01 -.225E+00   -.607E-03 0.189E-02 0.115E-02
   -.585E+02 -.760E+02 -.118E+03   0.541E+02 0.766E+02 0.117E+03   0.286E+01 -.232E+01 0.908E+00   -.173E-02 0.312E-02 0.879E-03
   0.608E+02 -.106E+03 0.296E+02   -.567E+02 0.108E+03 -.334E+02   -.395E+01 -.120E+01 0.315E+01   -.347E-03 -.197E-02 -.271E-02
   0.524E+02 -.102E+03 0.252E+02   -.557E+02 0.101E+03 -.218E+02   0.743E+00 -.870E+00 -.206E+01   -.365E-03 -.751E-03 0.132E-02
   -.652E+02 0.460E+02 -.726E+01   0.666E+02 -.444E+02 0.718E+01   -.191E+00 -.156E+01 0.247E+01   -.736E-03 -.142E-02 -.147E-02
   0.134E+03 -.942E+02 -.883E+01   -.125E+03 0.914E+02 0.952E+01   -.614E+01 0.224E+01 -.229E+01   0.546E-03 -.103E-02 -.911E-03
   -.999E+02 0.588E+02 0.129E+03   0.992E+02 -.600E+02 -.126E+03   0.909E+00 -.720E+00 -.343E+01   -.180E-02 0.158E-02 -.193E-02
   0.337E+02 -.109E+03 -.101E+03   -.384E+02 0.108E+03 0.103E+03   0.398E+01 0.489E+00 -.301E+00   0.144E-02 0.158E-03 0.807E-03
   -.931E+02 0.182E+03 -.569E+02   0.910E+02 -.177E+03 0.606E+02   0.176E+01 -.314E+01 -.119E+01   -.143E-02 -.121E-02 0.323E-03
   -.143E+03 -.143E+03 -.318E+01   0.143E+03 0.143E+03 -.108E+01   0.179E+00 0.162E+01 0.265E+01   -.110E-02 0.318E-02 -.205E-02
   -.489E+02 0.196E+03 -.146E+03   0.482E+02 -.194E+03 0.145E+03   0.161E+01 -.262E+01 0.226E+01   -.170E-02 -.284E-04 0.969E-03
   0.471E+02 0.212E+03 -.444E+02   -.489E+02 -.209E+03 0.395E+02   0.874E+00 -.175E+01 0.379E+01   0.167E-02 -.172E-02 0.944E-03
   -.439E+02 0.229E+03 -.113E+03   0.412E+02 -.223E+03 0.111E+03   0.301E+01 -.569E+01 0.126E+01   0.792E-03 -.117E-03 -.837E-04
   -.942E+02 -.118E+03 -.416E+02   0.921E+02 0.114E+03 0.413E+02   0.365E+01 0.599E+01 0.132E+01   0.164E-03 -.633E-03 -.140E-02
   0.802E+02 0.298E+03 0.947E+02   -.788E+02 -.295E+03 -.909E+02   -.332E+00 -.497E+01 -.299E+01   -.584E-03 -.246E-02 -.158E-02
   0.994E+02 -.153E+03 0.288E+02   -.966E+02 0.152E+03 -.263E+02   -.254E+01 0.139E+01 -.278E+01   0.934E-03 0.117E-02 -.256E-02
   -.685E+02 -.262E+03 0.485E+02   0.668E+02 0.256E+03 -.502E+02   -.115E+00 0.545E+01 0.120E+01   -.167E-02 0.202E-02 0.889E-04
   0.141E+03 -.180E+02 0.161E+03   -.140E+03 0.197E+02 -.160E+03   -.113E+01 -.193E+01 -.214E+01   0.165E-02 0.213E-02 -.285E-03
   -.148E+02 0.179E+03 0.938E+02   0.166E+02 -.178E+03 -.899E+02   -.209E+01 -.119E+01 -.336E+01   0.135E-02 0.138E-02 -.156E-02
   0.106E+03 0.264E+02 -.150E+03   -.106E+03 -.242E+02 0.149E+03   -.103E+01 -.191E+01 0.270E+01   0.993E-03 -.114E-02 -.124E-02
   -.152E+02 -.113E+03 0.478E+02   0.140E+02 0.114E+03 -.439E+02   0.212E+00 0.138E+01 -.220E+01   -.168E-02 0.125E-02 0.323E-02
   0.353E+02 -.147E+03 -.300E+02   -.360E+02 0.144E+03 0.305E+02   0.123E+01 0.256E+01 -.335E+00   -.112E-04 -.436E-03 0.300E-02
   -.154E+02 -.314E+01 0.378E+02   0.598E+01 0.101E+01 -.355E+02   0.166E+02 0.349E+01 -.964E+00   -.425E-03 0.584E-04 -.267E-03
   -.239E+02 -.184E+02 -.897E+02   0.235E+02 0.179E+02 0.779E+02   0.403E+01 0.185E+01 0.130E+02   0.298E-03 0.231E-03 0.472E-03
   -.496E+02 0.105E+03 -.434E+02   0.467E+02 -.925E+02 0.511E+02   -.227E+01 -.163E+02 -.107E+02   -.163E-03 0.263E-03 0.501E-03
   -.304E+02 -.739E+02 0.155E+02   0.277E+02 0.748E+02 -.193E+02   0.249E+01 -.215E+01 0.569E+01   0.108E-03 -.316E-03 0.838E-03
   -.586E+02 -.839E+02 0.173E+02   0.539E+02 0.742E+02 -.151E+02   0.558E+00 0.118E+02 -.369E+01   -.622E-04 0.321E-03 -.716E-03
   0.600E+02 -.575E+02 0.198E+02   -.469E+02 0.513E+02 -.174E+02   -.166E+02 0.127E+02 -.139E+01   0.282E-04 0.614E-03 0.115E-02
   -.205E+02 -.367E+02 0.574E+02   0.177E+02 0.450E+02 -.518E+02   0.393E+01 -.104E+02 -.363E+01   -.282E-03 -.680E-03 0.108E-02
   -.396E+02 -.288E+02 -.852E+02   0.347E+02 0.291E+02 0.751E+02   0.864E+01 0.265E+01 0.145E+02   -.243E-03 0.142E-03 0.366E-03
   -.573E+02 0.566E+02 -.917E+02   0.542E+02 -.525E+02 0.862E+02   0.153E+01 -.551E+00 0.673E+01   -.302E-03 -.699E-03 -.534E-03
   0.148E+02 0.787E+02 0.307E+01   -.173E+02 -.836E+02 -.962E+00   0.109E+01 0.353E+01 -.236E+01   0.687E-03 -.521E-03 0.724E-03
   0.467E+02 0.710E+02 0.909E+01   -.441E+02 -.688E+02 -.124E+02   -.258E+01 -.447E+00 0.197E+01   -.588E-03 0.700E-03 0.722E-03
   0.855E+02 0.501E+02 0.689E+02   -.737E+02 -.521E+02 -.735E+02   -.987E+01 0.544E-01 0.348E+01   -.138E-03 -.185E-03 -.427E-03
   0.338E+02 -.183E+02 -.438E+01   -.350E+02 0.164E+02 0.691E+01   -.272E+01 0.322E+01 -.153E+01   -.226E-03 0.653E-03 0.608E-03
   0.533E+01 0.285E+02 0.614E+02   -.736E+01 -.289E+02 -.550E+02   -.661E+00 0.531E+01 -.689E+01   0.594E-03 0.802E-04 0.383E-03
   -.578E+02 0.117E+03 -.206E+02   0.531E+02 -.109E+03 0.138E+02   0.100E+02 -.651E+01 0.116E+02   0.377E-03 -.765E-03 -.662E-03
   0.409E+02 0.282E+01 0.620E+02   -.359E+02 0.273E+01 -.530E+02   -.120E+02 -.789E+01 -.119E+02   -.143E-03 0.126E-02 0.582E-03
   0.402E+02 0.452E+00 -.802E+01   -.344E+02 -.202E+00 0.146E+02   -.481E+01 0.869E+01 -.470E+01   0.324E-03 -.413E-03 0.446E-03
   -.553E+02 -.465E+01 -.103E+02   0.598E+02 0.141E+01 0.165E+01   0.380E+00 0.137E+01 0.892E+01   0.283E-03 -.230E-03 -.114E-02
   -.336E+02 0.118E+03 -.506E+02   0.349E+02 -.113E+03 0.509E+02   -.173E+01 -.108E+02 -.543E+00   -.471E-04 -.636E-03 -.425E-03
   0.452E+02 0.443E+02 -.390E+02   -.455E+02 -.470E+02 0.345E+02   0.390E+01 0.523E+01 0.524E+01   -.601E-04 -.143E-02 0.139E-03
   -.595E+02 -.102E+02 -.108E+02   0.526E+02 0.970E+01 0.934E+01   0.486E+01 0.112E+01 0.293E+01   -.440E-03 -.767E-03 0.974E-03
   0.770E+02 -.101E+03 -.850E+01   -.793E+02 0.962E+02 0.751E+01   0.884E+01 0.440E+01 -.136E+00   0.344E-03 0.896E-03 -.118E-02
   0.468E+02 -.212E+02 0.563E+01   -.419E+02 0.185E+02 -.758E+01   -.928E+01 0.275E+01 -.856E+00   0.233E-03 -.109E-02 -.112E-02
   0.270E+02 -.311E+02 0.385E+02   -.279E+02 0.323E+02 -.394E+02   0.323E+01 -.230E+01 0.209E+01   -.406E-04 0.560E-03 0.716E-04
   -.158E+02 0.370E+02 0.697E+02   0.874E+01 -.325E+02 -.657E+02   0.685E+01 0.746E+00 -.322E+01   -.561E-04 -.548E-04 -.439E-03
   0.122E+02 0.482E+01 0.392E+02   -.795E+01 -.110E+01 -.393E+02   -.548E+01 -.422E+01 -.631E+01   -.232E-03 0.283E-03 0.205E-03
   -.220E+02 -.413E+02 0.159E+02   0.225E+02 0.440E+02 -.982E+01   -.338E+00 0.201E+01 -.864E+01   0.606E-03 0.262E-03 -.101E-02
   -.656E+02 0.381E+02 0.440E+01   0.660E+02 -.406E+02 0.124E+02   0.351E+01 0.468E+01 -.167E+02   -.135E-02 -.322E-03 -.104E-02
   0.874E+01 -.544E+02 0.458E+02   0.135E+01 0.679E+02 -.500E+02   -.121E+02 -.171E+02 0.459E+01   -.256E-03 0.172E-02 -.245E-03
   0.111E+02 0.146E+03 0.497E+02   -.184E+02 -.159E+03 -.687E+02   0.124E+01 0.788E+01 0.150E+02   0.230E-02 -.363E-03 0.790E-03
   0.499E+02 0.313E+01 -.315E+02   -.320E+02 -.245E+02 0.290E+02   -.203E+02 0.229E+02 0.300E+00   0.487E-03 0.127E-02 -.122E-02
   -.517E+02 0.872E+02 -.864E+02   0.676E+02 -.978E+02 0.942E+02   -.154E+02 0.651E+01 -.637E+01   -.173E-02 0.216E-02 0.640E-03
   0.771E+02 -.329E+01 -.516E+02   -.888E+02 0.254E+01 0.651E+02   0.118E+02 0.367E+00 -.138E+02   0.951E-04 0.133E-02 -.401E-03
[...]
   -.172E+02 0.576E+02 -.152E+01   -.191E+02 -.622E+02 0.212E+01   0.350E+02 0.492E+01 -.117E+00   -.886E-03 -.517E-04 -.103E-02
   -.155E+02 -.142E+03 0.417E+01   0.288E+02 0.138E+03 0.149E+02   -.141E+02 0.652E+01 -.203E+02   -.352E-03 -.137E-02 0.456E-03
   -.149E+02 -.409E+02 0.563E+02   0.368E+02 0.445E+02 -.687E+02   -.233E+02 -.342E+01 0.121E+02   -.306E-03 -.355E-03 0.658E-03
   0.327E+02 -.339E+02 0.100E+03   -.484E+02 0.603E+02 -.113E+03   0.180E+02 -.265E+02 0.119E+02   0.609E-03 -.225E-02 0.207E-02
   -.163E+02 0.465E+02 -.621E+02   0.321E+02 -.430E+02 0.681E+02   -.178E+02 -.521E+01 -.722E+01   -.275E-03 0.629E-03 0.555E-03
   -.301E+02 0.616E+02 0.441E+02   0.346E+02 -.458E+02 -.624E+02   -.251E+01 -.161E+02 0.189E+02   0.651E-03 -.466E-03 -.197E-03
   0.561E+02 0.355E+02 -.550E+02   -.502E+02 -.436E+02 0.716E+02   -.140E+01 0.629E+01 -.151E+02   -.137E-02 0.243E-02 0.266E-03
   0.286E+02 0.669E+02 0.761E+02   -.463E+02 -.596E+02 -.885E+02   0.184E+02 -.105E+02 0.955E+01   0.564E-03 0.393E-03 0.752E-03
   0.166E+02 0.523E+02 0.261E+02   -.322E+02 -.589E+02 -.264E+02   0.210E+02 0.356E+01 0.208E+01   -.835E-03 0.258E-02 0.154E-02
   0.795E+02 -.589E+02 -.118E+02   -.958E+02 0.778E+02 0.747E+01   0.163E+02 -.212E+02 0.844E+01   0.136E-02 -.105E-02 0.147E-02
   0.610E+02 0.225E+03 -.295E+02   -.738E+02 -.225E+03 0.396E+02   0.156E+02 -.289E+01 -.116E+02   0.191E-02 0.126E-02 0.389E-03
   -.105E+03 -.701E+02 0.836E+01   0.117E+03 0.651E+02 -.219E+02   -.121E+02 0.827E+01 0.145E+02   -.937E-04 -.823E-03 0.137E-02
   -.168E+01 0.108E+03 0.622E+02   0.254E+01 -.939E+02 -.731E+02   -.229E+01 -.164E+02 0.127E+02   0.437E-03 0.161E-02 -.133E-02
   -.970E+02 -.200E+02 -.483E+02   0.103E+03 0.583E+01 0.410E+02   -.308E+01 0.118E+02 0.512E+01   -.631E-03 0.881E-03 0.105E-02
   -.257E+02 0.540E+02 -.127E+02   -.369E-12 0.348E-12 -.313E-12   0.257E+02 -.540E+02 0.127E+02   -.900E-03 0.965E-02 0.344E-02

 POSITION                                       TOTAL-FORCE (eV/Angst)
      2.54602      3.49568      1.23689        -2.174426      0.320261      1.878974
      8.56964     11.64060      0.31719         4.565112      1.068277      0.043290
      1.18720      4.81109      9.65332         1.151663     -0.761030     -1.677968
      5.25854      9.85602      8.26912         2.119151      1.473295      0.409852
      4.86699      9.21545      4.14824        -0.924571      0.909515      2.489537
     11.03808     10.51900      6.80315         1.767237     -1.623070     -0.138319
      1.56194     10.83614      9.76693        -1.590412     -1.642297      0.444423
      9.54135      4.71094      2.93635         0.144978      1.086722     -0.673152
      8.56575      3.46729     11.94078        -2.485739     -1.444501      1.418702
      2.10646      3.58187      5.75931         1.192773      0.034269      2.386669
      5.20601      2.95890      1.32440         2.327511     -0.623033     -1.604445
     11.26478     10.49593      2.75358         0.229088     -1.923051     -0.198847
      9.58938     11.87069      8.52762        -0.693109      0.153866      2.563601
     11.58965      6.72824      0.75493        -0.310431      1.400103      2.531482
      1.45799     11.85607      1.41492         0.052050      1.497247     -1.619147
      9.72539      6.59762      7.65265         0.916502     -0.805425      1.318329
      6.26242      6.63201     10.01267        -0.892267      0.392424     -1.129838
      8.61582      8.06644     11.38735         0.325491      0.376146     -1.049578
      9.01848      2.75640      5.61739         1.485731      1.818919      1.107541
      3.58474      6.31996      3.40373         1.061612     -1.612092      0.756595
      7.49324      0.97039      3.01948         0.245404      0.405367     -0.296738
      1.69394     12.00341      5.12767        -1.813110     -0.754607     -0.433340
      5.04691      9.95763      0.97026        -0.916532     -0.151325     -1.425139
      7.95220      9.28369      2.59207        -0.244787      0.122037      0.454217
      5.76766      4.58777      5.85881        -1.207195      0.209321      1.508637
      2.95442      1.27842      7.85457        -1.052883      1.960517      1.741632
      8.20375      3.29085      8.56767         0.471210     -0.419782      0.204909
      2.03594      8.76877      1.62098         7.268080      1.361544      1.354459
     10.70350      1.68938     10.77858         3.562713      1.435454      1.268757
      3.23211      8.46548      9.98909        -5.199284     -3.714521     -2.945817
     12.08880      1.47323      7.97535        -0.149513     -1.293349      1.848701
     11.15480      1.63354      1.68511        -4.138215      2.189510     -1.518395
      6.27745      0.35155      8.51776        -3.549705      6.500380      1.084016
      5.13052      3.53200      9.80497         1.163637     -2.157429      1.915127
     10.84848      9.74170     11.69712         3.765267      2.949183      4.362362
     11.24063      4.70857      6.18379        -1.567470      3.576627      1.244957
      6.42765      7.44059      6.34131        -1.372100     -1.382918     -0.255055
      0.04000      8.31453      9.40948         0.023906      1.728911     -1.304882
     10.41747      7.50092      4.60486         2.005760     -1.953505     -1.167289
      3.27935      1.38304     10.84771        -3.864541      1.294290      0.993379
      8.52484      9.16410      5.69282        -2.685616      4.929891     -0.454917
      5.98296      7.16569      1.44622         5.299610      1.885275      4.767547
      6.27989      0.41857     11.51942        -7.074846     -2.333429     -2.931311
      7.92551      8.75202      8.52633         0.999327      8.943533      1.923679
      0.12032      3.66948      3.64116         4.894386     -1.872638      0.303570
      2.35530      6.51642      6.48372        -0.462478     -5.267847     -0.267865
      3.34077      6.22958     11.85481         3.620694      2.555571      0.763578
     10.69741      4.89874     10.94723        -2.046388      0.633705      1.482777
      4.82059     12.08669      3.57332         6.508828     -0.151947     -1.126105
      6.77906      4.52787      3.24921        -4.384784      0.007308     -2.806659
      5.62059      1.56125      6.08936         2.282543     -1.142489      1.115421
      1.27476      8.53646      4.59695        -0.181022      5.273424      0.741072
      2.81449      9.07395      7.08309        -1.263073     -0.494426     -6.379587
      9.54122     11.68307      4.45808         0.139504      4.804448     -2.577491
     11.87895      8.00955      5.00399         3.935524      2.240270      0.126836
      2.88002     10.33226      1.24173        -2.051729     -3.691476      0.423259
      5.05987      6.49020      0.49612        -6.147079     -5.085625     -3.960840
      6.05885      0.34740      5.03856        -2.355810      1.575924     -2.132944
     11.77107      8.73300     10.95234         0.528892     -4.045011      1.485522
      2.48175      1.76413      0.19450         0.084528     -0.386314     -0.353725
[...]
      2.94736      8.26273      3.08216        -3.099716      2.149709     -1.780943
      0.55408      8.46820      1.58141        -1.319452      0.349821      0.481506
      5.95023      3.49948     11.25293        -0.841654      2.484705     -1.252311
      4.21929      9.30065      6.29391        -1.447000      0.201860     -0.315406
      4.63478      4.92957      9.22768         2.348439     -0.087813     -0.795863
      9.41964      9.73716      8.48487        -2.118594     -1.660633     -1.195566
      6.73058      8.06746      0.30641         2.027125     -0.300944      0.555539
      4.53784      0.80523     11.53595         4.447293     -1.787007      1.607514
      6.98857      8.79537      5.11446         0.655252     -3.243686     -2.824296
      4.82092      0.61820      7.37169         5.381713     -2.998620      1.819965
      7.45363      9.46631      7.02318        -0.099133     -2.267715      4.123680
      5.42633      7.86258      7.78574         2.857884     -3.727865     -1.448750
     11.12233      3.32670     10.47811        -0.017731      3.255440      0.949120
      9.72925      8.96355      3.90079        -1.418368     -2.282926      1.792560
     11.40875      1.11936      9.52498         3.433444     -2.374028     -2.210392
    total drift:                                0.009941     -0.001730      0.007967

  FREE ENERGIE OF THE ION-ELECTRON SYSTEM (eV)
  free  energy   TOTEN  =      -924.85525226 eV

  energy  without entropy=     -924.85525226  energy(sigma->0) =     -924.85525226