 vasp.5.4.4.18Apr17-6-g9f103f2a35 (build Oct 31 2019 15:01:46) complex

 executed on             LinuxIFC date 2024.04.28  23:42:54

 INCAR:
 POTCAR:    PAW_PBE Ca_sv 06Sep2000
 POTCAR:    PAW_PBE Si 05Jan2001
 POTCAR:    PAW_PBE O 08Apr2002
 POTCAR:    PAW_PBE Ca_sv 06Sep2000
   VRHFIN =Ca: 3s3p4s

   TITEL  = PAW_PBE Ca_sv 06Sep2000
   POMASS =   40.078; ZVAL   =   10.000    mass and valenz
   ENMAX  =  266.622; ENMIN  =  199.967 eV

   TITEL  = PAW_PBE Si 05Jan2001
   POMASS =   28.085; ZVAL   =    4.000    mass and valenz
   ENMAX  =  245.345; ENMIN  =  184.009 eV

   TITEL  = PAW_PBE O 08Apr2002
   POMASS =   16.000; ZVAL   =    6.000    mass and valenz
   ENMAX  =  400.000; ENMIN  =  300.000 eV

 Optimization of the real space projectors (new method)

 maximal supplied QI-value         = 16.25
 optimisation between [QCUT,QGAM] = [ 12.51, 25.03] = [ 43.85,175.40] Ry
 Optimized for a Real-space Cutoff    1.47 Angstroem

   l    n(q)    QCUT    max X(q) W(low)/X(q) W(high)/X(q)  e(spline)
   0     11    12.514    11.817    0.25E-04    0.32E-05    0.87E-07
   0     11    12.514     8.461    0.39E-04    0.59E-05    0.18E-06
   1     11    12.514     3.957    0.97E-05    0.57E-05    0.28E-07
   1     11    12.514     4.314    0.42E-04    0.14E-04    0.23E-06
   2     10    12.514    14.565    0.79E-04    0.50E-03    0.16E-05
   2     10    12.514    14.552    0.75E-04    0.48E-03    0.15E-05
 Optimization of the real space projectors (new method)

[...]

   l    n(q)    QCUT    max X(q) W(low)/X(q) W(high)/X(q)  e(spline)
   0      9    12.501   159.560    0.10E-03    0.83E-04    0.71E-07
   0      9    12.501   115.863    0.99E-04    0.81E-04    0.70E-07
   1      8    12.501    88.339    0.20E-03    0.25E-03    0.76E-07
   1      8    12.501    48.592    0.20E-03    0.24E-03    0.75E-07
 Optimization of the real space projectors (new method)

 maximal supplied QI-value         = 24.76
 optimisation between [QCUT,QGAM] = [ 12.38, 25.00] = [ 42.90,175.06] Ry
 Optimized for a Real-space Cutoff    1.16 Angstroem

   l    n(q)    QCUT    max X(q) W(low)/X(q) W(high)/X(q)  e(spline)
   0      9    12.378    20.381    0.16E-03    0.67E-05    0.31E-06
   0      9    12.378    15.268    0.17E-03    0.81E-05    0.33E-06
   1      8    12.378     5.964    0.20E-03    0.16E-03    0.30E-06
   1      8    12.378     5.382    0.18E-03    0.14E-03    0.26E-06
  PAW_PBE Ca_sv 06Sep2000               :
  PAW_PBE Si 05Jan2001                  :
  PAW_PBE O 08Apr2002                   :

 POSCAR: Ca Si  O
  positions in direct lattice
 exchange correlation table for  LEXCH =        8
   RHO(1)=    0.500       N(1)  =     2000
   RHO(2)=  100.500       N(2)  =     4000

 ion  position               nearest neighbor table
   1  0.182  0.373  0.791-  85 2.12  32 3.14
   2  0.388  0.785  0.497-  64 1.88
   3  0.726  0.767  0.621-  99 1.89  71 2.27  36 3.14
   4  0.474  0.032  0.155- 129 2.06  75 2.38  67 2.51
   5  0.921  0.685  0.498-  99 1.95 119 2.24 130 2.33 109 2.52  47 2.98  51 3.03
   6  0.025  0.320  0.301- 113 2.23 103 2.24  80 2.30 111 2.42  14 2.93  39 3.07
   7  0.879  0.650  0.251- 119 2.08  76 2.20 126 2.55  47 2.74  42 2.76
   8  0.612  0.700  0.900- 134 2.17 124 2.34  87 2.49  71 2.56
   9  0.603  0.485  0.474-  68 2.04  55 2.26 101 2.46
  10  0.237  0.941  0.758-  59 2.09 110 2.22 128 2.27  41 2.86  45 3.07
  11  0.464  0.524  0.279-
  12  0.736  0.141  0.764-  56 2.09 132 2.31  97 2.45  28 2.72
  13  0.944  0.958  0.779- 132 2.16 128 2.33  86 2.47
  14  0.191  0.385  0.412-  66 2.27  80 2.30 108 2.41  54 2.82   6 2.93
  15  0.957  0.995  0.173-  84 1.91  49 2.93  30 3.10
  16  0.421  0.318  0.017- 102 2.23 125 2.50  70 2.53  35 3.05  43 3.12
  17  0.326  0.127  0.522- 120 2.15 133 2.42 116 2.45
  18  0.672  0.953  0.387- 106 2.25 114 2.43  83 2.52  47 3.08
  19  0.486  0.015  0.741-  56 2.08  28 2.84
  20  0.677  0.476  0.866- 134 2.20 100 2.23 135 2.42  77 2.53  31 2.98
  21  0.997  0.209  0.743- 132 2.07  96 2.35  50 2.96
  22  0.247  0.871  0.043- 129 2.40  81 2.42  95 2.53  26 3.16
  23  0.704  0.249  0.416-  94 2.29 101 2.32  88 2.32
  24  0.040  0.070  0.419-  84 2.00 122 2.33 116 2.33  45 2.75  50 2.78  49 2.82
  25  0.025  0.110  0.980-  57 2.21  95 2.23  48 2.91
  26  0.420  0.800  0.170-  67 2.28  74 2.31  62 2.53  22 3.16
  27  0.154  0.610  0.640-  92 2.04 104 2.53
  28  0.667  1.000  0.651- 131 1.50  56 1.62 114 1.63  12 2.72  19 2.84
  29  0.405  0.486  0.716- 115 1.50 112 1.56 104 1.64 118 1.76  54 2.97  35 3.00  36 3.01
  30  0.788  0.129  0.123-  69 1.71  57 1.79 117 2.11  75 2.34  43 2.88  49 3.09  15 3.10
  31  0.838  0.581  0.956- 127 1.53 107 1.64 134 1.65  77 1.66  38 2.61  20 2.98  42 3.02
  32  0.973  0.437  0.842-  78 1.66  85 1.71  90 1.84  77 1.94  51 3.12   1 3.14
  33  0.438  0.561  0.033-  62 1.62 124 1.67 102 1.69
  34  0.252  0.101  0.120-  73 1.50  98 1.76  91 1.85  81 2.14  95 2.38 125 2.40  48 2.60  37 2.86

  35  0.492  0.316  0.811-  58 1.58 135 1.71 112 1.77  97 2.22  29 3.00  16 3.05
  36  0.578  0.606  0.672-  55 1.51 115 1.62  71 1.66 100 1.68  29 3.01   3 3.14
  37  0.295  0.010  0.297- 133 1.55  67 1.75  81 1.83  98 1.95  34 2.86
  38  0.947  0.731  0.938- 127 1.56  86 1.66 121 1.76  89 1.95  42 2.40  31 2.61
  39  0.213  0.318  0.188- 103 1.58 125 1.65  80 1.86   6 3.07
  40  0.673  0.355  0.179-  61 1.61  94 1.65 117 1.75  70 1.76  43 2.53
  41  0.370  0.795  0.809-  82 1.57  93 1.72  87 1.85  10 2.86
  42  0.989  0.660  0.088- 126 1.39 121 1.86  89 1.92 107 2.15  38 2.40   7 2.76  31 3.02
  43  0.607  0.217  0.084-  60 1.62  75 1.65  70 1.72 117 1.80  40 2.53  30 2.88  16 3.12
  44  0.546  0.214  0.607-  88 1.48 120 1.67  97 1.85
  45  0.130  0.991  0.574- 110 1.53 122 1.57 116 1.73 128 1.87  52 2.57  24 2.75  10 3.07
  46  0.614  0.697  0.326- 105 1.51  74 1.66  76 1.74 106 1.83  47 2.37
  47  0.766  0.755  0.371- 106 1.49  72 1.64  76 1.85  99 1.99  46 2.37 119 2.50   7 2.74   5 2.98
                            18 3.08
  48  0.228  0.116  0.936-  65 1.63  59 1.64  91 1.69  95 1.96  34 2.60  25 2.91
  49  0.862  0.097  0.328-  63 1.56  83 1.60  84 1.69  69 2.19  24 2.82  15 2.93  30 3.09
  50  0.050  0.227  0.539- 113 1.46  79 1.56  96 1.73 116 2.23  24 2.78  21 2.96
  51  0.938  0.522  0.638-  92 1.46  90 1.71 123 1.78 109 1.90   5 3.03  32 3.12
  52  0.152  0.821  0.509-  64 1.52 130 1.66 122 1.72 110 2.51  45 2.57
  53  0.842  0.473  0.428- 123 1.54 101 1.61 111 1.66 119 1.85
  54  0.356  0.417  0.522-  66 1.51 108 1.65  68 1.69 118 1.81  14 2.82  29 2.97
  55  0.609  0.615  0.569-  36 1.51   9 2.26
  56  0.633  0.034  0.756-  28 1.62  19 2.08  12 2.09
  57  0.876  0.117  0.030-  30 1.79  25 2.21
  58  0.414  0.241  0.781-  35 1.58
  59  0.254  0.069  0.832-  48 1.64  10 2.09
  60  0.546  0.175  0.995-  43 1.62
  61  0.744  0.443  0.156-  40 1.61
  62  0.379  0.647  0.083-  33 1.62  26 2.53
  63  0.860  0.202  0.289-  49 1.56
  64  0.256  0.791  0.518-  52 1.52   2 1.88
  65  0.208  0.231  0.943-  48 1.63
  66  0.302  0.324  0.513-  54 1.51  14 2.27
  67  0.381  0.926  0.265-  37 1.75  26 2.28   4 2.51
  68  0.459  0.464  0.481-  54 1.69   9 2.04
  69  0.772  0.046  0.211-  30 1.71  49 2.19
  70  0.582  0.337  0.094-  43 1.72  40 1.76  16 2.53
  71  0.608  0.711  0.717-  36 1.66   3 2.27   8 2.56
  72  0.821  0.829  0.299-  47 1.64
  73  0.156  0.146  0.131-  34 1.50
  74  0.528  0.702  0.245-  46 1.66  26 2.31
  75  0.623  0.111  0.133-  43 1.65  30 2.34   4 2.38
  76  0.726  0.670  0.279-  46 1.74  47 1.85   7 2.20
  77  0.854  0.478  0.900-  31 1.66  32 1.94  20 2.53
  78  0.975  0.326  0.884-  32 1.66
  79  0.944  0.198  0.555-  50 1.56
  80  0.179  0.263  0.303-  39 1.86   6 2.30  14 2.30
  81  0.241  0.965  0.187-  37 1.83  34 2.14  22 2.42
  82  0.275  0.778  0.865-  41 1.57
  83  0.808  0.065  0.423-  49 1.60  18 2.52
  84  0.969  0.052  0.296-  49 1.69  15 1.91  24 2.00
  85  0.088  0.475  0.853-  32 1.71   1 2.12
  86  0.976  0.842  0.909-  38 1.66  13 2.47
  87  0.465  0.800  0.900-  41 1.85   8 2.49
  88  0.644  0.230  0.569-  44 1.48  23 2.32
  89  0.881  0.739  0.060-  42 1.92  38 1.95
  90  0.935  0.428  0.716-  51 1.71  32 1.84
  91  0.322  0.126  0.010-  48 1.69  34 1.85
  92  0.042  0.518  0.629-  51 1.46  27 2.04
  93  0.414  0.848  0.707-  41 1.72
  94  0.636  0.298  0.276-  40 1.65  23 2.29
  95  0.154  0.021  0.006-  48 1.96  25 2.23  34 2.38  22 2.53
  96  0.117  0.261  0.637-  50 1.73  21 2.35
  97  0.603  0.246  0.722-  44 1.85  35 2.22  12 2.45
  98  0.302  0.132  0.230-  34 1.76  37 1.95
  99  0.800  0.753  0.509-   3 1.89   5 1.95  47 1.99
 100  0.671  0.555  0.728-  36 1.68  20 2.23
 101  0.756  0.401  0.455-  53 1.61  23 2.32   9 2.46
 102  0.406  0.459  0.089-  33 1.69  16 2.23
 103  0.132  0.394  0.208-  39 1.58   6 2.24
 104  0.292  0.516  0.710-  29 1.64  27 2.53
 105  0.526  0.669  0.382-  46 1.51
 106  0.669  0.793  0.395-  47 1.49  46 1.83  18 2.25
 107  0.900  0.542  0.048-  31 1.64  42 2.15
[...]
 121  0.058  0.687  0.977-  38 1.76  42 1.86
 122  0.103  0.930  0.484-  45 1.57  52 1.72  24 2.33
 123  0.887  0.500  0.525-  53 1.54  51 1.78
 124  0.500  0.581  0.934-  33 1.67   8 2.34
 125  0.305  0.263  0.141-  39 1.65  34 2.40  16 2.50
 126  0.034  0.696  0.169-  42 1.39   7 2.55
 127  0.886  0.652  0.888-  31 1.53  38 1.56
 128  0.089  0.972  0.699-  45 1.87  10 2.27  13 2.33
 129  0.397  0.951  0.060-   4 2.06  22 2.40
 130  0.053  0.772  0.552-  52 1.66   5 2.33
 131  0.768  0.977  0.677-  28 1.50
 132  0.896  0.103  0.759-  21 2.07  13 2.16  12 2.31
 133  0.271  0.013  0.405-  37 1.55  17 2.42
 134  0.722  0.602  0.948-  31 1.65   8 2.17  20 2.20
 135  0.595  0.324  0.877-  35 1.71  20 2.42

IMPORTANT INFORMATION: All symmetrisations will be switched off!
NOSYMM: (Re-)initialisation of all symmetry stuff for point group C_1.

Automatic generation of k-mesh.
 generate k-points for:    2    2    2
Space group operators:
 irot       det(A)        alpha          n_x          n_y          n_z        tau_x        tau_y        tau_z
    1     1.000000     0.000000     1.000000     0.000000     0.000000     0.000000     0.000000     0.000000

 Subroutine IBZKPT returns following result:

 Found      8 irreducible k-points:

 Following reciprocal coordinates:
            Coordinates               Weight
  0.000000  0.000000  0.000000      1.000000
  0.500000  0.000000  0.000000      1.000000
  0.000000  0.500000  0.000000      1.000000
  0.500000  0.500000  0.000000      1.000000
  0.000000  0.000000  0.500000      1.000000
  0.500000  0.000000  0.500000      1.000000
  0.000000  0.500000  0.500000      1.000000
  0.500000  0.500000  0.500000      1.000000

 Following cartesian coordinates:
            Coordinates               Weight
  0.000000  0.000000  0.000000      1.000000
  0.035682  0.000000  0.000000      1.000000
  0.000000  0.035682  0.000000      1.000000
  0.035682  0.035682  0.000000      1.000000
  0.000000  0.000000  0.035682      1.000000
  0.035682  0.000000  0.035682      1.000000
  0.000000  0.035682  0.035682      1.000000
  0.035682  0.035682  0.035682      1.000000

 SYSTEM =  unknown system
 POSCAR =  Ca Si  O

 Startparameter for this run:
   NWRITE =      2    write-flag & timer
[...]
     0.000000000  0.000000000 14.012776000     0.000000000  0.000000000  0.071363447

  length of vectors
    14.012776000 14.012776000 14.012776000     0.071363447  0.071363447  0.071363447

 FORCES acting on ions
    electron-ion (+dipol)            ewald-force                    non-local-force                 convergence-correction
   -.124E+03 -.272E+02 -.160E+03   0.120E+03 0.309E+02 0.161E+03   0.381E+01 -.383E+01 -.131E+01   -.174E-02 -.152E-03 -.812E-03
   -.125E+03 0.448E+02 0.126E+03   0.123E+03 -.458E+02 -.125E+03   0.584E+01 0.524E+00 -.155E+01   -.147E-02 -.142E-02 -.157E-02
   -.337E+01 -.201E+03 -.245E+03   0.102E+01 0.196E+03 0.245E+03   0.228E+00 0.501E+01 0.305E+01   0.173E-02 0.104E-02 0.478E-03
   -.289E+03 0.283E+02 -.909E+02   0.285E+03 -.304E+02 0.845E+02   0.368E+01 0.279E+01 0.532E+01   -.115E-02 -.769E-03 -.171E-02
   -.329E+03 -.112E+03 0.876E+02   0.326E+03 0.109E+03 -.821E+02   0.566E+01 0.190E+00 -.376E+01   0.124E-02 -.267E-02 -.687E-03
   0.174E+03 -.132E+03 0.330E+03   -.173E+03 0.135E+03 -.326E+03   -.274E+01 -.214E+01 -.371E+01   0.208E-02 0.300E-02 0.105E-02
   -.247E+03 0.130E+02 0.262E+03   0.245E+03 -.151E+02 -.260E+03   0.283E+01 0.125E+01 -.332E+01   0.345E-02 -.106E-02 -.283E-02
   -.423E+02 -.361E+03 -.211E+03   0.385E+02 0.357E+03 0.209E+03   0.220E+01 0.469E+01 0.145E+01   0.245E-02 0.143E-02 0.322E-02
   -.321E+02 0.110E+03 0.132E+03   0.301E+02 -.107E+03 -.126E+03   0.350E+01 -.240E+01 -.475E+01   -.228E-03 -.435E-03 -.190E-03
   -.414E+02 0.215E+03 -.153E+03   0.368E+02 -.209E+03 0.151E+03   0.319E+01 -.543E+01 0.187E+01   0.164E-04 0.926E-03 0.134E-02
   0.197E+03 0.660E+02 0.130E+03   -.197E+03 -.618E+02 -.129E+03   -.489E+00 -.302E+01 -.491E+00   -.341E-02 0.120E-02 0.390E-03
   -.947E+02 -.100E+03 -.237E+03   0.969E+02 0.100E+03 0.236E+03   -.216E+00 0.243E+01 0.139E+01   -.256E-03 -.538E-03 0.275E-03
   0.125E+03 0.235E+03 -.139E+03   -.123E+03 -.231E+03 0.137E+03   -.186E+01 -.412E+01 0.129E+01   -.924E-03 -.266E-03 0.248E-02
   -.566E+02 -.318E+03 0.152E+03   0.602E+02 0.314E+03 -.149E+03   -.376E+01 0.407E+01 -.236E+01   -.123E-02 0.177E-02 -.513E-03
   -.708E+01 0.332E+03 0.246E+03   0.536E+01 -.331E+03 -.243E+03   0.148E+01 -.350E+01 -.564E+01   0.293E-03 -.149E-02 -.226E-02
   0.117E+03 -.110E+03 0.183E+02   -.116E+03 0.109E+03 -.130E+02   -.955E+00 -.468E+00 -.452E+01   -.120E-02 -.460E-03 -.117E-03
   -.163E+03 -.273E+02 0.459E+02   0.161E+03 0.284E+02 -.476E+02   -.284E+00 -.246E+00 0.107E+01   -.154E-02 0.238E-02 -.566E-04
   0.178E+03 -.106E+03 0.162E+03   -.174E+03 0.105E+03 -.158E+03   -.330E+01 0.171E+01 -.366E+01   0.479E-03 -.464E-03 -.221E-03
   0.812E+02 0.784E+02 -.138E+03   -.788E+02 -.788E+02 0.140E+03   -.442E+01 0.466E+00 -.941E+00   0.107E-02 0.879E-03 0.145E-02
   -.459E+02 0.163E+03 -.966E+02   0.464E+02 -.161E+03 0.937E+02   -.701E+00 -.301E+01 0.217E+01   0.226E-02 -.686E-03 0.314E-02
   0.347E+02 -.332E+02 -.157E+03   -.381E+02 0.342E+02 0.154E+03   0.338E+01 0.801E+00 0.192E+01   0.268E-03 0.126E-02 -.170E-03
   0.160E+03 0.396E+03 0.141E+02   -.157E+03 -.387E+03 -.146E+02   -.308E+01 -.690E+01 -.254E+00   -.125E-02 -.185E-02 0.119E-02
   0.968E+02 0.101E+03 0.349E+02   -.957E+02 -.957E+02 -.346E+02   0.385E-01 -.477E+01 -.505E+00   0.115E-02 0.917E-03 0.164E-02
   0.438E+02 0.136E+03 0.824E+02   -.415E+02 -.135E+03 -.818E+02   -.523E+00 0.612E-01 0.103E+01   0.167E-02 0.237E-02 0.390E-03
   0.185E+03 -.401E+02 0.341E+02   -.182E+03 0.421E+02 -.312E+02   -.222E+01 -.108E+00 -.279E+01   -.298E-03 -.587E-03 -.466E-03
   0.368E+01 0.171E+03 0.307E+02   -.714E+00 -.170E+03 -.309E+02   -.230E+01 -.815E+00 -.384E+00   -.228E-02 -.873E-03 -.538E-03
   -.151E+03 -.219E+03 -.537E+02   0.148E+03 0.211E+03 0.547E+02   0.392E+01 0.733E+01 -.380E+00   -.130E-02 -.248E-02 -.140E-02
   0.389E+02 0.348E+02 0.363E+02   -.282E+02 -.399E+02 -.336E+02   -.120E+02 0.383E+01 -.546E+01   -.368E-04 0.310E-03 0.865E-03
   0.786E+02 -.490E+02 -.605E+02   -.784E+02 0.485E+02 0.581E+02   -.682E+01 -.368E+01 -.815E-02   -.512E-03 -.417E-03 -.256E-03
   0.101E+02 0.481E+01 0.951E+02   -.826E+01 -.974E+01 -.936E+02   -.337E+01 0.622E+01 -.175E+01   0.200E-03 -.420E-03 -.810E-03
   0.133E+02 -.261E+02 -.985E+02   -.113E+02 0.220E+02 0.940E+02   -.485E+01 -.739E+00 0.642E+01   0.967E-03 0.615E-03 0.687E-03
   0.992E+01 -.582E+02 -.793E+02   -.289E+01 0.481E+02 0.811E+02   -.792E+01 0.835E+01 -.156E+01   0.837E-04 0.381E-03 0.408E-03
   0.407E+02 -.181E+02 -.219E+02   -.436E+02 0.227E+02 0.224E+02   0.202E+01 -.375E+01 -.134E+01   -.566E-03 0.472E-03 0.399E-03
   -.515E+02 0.619E+02 0.129E+02   0.391E+02 -.515E+02 -.768E+01   0.167E+02 -.119E+02 -.429E+01   -.655E-04 -.111E-03 0.400E-04
   0.562E+01 0.118E+02 -.316E+02   -.748E+01 -.182E+02 0.331E+02   0.686E+01 0.700E+01 -.243E+01   0.409E-05 -.595E-03 -.156E-03
   0.705E+02 -.136E+02 -.403E+02   -.594E+02 0.161E+02 0.345E+02   -.781E+01 -.207E+01 0.103E+02   -.110E-02 -.288E-03 -.714E-03
   -.160E+02 0.312E+02 -.273E+02   0.163E+02 -.336E+02 0.322E+02   0.690E+00 0.182E+01 -.116E+02   -.454E-03 -.115E-03 -.369E-03
   -.209E+02 -.879E+02 0.143E+02   0.233E+02 0.894E+02 -.150E+02   0.102E+01 0.368E+01 0.320E+01   -.111E-03 -.309E-03 0.956E-03
   -.321E+02 -.142E+03 0.912E+02   0.304E+02 0.142E+03 -.859E+02   0.185E+01 -.536E+01 -.210E+01   -.540E-03 0.100E-02 0.467E-03
   -.698E+00 -.901E+02 -.438E+02   0.596E+01 0.950E+02 0.442E+02   -.409E+01 -.382E+01 -.663E+00   0.584E-03 0.388E-03 -.387E-03
   -.132E+02 0.824E+02 0.376E+01   0.113E+02 -.792E+02 0.525E+01   0.888E+01 -.264E+01 -.547E+01   -.139E-03 0.120E-03 0.706E-03
   -.772E+02 0.929E+02 0.144E+02   0.844E+02 -.809E+02 -.313E+01   -.135E+02 -.155E+02 -.254E+02   0.450E-03 -.325E-03 0.146E-03
   -.163E+02 0.294E+02 -.366E+01   0.111E+02 -.360E+02 -.406E+01   0.521E+01 0.649E+01 0.516E+01   0.838E-04 -.539E-03 -.584E-03
   0.103E+03 -.312E+02 0.140E+02   -.871E+02 0.283E+02 -.182E+02   -.183E+02 0.213E+01 0.843E+01   -.186E-03 0.750E-04 0.532E-03
   0.111E+03 0.132E+02 -.490E+02   -.971E+02 -.158E+02 0.506E+02   -.137E+02 0.741E+01 0.518E+01   -.187E-04 0.808E-03 -.125E-03
   -.171E+02 -.116E+02 0.871E+02   0.126E+01 0.801E+01 -.880E+02   0.161E+02 0.488E+01 -.324E+01   -.653E-04 -.256E-03 -.399E-03
   -.803E+02 -.673E+01 0.268E+02   0.771E+02 0.180E+02 -.324E+02   0.120E+02 -.131E+02 0.555E+01   0.502E-03 -.615E-03 -.580E-03
   0.360E+02 0.220E+02 0.521E+02   -.301E+02 -.134E+02 -.553E+02   -.393E+01 -.825E+01 0.300E+01   -.498E-04 -.814E-05 0.265E-04
   0.506E+02 0.576E+02 0.197E+02   -.528E+02 -.474E+02 -.159E+02   0.275E+00 -.107E+02 -.528E+01   0.380E-03 0.310E-03 -.536E-04
   -.588E+02 0.190E+02 -.511E+02   0.447E+02 -.886E+01 0.488E+02   0.176E+02 -.112E+02 0.119E+02   0.458E-03 0.833E-03 -.133E-03
   0.105E+03 -.187E+02 -.489E+02   -.891E+02 0.185E+02 0.501E+02   -.234E+02 0.167E+01 -.322E+00   0.356E-03 -.127E-03 0.537E-04
   0.106E+02 0.106E+03 0.119E+03   -.118E+02 -.112E+03 -.113E+03   -.453E+01 0.745E+01 -.391E+01   0.645E-04 -.610E-03 -.930E-03
   0.656E+02 0.352E+02 0.122E+03   -.555E+02 -.393E+02 -.114E+03   -.668E+01 0.464E+01 -.103E+02   0.144E-02 0.411E-04 -.132E-03
   -.440E+02 -.328E+02 0.571E+02   0.373E+02 0.298E+02 -.594E+02   0.937E+01 0.729E+01 0.534E+01   -.102E-02 -.107E-03 -.551E-03
   0.172E+02 -.679E+02 0.104E+03   -.697E+01 0.750E+02 -.135E+03   -.935E+01 -.727E+01 0.249E+02   0.119E-03 -.399E-03 -.195E-02
   0.712E+01 0.122E+03 -.241E+03   -.980E+01 -.118E+03 0.269E+03   -.259E+00 -.420E+01 -.287E+02   -.110E-03 -.225E-03 0.102E-02
   0.107E+03 0.145E+02 0.874E+02   -.100E+03 -.119E+02 -.105E+03   -.979E+01 -.319E+01 0.221E+02   0.765E-04 -.111E-02 -.899E-03
   0.109E+03 0.110E+03 -.186E+02   -.134E+03 -.132E+03 0.835E+01   0.249E+02 0.214E+02 0.113E+02   -.427E-03 -.725E-03 -.430E-03
   -.636E+02 -.427E+02 0.434E+02   0.703E+02 0.404E+02 -.647E+02   -.674E+01 0.238E+01 0.221E+02   0.288E-03 0.599E-03 0.227E-03
   -.290E+02 0.166E+03 0.123E+03   0.153E+02 -.180E+03 -.149E+03   0.129E+02 0.156E+02 0.261E+02   -.308E-03 -.112E-02 -.117E-02
[...]
   0.105E+03 0.182E+03 0.183E+03   -.120E+03 -.182E+03 -.211E+03   0.128E+02 -.233E+01 0.246E+02   0.714E-03 0.230E-03 -.642E-03
   -.742E-01 0.500E+02 -.924E+02   0.884E+01 -.492E+02 0.100E+03   -.719E+01 0.176E+01 0.108E+01   0.138E-02 -.792E-03 -.315E-03
   0.103E+03 -.359E+02 -.660E+02   -.937E+02 0.383E+02 0.417E+02   -.100E+02 -.340E+01 0.271E+02   0.254E-03 0.377E-03 0.716E-03
   -.814E+02 -.185E+03 -.262E+02   0.101E+03 0.170E+03 0.198E+02   -.209E+02 0.199E+02 0.590E+01   -.798E-03 0.304E-03 0.242E-03
   -.263E+03 -.353E+02 -.134E+03   0.290E+03 0.556E+02 0.173E+03   -.221E+02 -.173E+02 -.267E+02   0.200E-02 -.159E-02 0.438E-03
   -.417E+02 -.127E+03 0.123E+03   0.386E+02 0.123E+03 -.162E+03   0.460E+01 0.758E+01 0.350E+02   0.613E-03 0.414E-03 0.950E-03
   0.114E+03 0.783E+02 -.857E+02   -.117E+03 -.797E+02 0.993E+02   0.190E+01 0.201E+01 -.165E+02   -.484E-03 0.101E-02 0.522E-03
   -.136E+03 0.117E+03 0.162E+03   0.136E+03 -.114E+03 -.170E+03   -.295E+00 -.524E+01 0.955E+01   -.211E-03 -.381E-03 -.642E-03
   -.639E+01 0.223E+02 -.942E+01   -.175E+02 -.294E+02 0.222E+02   0.273E+02 0.661E+01 -.139E+02   0.155E-03 -.155E-02 -.486E-03
   -.127E+03 0.124E+03 -.340E+02   0.164E+03 -.131E+03 0.432E+02   -.326E+02 0.555E+01 -.957E+01   -.189E-03 0.241E-03 0.151E-02
   0.838E+02 0.245E+02 -.836E+02   -.863E+02 -.253E+02 0.794E+02   0.186E+01 0.256E+00 0.603E+01   -.244E-03 0.217E-03 0.493E-03
   -.721E+02 0.102E+03 0.314E+02   0.624E+02 -.105E+03 0.712E+00   0.977E+01 0.313E+01 -.311E+02   -.848E-03 0.752E-03 -.119E-03
   0.353E+02 -.124E+03 -.194E+03   -.558E+02 0.129E+03 0.197E+03   0.212E+02 -.461E+01 -.165E+01   0.177E-02 0.134E-02 0.147E-02
   -.127E+03 0.562E+02 -.857E+02   0.147E+03 -.605E+02 0.984E+02   -.238E+02 0.514E+01 -.131E+02   0.408E-03 -.547E-03 -.168E-03
   0.101E+03 0.731E+02 0.101E+03   -.512E-12 0.107E-12 -.583E-12   -.101E+03 -.731E+02 -.101E+03   0.533E-02 0.544E-02 0.378E-02

 POSITION                                       TOTAL-FORCE (eV/Angst)
      2.54666      5.22549     11.08652         0.267501     -0.111311     -0.401136
      5.44028     11.00686      6.95906         4.516123     -0.469395     -0.182417
     10.16932     10.74994      8.69990        -2.116081     -0.943106      3.726396
      6.63746      0.45438      2.17721        -0.656082      0.691131     -1.079856
     12.90925      9.60482      6.98517         3.072936     -2.426231      1.674234
      0.35597      4.49101      4.22353        -2.033571      0.276117     -0.201708
     12.31790      9.10470      3.51751         0.527917     -0.800590     -1.872724
      8.58280      9.81441     12.60645        -1.590324      0.219967     -1.083757
      8.45277      6.79146      6.64082         1.545305      1.080527      1.393514
      3.32504     13.18020     10.62790        -1.398796     -0.296078     -0.125675
      6.50278      7.34249      3.90610        -0.299611      1.213533     -0.131999
     10.31901      1.96909     10.71227         1.962274      2.397151      0.713181
     13.22913     13.41763     10.91366         0.049914     -0.640786     -0.760940
      2.66956      5.39095      5.77886        -0.156164     -0.282116      1.023001
     13.41380     13.93754      2.42019        -0.236943     -2.249054     -3.151326
      5.89304      4.45664      0.23841        -0.058970     -1.417981      0.755484
      4.56541      1.78174      7.32000        -2.117416      0.827143     -0.648566
      9.41537     13.35863      5.42140         1.293680      0.791972      0.712023
      6.80808      0.21647     10.37904        -2.100427      0.056555      1.008022
      9.48208      6.67275     12.13925        -0.166881     -1.312009     -0.643071
     13.97680      2.93521     10.41082        -0.037747      1.756824     -0.657439
      3.45894     12.20034      0.60756         0.467667      1.828731     -0.727470
      9.86429      3.48903      5.83092         1.179941      0.778965     -0.181113
      0.55634      0.98126      5.86723         1.794753      0.757680      1.682042
      0.35261      1.54598     13.73277         0.989242      1.850260      0.137452
      5.88436     11.20993      2.37985         0.660349     -0.492583     -0.598053
      2.16205      8.54623      8.97420         0.702593     -0.953787      0.599704
      9.34380     14.00876      9.12205        -1.283789     -1.255810     -2.697736
      5.68088      6.81620     10.03740        -6.609210     -4.212689     -2.317951
     11.04547      1.80157      1.71831        -1.537460      1.289446     -0.254191
     11.73963      8.14614     13.40284        -2.841569     -4.810377      1.909745
     13.62868      6.11775     11.79188        -0.899438     -1.767037      0.208555
      6.14083      7.86308      0.46731        -0.920147      0.865734     -0.866894
      3.53589      1.42136      1.67524         4.292544     -1.462033      0.945286
      6.89906      4.42512     11.36865         5.000415      0.596411     -1.009409
      8.10399      8.49381      9.40999         3.284429      0.474003      4.456864
      4.14057      0.14446      4.16627         1.000631     -0.552971     -6.670976
     13.26586     10.24682     13.13972         3.444916      5.139752      2.456189
      2.98100      4.46264      2.63309         0.180825     -5.068200      3.192312
      9.42887      4.97469      2.51090         1.179040      1.039401     -0.274600
      5.18917     11.13436     11.33382         6.987384      0.557027      3.539084
     13.85897      9.25322      1.23011        -6.294605     -3.509986    -14.134681
      8.50567      3.03851      1.17798         0.019442     -0.089405     -2.550199
      7.65626      3.00113      8.51014        -2.564123     -0.723160      4.175163
      1.82683     13.88490      8.04319         0.313306      4.823882      6.824966
      8.60131      9.76016      4.57494         0.291347      1.278857     -4.185830
     10.73048     10.58255      5.19781         8.839210     -1.885084      0.007948
      3.19437      1.63000     13.11674         1.901120      0.307628     -0.243133
     12.07817      1.36536      4.59494        -1.881405     -0.572654     -1.489871
      0.70149      3.18694      7.55870         3.554070     -1.119073      9.540020
     13.14392      7.31325      8.94589        -7.140446      1.497697      0.902034
      2.12793     11.50400      7.13513        -5.780844      1.323378      1.594473
     11.79702      6.62703      5.99670         3.418062      0.561513     -2.263799
      4.99101      5.84206      7.32143         2.650063      4.340694      3.044464
      8.53834      8.62396      7.96728         0.887926     -0.176985     -5.703820
      8.86497      0.46997     10.59873        -2.936482     -0.553370     -0.529503
     12.26966      1.64624      0.42202        -2.523080     -0.666526      4.081827
      5.80011      3.37814     10.94420        -0.210418     -0.042192      0.984225
      3.55764      0.96970     11.66186        -0.088563      0.033934      0.765236
      7.65623      2.45824     13.94035        -0.758024      1.500792      0.568675
[...]
      0.80634      9.62022     13.69354        -3.571336     -0.508241      2.157470
      1.43896     13.03656      6.77595        -1.432570     -1.950856     -3.065545
     12.42369      7.00157      7.35033         1.579653      2.561083      8.800295
      7.00980      8.14606     13.08706        -0.744671     -0.948758      2.838258
      4.27456      3.68461      1.97328        -1.009218      4.187245     -0.523964
      0.48162      9.75377      2.36279         4.903988      3.000999     11.299033
     12.42221      9.13062     12.44698         1.418481      3.083249     -3.948038
      1.25212     13.61378      9.79943        -1.313262      0.644405     -2.792504
      5.56075     13.33092      0.84121        -0.497613     -2.396293      0.613893
      0.74402     10.81566      7.72811         3.408045     -0.503028     -1.082988
     10.76660     13.68626      9.49030         4.131568     -1.708393     -0.394897
     12.56219      1.43948     10.63308        -0.612726     -0.544062      1.793550
      3.79461      0.18517      5.67662         0.057896      0.539018      1.059343
     10.11969      8.44183     13.28082         0.824210      0.242326      1.062938
      8.34107      4.53954     12.28716        -2.929941      0.833395     -0.395854
    total drift:                               -0.014897     -0.002183     -0.009185

  FREE ENERGIE OF THE ION-ELECTRON SYSTEM (eV)
  free  energy   TOTEN  =      -878.00359642 eV

  energy  without entropy=     -877.99084380  energy(sigma->0) =     -877.99722011