 vasp.5.4.4.18Apr17-6-g9f103f2a35 (build Oct 31 2019 15:01:46) complex

 executed on             LinuxIFC date 2024.04.29  01:56:15

 INCAR:
 POTCAR:    PAW_PBE Ca_sv 06Sep2000
 POTCAR:    PAW_PBE Si 05Jan2001
 POTCAR:    PAW_PBE O 08Apr2002
 POTCAR:    PAW_PBE Ca_sv 06Sep2000
   VRHFIN =Ca: 3s3p4s

   TITEL  = PAW_PBE Ca_sv 06Sep2000
   POMASS =   40.078; ZVAL   =   10.000    mass and valenz
   ENMAX  =  266.622; ENMIN  =  199.967 eV

   TITEL  = PAW_PBE Si 05Jan2001
   POMASS =   28.085; ZVAL   =    4.000    mass and valenz
   ENMAX  =  245.345; ENMIN  =  184.009 eV

   TITEL  = PAW_PBE O 08Apr2002
   POMASS =   16.000; ZVAL   =    6.000    mass and valenz
   ENMAX  =  400.000; ENMIN  =  300.000 eV

 Optimization of the real space projectors (new method)

 maximal supplied QI-value         = 16.25
 optimisation between [QCUT,QGAM] = [ 12.51, 25.03] = [ 43.85,175.40] Ry
 Optimized for a Real-space Cutoff    1.47 Angstroem

   l    n(q)    QCUT    max X(q) W(low)/X(q) W(high)/X(q)  e(spline)
   0     11    12.514    11.817    0.25E-04    0.32E-05    0.87E-07
   0     11    12.514     8.461    0.39E-04    0.59E-05    0.18E-06
   1     11    12.514     3.957    0.97E-05    0.57E-05    0.28E-07
   1     11    12.514     4.314    0.42E-04    0.14E-04    0.23E-06
   2     10    12.514    14.565    0.79E-04    0.50E-03    0.16E-05
   2     10    12.514    14.552    0.75E-04    0.48E-03    0.15E-05
 Optimization of the real space projectors (new method)

[...]

   l    n(q)    QCUT    max X(q) W(low)/X(q) W(high)/X(q)  e(spline)
   0      9    12.501   159.560    0.10E-03    0.83E-04    0.71E-07
   0      9    12.501   115.863    0.99E-04    0.81E-04    0.70E-07
   1      8    12.501    88.339    0.20E-03    0.25E-03    0.76E-07
   1      8    12.501    48.592    0.20E-03    0.24E-03    0.75E-07
 Optimization of the real space projectors (new method)

 maximal supplied QI-value         = 24.76
 optimisation between [QCUT,QGAM] = [ 12.38, 25.00] = [ 42.90,175.06] Ry
 Optimized for a Real-space Cutoff    1.16 Angstroem

   l    n(q)    QCUT    max X(q) W(low)/X(q) W(high)/X(q)  e(spline)
   0      9    12.378    20.381    0.16E-03    0.67E-05    0.31E-06
   0      9    12.378    15.268    0.17E-03    0.81E-05    0.33E-06
   1      8    12.378     5.964    0.20E-03    0.16E-03    0.30E-06
   1      8    12.378     5.382    0.18E-03    0.14E-03    0.26E-06
  PAW_PBE Ca_sv 06Sep2000               :
  PAW_PBE Si 05Jan2001                  :
  PAW_PBE O 08Apr2002                   :

 POSCAR: Ca Si  O
  positions in direct lattice
 exchange correlation table for  LEXCH =        8
   RHO(1)=    0.500       N(1)  =     2000
   RHO(2)=  100.500       N(2)  =     4000

 ion  position               nearest neighbor table
   1  0.494  0.429  0.715- 101 2.24 119 2.32 127 2.33  11 2.98
   2  0.537  0.900  0.124- 123 1.80  45 3.07
   3  0.706  0.057  0.483- 133 1.81  52 2.90
   4  0.918  0.811  0.102- 114 2.11 111 2.26  70 2.37  56 2.54  53 3.12
   5  0.499  0.740  0.701- 113 2.05
   6  0.700  0.511  0.492- 127 2.14  73 2.28  59 2.47  50 3.13
   7  0.474  0.203  0.408- 107 2.35  80 2.46  65 2.47  36 3.05
   8  0.170  0.295  0.417-  90 2.13  66 2.34  94 2.50  42 3.07  28 3.13
   9  0.010  0.698  0.850- 111 2.17 103 2.25  49 2.99
  10  0.436  0.651  0.316- 120 2.34 100 2.38  99 2.52  45 2.89  33 3.06
  11  0.451  0.323  0.894- 119 2.10 122 2.20   1 2.98  43 3.08  48 3.15
  12  0.591  0.296  0.104-  78 1.87  95 2.02  85 2.48  35 3.10
  13  0.796  0.314  0.682-  81 1.74  68 2.03
  14  0.237  0.972  0.405- 106 2.30  93 2.33 115 2.34  28 2.95  47 2.97  19 3.05
  15  0.989  1.000  0.615-
  16  0.918  0.166  0.884-  92 2.13  88 2.34  39 2.68
  17  0.345  0.395  0.240-  99 1.99
  18  0.869  0.979  0.290- 104 2.28 109 2.28  47 3.07
  19  0.190  0.828  0.249-  89 2.17  67 2.18  41 2.72  14 3.05
  20  0.811  0.197  0.244-  85 2.14 128 2.19 109 2.42  55 2.48  29 2.56  32 2.90
  21  0.565  0.838  0.488- 125 2.18 132 2.26 100 2.35
  22  0.886  0.413  0.986-  76 2.00  88 2.15  38 2.90
  23  0.223  0.138  0.689-  90 2.51 135 2.52
  24  0.281  0.884  0.843- 129 2.17 124 2.34
  25  0.663  0.746  0.967-  74 2.24 116 2.38  51 3.10
  26  0.130  0.384  0.661-  66 2.19  63 2.36  90 2.54  42 3.09
  27  0.765  0.668  0.333-  59 2.37
  28  0.247  0.138  0.276- 105 1.63 115 1.63  57 1.68  60 1.69  30 2.76  14 2.95   8 3.13  47 3.14

  29  0.826  0.379  0.242- 128 1.52  85 1.60  86 1.81 117 2.14  20 2.56  35 2.99
  30  0.283  0.136  0.083- 105 1.64  91 1.69  96 1.84  72 1.95  48 2.52  54 2.65  28 2.76
  31  0.179  0.611  0.076- 108 1.72  89 2.07
  32  0.632  0.094  0.255- 109 1.50  78 1.75  65 1.83  79 1.92  20 2.90
  33  0.320  0.527  0.454- 126 1.58  94 1.64  99 1.73  83 1.91  50 2.50  10 3.06
  34  0.370  0.934  0.632- 132 1.65 131 1.77  64 1.95
  35  0.626  0.454  0.254- 112 1.54  73 1.64 102 2.14  86 2.40  29 2.99  12 3.10
  36  0.452  0.150  0.617- 130 1.69 107 1.70  64 1.78 101 1.96  37 2.84   7 3.05
  37  0.339  0.315  0.589-  63 1.80  90 1.96 101 2.07  80 2.07  94 2.27 107 2.47  36 2.84
  38  0.019  0.456  0.139-  61 1.46  76 1.71 117 1.80 108 2.45  22 2.90
  39  0.746  0.212  0.954-  88 1.54  55 1.72 134 1.78  95 1.99  43 2.59  16 2.68
  40  0.467  0.499  0.055-  82 1.45 102 1.86  75 2.04 120 2.05  45 2.81
  41  0.250  0.739  0.410-  87 1.55  67 1.62 126 1.87 106 1.88  19 2.72
  42  0.001  0.246  0.548-  66 1.61 135 1.75  58 1.85  68 1.88   8 3.07  26 3.09
  43  0.667  0.356  0.869-  81 1.66 119 1.68  95 1.77  97 1.86  88 2.40  39 2.59  11 3.08
  44  0.765  0.701  0.601- 110 1.40  59 1.59  62 1.64  77 1.76  52 2.88  51 3.11
  45  0.476  0.689  0.117- 120 1.44  74 1.65 123 1.69  84 2.19  40 2.81  10 2.89  46 3.02   2 3.07

  46  0.382  0.695  0.923- 113 1.66  98 1.68  75 1.82  84 1.89  45 3.02
  47  0.053  0.071  0.366- 118 1.48  93 1.63  57 1.92  58 2.44  14 2.97  18 3.07  28 3.14
  48  0.308  0.150  0.905- 122 1.53  72 1.71 129 1.86  96 2.16  30 2.52  11 3.15
  49  0.018  0.910  0.876-  71 1.58 124 1.77  69 1.92 111 1.94  53 2.91   9 2.99
  50  0.483  0.460  0.485-  83 1.49  80 1.60 127 2.08  33 2.50   6 3.13
  51  0.759  0.624  0.810- 103 1.63 116 1.74 110 1.86  97 2.43  25 3.10  44 3.11
  52  0.800  0.873  0.494- 104 1.61 133 1.62 125 1.79  77 1.85  44 2.88   3 2.90
  53  0.033  0.998  0.063-  56 1.50 121 1.60  69 1.64  91 2.35  49 2.91   4 3.12
  54  0.117  0.220  0.048-  92 1.80  91 2.24  96 2.42  30 2.65
  55  0.782  0.216  0.071-  39 1.72  20 2.48
  56  0.929  0.991  0.088-  53 1.50   4 2.54
  57  0.150  0.067  0.270-  28 1.68  47 1.92
  58  0.943  0.155  0.471-  42 1.85  47 2.44
  59  0.793  0.660  0.499-  44 1.59  27 2.37   6 2.47
  60  0.216  0.250  0.240-  28 1.69
  61  0.007  0.529  0.213-  38 1.46
  62  0.649  0.705  0.585-  44 1.64
  63  0.298  0.401  0.674-  37 1.80  26 2.36
  64  0.398  0.059  0.687-  36 1.78  34 1.95
  65  0.640  0.183  0.351-  32 1.83   7 2.47
  66  0.057  0.345  0.529-  42 1.61  26 2.19   8 2.34
  67  0.252  0.697  0.303-  41 1.62  19 2.18
  68  0.915  0.333  0.601-  42 1.88  13 2.03
  69  0.076  0.006  0.955-  53 1.64  49 1.92
  70  0.764  0.852  0.160- 114 1.26   4 2.37
  71  0.950  0.959  0.801-  49 1.58
  72  0.388  0.120  0.993-  48 1.71  30 1.95
  73  0.642  0.531  0.342-  35 1.64   6 2.28
  74  0.535  0.664  0.018-  45 1.65  25 2.24
  75  0.395  0.568  0.950-  46 1.82  40 2.04
  76  0.999  0.491  0.025-  38 1.71  22 2.00
  77  0.855  0.784  0.574-  44 1.76  52 1.85
  78  0.616  0.180  0.166-  32 1.75  12 1.87
  79  0.516  0.026  0.283-  32 1.92
  80  0.436  0.356  0.486-  50 1.60  37 2.07   7 2.46
  81  0.699  0.322  0.760-  43 1.66  13 1.74
  82  0.429  0.403  0.065-  40 1.45
  83  0.419  0.518  0.548-  50 1.49  33 1.91
  84  0.436  0.789  0.003-  46 1.89  45 2.19
  85  0.746  0.322  0.186-  29 1.60  20 2.14  12 2.48
  86  0.791  0.502  0.254-  29 1.81  35 2.40
  87  0.331  0.813  0.392-  41 1.55
  88  0.816  0.292  0.924-  39 1.54  22 2.15  16 2.34  43 2.40
  89  0.150  0.748  0.121-  31 2.07  19 2.17
  90  0.214  0.260  0.558-  37 1.96   8 2.13  23 2.51  26 2.54
  91  0.182  0.074  0.060-  30 1.69  54 2.24  53 2.35
  92  0.013  0.241  0.977-  54 1.80  16 2.13
  93  0.101  0.044  0.469-  47 1.63  14 2.33
  94  0.288  0.416  0.473-  33 1.64  37 2.27   8 2.50
  95  0.624  0.284  0.964-  43 1.77  39 1.99  12 2.02
  96  0.284  0.251  0.019-  30 1.84  48 2.16  54 2.42
  97  0.732  0.471  0.886-  43 1.86  51 2.43
  98  0.265  0.715  0.934-  46 1.68
  99  0.363  0.489  0.345-  33 1.73  17 1.99  10 2.52
 100  0.500  0.685  0.470-  21 2.35  10 2.38
 101  0.466  0.283  0.656-  36 1.96  37 2.07   1 2.24
 102  0.588  0.486  0.110-  40 1.86  35 2.14
 103  0.863  0.636  0.860-  51 1.63   9 2.25
 104  0.889  0.889  0.424-  52 1.61  18 2.28
 105  0.314  0.100  0.190-  28 1.63  30 1.64
[...]
 121  0.072  0.939  0.153-  53 1.60
 122  0.328  0.239  0.846-  48 1.53  11 2.20
 123  0.523  0.783  0.176-  45 1.69   2 1.80
 124  0.118  0.867  0.811-  49 1.77  24 2.34
 125  0.702  0.851  0.415-  52 1.79  21 2.18
 126  0.256  0.619  0.467-  33 1.58  41 1.87
 127  0.594  0.450  0.583-  50 2.08   6 2.14   1 2.33
 128  0.857  0.321  0.328-  29 1.52  20 2.19
 129  0.255  0.030  0.887-  48 1.86  24 2.17
 130  0.570  0.130  0.600-  36 1.69
 131  0.260  0.977  0.588-  34 1.77
 132  0.482  0.904  0.610-  34 1.65  21 2.26
 133  0.790  0.978  0.542-  52 1.62   3 1.81
 134  0.741  0.105  0.886-  39 1.78
 135  0.061  0.204  0.649-  42 1.75  23 2.52

IMPORTANT INFORMATION: All symmetrisations will be switched off!
NOSYMM: (Re-)initialisation of all symmetry stuff for point group C_1.

Automatic generation of k-mesh.
 generate k-points for:    2    2    2
Space group operators:
 irot       det(A)        alpha          n_x          n_y          n_z        tau_x        tau_y        tau_z
    1     1.000000     0.000000     1.000000     0.000000     0.000000     0.000000     0.000000     0.000000

 Subroutine IBZKPT returns following result:

 Found      8 irreducible k-points:

 Following reciprocal coordinates:
            Coordinates               Weight
  0.000000  0.000000  0.000000      1.000000
  0.500000  0.000000  0.000000      1.000000
  0.000000  0.500000  0.000000      1.000000
  0.500000  0.500000  0.000000      1.000000
  0.000000  0.000000  0.500000      1.000000
  0.500000  0.000000  0.500000      1.000000
  0.000000  0.500000  0.500000      1.000000
  0.500000  0.500000  0.500000      1.000000

 Following cartesian coordinates:
            Coordinates               Weight
  0.000000  0.000000  0.000000      1.000000
  0.035682  0.000000  0.000000      1.000000
  0.000000  0.035682  0.000000      1.000000
  0.035682  0.035682  0.000000      1.000000
  0.000000  0.000000  0.035682      1.000000
  0.035682  0.000000  0.035682      1.000000
  0.000000  0.035682  0.035682      1.000000
  0.035682  0.035682  0.035682      1.000000

 SYSTEM =  unknown system
 POSCAR =  Ca Si  O

 Startparameter for this run:
   NWRITE =      2    write-flag & timer
   PREC   = a         normal or accurate (medium, high low for compatibility)
   ISTART =      0    job   : 0-new  1-cont  2-samecut
   ICHARG =      2    charge: 1-file 2-atom 10-const
   ISPIN  =      1    spin polarized calculation?
[...]
     0.000000000  0.000000000 14.012776000     0.000000000  0.000000000  0.071363447

  length of vectors
    14.012776000 14.012776000 14.012776000     0.071363447  0.071363447  0.071363447

 FORCES acting on ions
    electron-ion (+dipol)            ewald-force                    non-local-force                 convergence-correction
   0.561E+02 -.265E+03 -.129E+03   -.522E+02 0.262E+03 0.124E+03   -.329E+01 0.369E+01 0.312E+01   -.311E-04 0.129E-02 -.306E-02
   -.171E+02 -.296E+03 0.236E+03   0.148E+02 0.298E+03 -.232E+03   0.229E+01 0.458E+01 -.542E+01   0.173E-03 -.211E-02 0.134E-02
   0.668E+02 -.140E+03 -.199E+03   -.705E+02 0.144E+03 0.199E+03   -.163E+01 0.167E+01 -.271E+01   -.456E-03 -.166E-02 0.184E-02
   -.865E+02 0.258E+03 0.258E+02   0.880E+02 -.254E+03 -.303E+02   0.589E+00 -.258E+01 0.404E+01   -.274E-02 -.167E-03 0.570E-03
   0.492E+02 -.330E+02 -.617E+02   -.485E+02 0.341E+02 0.627E+02   0.103E+01 -.107E+01 -.268E+01   -.696E-03 0.367E-03 -.762E-02
   -.354E+03 0.109E+03 -.126E+03   0.350E+03 -.105E+03 0.126E+03   0.468E+01 -.259E+01 -.257E+00   -.292E-02 0.313E-02 0.112E-02
   -.141E+03 0.863E+02 0.772E+02   0.142E+03 -.884E+02 -.749E+02   -.655E+00 0.135E+01 -.260E+01   -.182E-02 0.496E-03 0.343E-02
   0.269E+03 -.234E+03 0.205E+03   -.266E+03 0.236E+03 -.200E+03   -.206E+01 -.106E+01 -.574E+01   -.119E-02 0.780E-03 0.431E-02
   -.162E+03 0.239E+03 0.288E+03   0.159E+03 -.233E+03 -.282E+03   0.400E+01 -.486E+01 -.522E+01   -.106E-02 0.825E-03 -.481E-02
   -.861E+01 -.167E+03 0.663E+01   0.680E+01 0.167E+03 -.101E+01   0.144E+01 0.562E+00 -.366E+01   0.395E-02 0.221E-02 0.122E-01
   0.178E+03 0.626E+02 0.507E+02   -.178E+03 -.629E+02 -.481E+02   -.102E+01 -.835E+00 -.538E+00   -.285E-03 0.191E-03 -.265E-02
   0.175E+03 0.235E+02 0.562E+02   -.171E+03 -.245E+02 -.539E+02   -.494E+01 0.443E+01 -.670E+00   -.446E-02 0.532E-02 -.887E-03
   -.177E+03 0.250E+02 0.132E+03   0.182E+03 -.244E+02 -.137E+03   -.185E+00 -.167E+01 -.296E+00   0.332E-02 0.147E-02 -.495E-02
   -.939E+02 0.214E+03 -.666E+02   0.926E+02 -.214E+03 0.737E+02   0.225E+01 -.722E+00 -.465E+01   0.125E-02 -.873E-03 0.435E-02
   0.705E+02 0.210E+03 -.208E+03   -.713E+02 -.209E+03 0.206E+03   0.433E+00 -.949E+00 0.121E+01   0.136E-02 -.257E-03 -.131E-02
   -.838E+02 0.167E+03 0.291E+03   0.835E+02 -.167E+03 -.285E+03   0.559E+00 -.204E+01 -.571E+01   0.219E-02 -.930E-03 -.443E-02
   0.250E+03 0.416E+02 0.205E+03   -.249E+03 -.397E+02 -.205E+03   -.761E+00 -.311E+01 -.290E+01   0.119E-02 0.515E-03 0.356E-02
   -.759E+02 0.171E+03 0.117E+02   0.735E+02 -.173E+03 -.109E+02   0.214E+01 0.104E+01 -.161E+01   -.242E-03 -.120E-02 0.344E-02
   0.950E+02 0.586E+02 0.968E+02   -.977E+02 -.659E+02 -.101E+03   0.163E+01 0.718E+01 0.218E+01   0.242E-02 0.142E-02 0.672E-02
   -.195E+03 0.124E+03 -.875E+02   0.192E+03 -.120E+03 0.859E+02   0.293E+01 -.506E+01 0.973E+00   0.259E-02 -.516E-03 0.732E-02
   0.774E+02 -.130E+03 -.352E+02   -.763E+02 0.123E+03 0.353E+02   -.177E+01 0.496E+01 -.607E+00   -.453E-02 -.973E-02 0.153E-02
   -.160E+03 -.252E+03 0.163E+03   0.161E+03 0.252E+03 -.162E+03   -.237E+01 0.227E+00 -.400E+00   -.194E-03 0.247E-02 -.212E-02
   0.151E+03 0.107E+03 -.271E+03   -.150E+03 -.108E+03 0.265E+03   -.922E+00 -.288E+00 0.414E+01   0.102E-02 -.121E-02 -.282E-02
   -.774E+02 0.145E+03 0.957E+02   0.715E+02 -.144E+03 -.939E+02   0.465E+01 -.181E+01 -.116E+01   0.179E-02 0.148E-02 -.662E-02
   -.191E+03 -.216E+03 0.157E+03   0.187E+03 0.209E+03 -.158E+03   0.367E+01 0.562E+01 0.128E+01   -.428E-03 -.562E-03 -.885E-03
   0.237E+03 -.502E+03 -.397E+03   -.233E+03 0.496E+03 0.388E+03   -.314E+01 0.502E+01 0.710E+01   -.160E-02 -.322E-03 -.490E-02
   -.284E+03 -.607E+02 0.115E+03   0.284E+03 0.571E+02 -.109E+03   0.697E+00 0.310E+01 -.449E+01   -.333E-02 0.274E-03 0.325E-02
   -.147E+02 -.178E+02 0.390E+02   0.151E+02 0.183E+02 -.358E+02   -.169E+01 0.118E+01 -.266E+01   -.221E-04 0.428E-04 0.117E-02
   -.112E+03 -.176E+03 -.164E+02   0.108E+03 0.165E+03 0.268E+02   0.581E+01 0.163E+02 -.115E+02   0.412E-04 0.119E-02 0.194E-02
   -.493E+02 0.472E+01 0.400E+02   0.446E+02 -.757E+01 -.392E+02   0.571E+01 0.304E+01 -.311E+01   0.496E-04 0.614E-04 0.169E-04
   0.467E+02 -.236E+02 0.929E+02   -.466E+02 0.198E+02 -.914E+02   -.572E+00 0.500E+01 0.672E+00   0.624E-03 -.389E-03 0.785E-03
   0.107E+03 0.970E+02 0.253E+02   -.101E+03 -.949E+02 -.252E+02   -.149E+02 0.301E+01 0.173E+01   0.401E-04 -.162E-02 0.202E-02
   0.132E+03 -.129E+03 -.754E+02   -.138E+03 0.123E+03 0.735E+02   0.628E+01 0.268E+01 0.251E+01   0.132E-02 0.153E-02 0.959E-03
   0.340E+02 0.130E+03 -.751E+02   -.339E+02 -.131E+03 0.758E+02   -.130E+01 0.491E+01 -.638E+00   -.159E-03 -.123E-02 -.297E-03
   -.132E+03 -.248E+02 0.382E+02   0.118E+03 0.256E+02 -.282E+02   0.158E+02 0.177E+01 -.118E+02   -.579E-03 0.141E-02 0.151E-02
   -.882E+02 0.553E+02 -.118E+03   0.921E+02 -.604E+02 0.110E+03   -.148E+01 0.403E+01 0.760E+01   -.578E-03 -.612E-03 -.130E-03
   0.169E+02 -.356E+01 -.737E+02   -.230E+02 0.780E+01 0.796E+02   0.444E+01 -.178E+01 -.664E+01   -.220E-03 0.154E-03 -.294E-03
   -.108E+03 0.321E+01 0.276E+02   0.976E+02 0.115E+02 -.170E+02   0.978E+01 -.187E+02 -.148E+02   -.497E-03 -.516E-03 0.109E-02
   0.751E+02 0.169E+03 0.806E+02   -.644E+02 -.171E+03 -.774E+02   -.139E+02 -.477E+01 0.139E+01   -.122E-02 0.358E-04 -.370E-02
   0.344E+02 -.114E+03 0.986E+02   -.367E+02 0.959E+02 -.953E+02   0.778E+01 0.278E+02 -.387E+01   0.546E-03 0.160E-03 0.195E-03
   0.151E+03 0.808E+02 -.198E+03   -.144E+03 -.715E+02 0.183E+03   -.995E+01 -.967E+01 0.159E+02   0.191E-02 -.274E-03 0.204E-02
   0.121E+03 0.132E+02 -.389E+01   -.118E+03 -.621E+01 0.751E+01   -.649E+01 -.712E+01 -.116E+01   -.142E-03 0.225E-02 0.434E-03
   -.659E+02 0.828E+01 0.390E+02   0.597E+02 -.258E+01 -.464E+02   0.615E+01 -.804E+00 0.689E+01   -.761E-03 0.770E-03 -.170E-02
   -.939E+02 -.708E+02 -.800E+02   0.920E+02 0.625E+02 0.781E+02   -.586E+00 0.157E+02 -.918E+01   -.195E-02 -.205E-03 -.508E-03
   0.463E+02 -.106E+03 0.155E+02   -.407E+02 0.978E+02 -.181E+02   -.116E-01 0.192E+02 -.567E+01   0.741E-03 -.121E-03 0.118E-02
   0.404E+02 0.282E+02 0.513E+02   -.493E+02 -.235E+02 -.549E+02   0.812E+01 -.411E+01 0.534E+01   0.150E-02 0.171E-03 -.148E-02
   0.567E+02 0.639E+02 -.657E+02   -.587E+02 -.573E+02 0.598E+02   0.641E+01 -.652E+01 0.908E+01   0.308E-03 0.165E-03 0.138E-02
   0.411E+02 0.669E+02 0.506E+02   -.341E+02 -.630E+02 -.520E+02   -.711E+01 -.978E+01 0.534E+01   0.129E-03 -.193E-03 -.108E-02
   0.570E+02 0.561E+02 0.322E+02   -.564E+02 -.535E+02 -.433E+02   0.431E+01 -.359E+01 0.121E+02   0.162E-03 0.434E-04 -.132E-02
   -.150E+03 -.582E+02 0.578E+02   0.139E+03 0.560E+02 -.458E+02   0.168E+02 -.147E+01 -.122E+02   0.353E-04 0.250E-02 0.362E-03
   -.297E+02 0.420E+02 0.817E+00   0.352E+02 -.322E+02 0.143E+01   -.575E+01 -.848E+01 -.499E+01   -.496E-03 0.152E-03 -.141E-02
   -.228E+02 0.815E+02 -.110E+03   0.304E+02 -.752E+02 0.103E+03   -.584E+01 -.897E+01 0.508E+01   -.741E-03 -.591E-03 0.223E-03
   -.229E+02 -.427E+02 0.682E+02   0.129E+02 0.314E+02 -.625E+02   0.152E+02 0.100E+02 -.505E+01   0.204E-03 0.358E-03 -.491E-03
   0.191E+01 -.926E+02 0.256E+02   -.403E+01 0.971E+02 -.201E+02   -.453E+00 -.360E+01 -.650E+01   0.673E-03 -.318E-03 0.706E-05
   -.979E+02 0.159E+03 0.741E+02   0.105E+03 -.157E+03 -.530E+02   -.773E+01 -.406E+01 -.240E+02   0.849E-03 0.278E-04 0.528E-03
   0.186E+03 -.279E+02 0.109E+03   -.224E+03 0.286E+02 -.101E+03   0.314E+02 -.558E-01 -.859E+01   -.107E-03 -.565E-03 0.553E-04
   0.506E+02 0.802E+02 0.965E+02   -.656E+02 -.930E+02 -.117E+03   0.164E+02 0.115E+02 0.239E+02   0.491E-03 0.498E-03 0.205E-02
   0.135E+03 -.295E+02 -.711E+02   -.148E+03 0.202E+02 0.589E+02   0.155E+02 0.114E+02 0.147E+02   0.761E-03 0.120E-02 0.155E-02
   -.298E+03 0.102E+03 0.224E+02   0.310E+03 -.106E+03 -.421E+02   -.126E+02 -.419E+00 0.152E+02   -.235E-02 -.199E-03 0.588E-03
   0.112E+03 -.182E+03 0.121E+03   -.122E+03 0.203E+03 -.133E+03   0.112E+02 -.202E+02 0.141E+02   0.232E-03 -.284E-03 0.170E-02
[...]
   0.115E+03 -.681E+02 0.783E+02   -.113E+03 0.970E+02 -.971E+02   -.225E+01 -.280E+02 0.152E+02   0.341E-03 -.412E-03 -.171E-02
   -.329E+02 -.122E+02 -.113E+03   0.428E+02 0.211E+02 0.129E+03   -.117E+02 -.165E+02 -.140E+02   0.336E-03 -.988E-03 0.240E-02
   0.457E+01 0.156E+03 0.188E+03   0.943E+01 -.161E+03 -.201E+03   -.161E+02 0.495E+01 0.142E+02   0.833E-03 0.359E-03 -.275E-02
   0.313E+00 0.272E+02 0.914E+02   -.106E+02 -.299E+02 -.109E+03   0.123E+02 0.326E+01 0.197E+02   -.218E-02 -.208E-02 0.167E-02
   0.306E+03 -.818E+02 -.228E+03   -.326E+03 0.905E+02 0.239E+03   0.207E+02 -.628E+01 -.107E+02   0.256E-02 0.784E-03 0.167E-02
   -.150E+03 0.116E+02 -.886E+02   0.156E+03 -.151E+02 0.967E+02   -.775E+01 0.367E+01 -.993E+01   -.735E-03 0.237E-02 -.857E-03
   -.145E+03 -.124E+03 -.297E+03   0.159E+03 0.109E+03 0.331E+03   -.138E+02 0.143E+02 -.304E+02   0.783E-03 0.836E-03 0.316E-02
   -.122E+02 0.446E+02 0.424E+02   0.138E+01 -.578E+02 -.379E+02   0.126E+02 0.184E+02 -.608E+01   0.624E-03 -.168E-03 -.220E-02
   -.211E+03 0.919E+02 -.149E+03   0.236E+03 -.946E+02 0.150E+03   -.271E+02 0.255E+01 -.264E+01   -.110E-02 -.622E-03 -.448E-04
   0.988E+02 0.202E+03 -.111E+03   -.117E+03 -.197E+03 0.104E+03   0.211E+02 -.680E+01 0.717E+01   0.169E-02 -.179E-02 0.904E-03
   -.597E+02 -.155E+02 -.137E+03   0.825E+02 0.160E+02 0.137E+03   -.243E+02 -.147E+01 0.174E+00   -.226E-02 -.264E-02 -.732E-03
   -.828E+02 -.237E+01 -.328E+03   0.893E+02 0.192E+02 0.345E+03   -.328E+01 -.198E+02 -.125E+02   -.448E-03 -.708E-03 -.135E-03
   0.110E+03 0.297E+03 0.154E+03   -.115E+03 -.320E+03 -.166E+03   0.642E+01 0.277E+02 0.141E+02   -.549E-03 -.108E-02 -.284E-02
   0.132E+03 0.433E+02 -.227E+03   -.124E+03 -.474E+02 0.242E+03   -.885E+01 0.276E+01 -.152E+02   -.213E-03 0.142E-02 -.223E-02
   -.828E+02 0.108E+01 0.726E+02   0.156E-12 0.369E-12 -.108E-11   0.828E+02 -.109E+01 -.726E+02   -.855E-02 0.208E-01 0.269E-01

 POSITION                                       TOTAL-FORCE (eV/Angst)
      6.92805      6.01080     10.02243         0.616890      0.427422     -1.829699
      7.52364     12.60719      1.74101         0.029714      6.578465     -1.226477
      9.89233      0.79279      6.77106        -5.307223      5.231830     -2.549881
     12.85895     11.36858      1.42713         2.102411      1.223052     -0.444220
      6.99100     10.36771      9.82791         1.805562      0.064830     -1.711692
      9.81296      7.15473      6.89673         0.417072      0.945636     -0.096124
      6.64681      2.84649      5.71701         0.622849     -0.828111     -0.313927
      2.38503      4.13544      5.83880         0.519466      0.841891     -0.294788
      0.14520      9.78686     11.90945         0.275409      0.666966      0.677577
      6.10319      9.12326      4.42531        -0.362369      0.614427      1.981064
      6.31757      4.52978     12.53055        -1.204912     -1.105519      2.118402
      8.28315      4.14313      1.45633        -0.445347      3.424117      1.661856
     11.15543      4.40388      9.56369         4.878613     -1.069538     -5.051815
      3.31422     13.61937      5.67330         0.995863     -0.285622      2.467914
     13.86060     14.00907      8.62058        -0.363593     -0.047176     -0.706292
     12.86003      2.32641     12.38688         0.311582     -1.828475      0.177690
      4.82800      5.53990      3.35797        -0.363016     -1.191028     -2.088144
     12.17728     13.71841      4.06860        -0.207447     -0.930640     -0.866807
      2.65732     11.60366      3.48390        -1.141209     -0.040303     -1.661303
     11.36622      2.75586      3.42172         0.025638     -1.372822     -0.630262
      7.92061     11.74514      6.84407        -0.730047     -2.202266     -0.427778
     12.40999      5.79218     13.82139        -1.976465     -0.598044     -0.020914
      3.13084      1.93768      9.65668         0.374671     -0.476390     -1.553087
      3.93992     12.38740     11.80946        -1.231886     -0.836017      0.600995
      9.29335     10.44957     13.55674        -0.643861     -1.065400      0.156654
      1.82807      5.38735      9.26210         0.799309     -1.180263     -1.485106
     10.72191      9.36723      4.66279         0.028146     -0.495297      0.882625
      3.45594      1.94066      3.87378        -1.275149      1.665092      0.500121
     11.57712      5.31001      3.39723         1.384015      6.079707     -1.079820
      3.96350      1.90870      1.15986         1.070216      0.193909     -2.260477
      2.51155      8.55713      1.06264        -0.493450      1.270782      2.215128
      8.84994      1.32100      3.57466        -8.724756      5.083081      1.869282
      4.48364      7.38582      6.36035        -0.151160     -3.694110      0.528474
      5.18684     13.09492      8.85119        -1.187997      4.406475      0.105886
      8.77862      6.36110      3.56474         1.972232      2.614622     -1.844732
      6.33675      2.09706      8.65269         2.405756     -1.098002      0.340721
      4.74546      4.41083      8.25043        -1.640887      2.457657     -0.777772
      0.26169      6.38609      1.95348        -0.982394     -4.067111     -4.137579
     10.45441      2.97637     13.36231        -3.245247     -6.563808      4.584849
      6.55023      6.98792      0.77489         5.442962      9.585128     -0.581609
      3.50551     10.36057      5.74723        -3.510595     -0.286227      0.897458
      0.01643      3.44665      7.67406        -4.052668     -0.108041      2.459065
      9.34051      4.99107     12.17962        -0.057005      4.894357     -0.558525
     10.71898      9.81910      8.42677        -2.442184      7.412944    -11.099958
      6.67445      9.65664      1.63977         5.601562     10.613328     -8.277081
      5.35622      9.73448     12.93572        -0.840558      0.550485      1.788547
      0.73999      0.99293      5.13465         4.388023      0.081456      3.141143
      4.31493      2.10138     12.68111        -0.099086     -5.842804      3.966750
      0.25849     12.74878     12.27387         4.907611     -0.913682      0.966688
      6.76404      6.44685      6.79762         6.362788     -3.619179     -0.087507
     10.63829      8.73829     11.34404        -0.196309      1.334880     -2.741840
     11.20417     12.22868      6.92847         1.750355     -2.710852     -1.132495
      0.46184     13.98030      0.88969         5.205746     -1.343252      0.708659
      1.63475      3.07648      0.67951        -2.577932      0.877642     -1.007721
     10.95250      3.02771      0.99528        -0.642993     -1.887868     -2.813069
     13.01904     13.89207      1.23158        -6.028371      0.686611     -0.147672
      2.10747      0.94162      3.78339         1.429096     -1.237044      3.119820
     13.21434      2.17851      6.60695         2.330421      2.044409      2.511660
     11.11532      9.24784      6.99382        -0.469202     -4.304098     -4.604395
      3.03015      3.49941      3.36535         1.073739     -0.145388      1.737044
[...]
      1.01147     13.15677      2.14958         1.507076     -1.669296      0.670178
      4.59049      3.35054     11.84792        -0.230322      0.899215     -3.597024
      7.33416     10.97082      2.46541        -1.770550     -7.680487      2.919836
      1.65329     12.14607     11.36759        -2.111723     -0.079314      1.406171
      9.83945     11.93000      5.81692         1.935353      0.552745      2.212763
      3.58713      8.67530      6.54368        -0.040789      2.498654      0.366230
      8.32035      6.31042      8.17580        -1.846564      0.161707     -1.759116
     12.00711      4.49163      4.59850         0.643209     -1.305179      3.034057
      3.56765      0.41807     12.43436         1.712100      5.118802     -1.523577
      7.98636      1.82595      8.41358        -2.193214     -0.061773     -1.038884
      3.63998     13.68900      8.24108         2.610295     -1.472811      0.804313
      6.75299     12.66059      8.55407        -1.498107     -0.948750      0.056960
     11.07213     13.70586      7.59098         3.147057     -3.019148      3.960059
     10.38444      1.47166     12.42124         1.169708      4.541528      2.025565
      0.85865      2.85945      9.08869        -0.900814     -1.283591     -0.256140
    total drift:                               -0.019200      0.011393      0.020987

  FREE ENERGIE OF THE ION-ELECTRON SYSTEM (eV)
  free  energy   TOTEN  =      -858.24676942 eV

  energy  without entropy=     -858.15262379  energy(sigma->0) =     -858.19969660