 vasp.5.4.4.18Apr17-6-g9f103f2a35 (build Oct 31 2019 15:01:46) complex

 executed on             LinuxIFC date 2024.04.29  14:11:48

 INCAR:
 POTCAR:    PAW_PBE Ca_sv 06Sep2000
 POTCAR:    PAW_PBE Si 05Jan2001
 POTCAR:    PAW_PBE O 08Apr2002
 POTCAR:    PAW_PBE Ca_sv 06Sep2000
   VRHFIN =Ca: 3s3p4s

   TITEL  = PAW_PBE Ca_sv 06Sep2000
   POMASS =   40.078; ZVAL   =   10.000    mass and valenz
   ENMAX  =  266.622; ENMIN  =  199.967 eV

   TITEL  = PAW_PBE Si 05Jan2001
   POMASS =   28.085; ZVAL   =    4.000    mass and valenz
   ENMAX  =  245.345; ENMIN  =  184.009 eV

   TITEL  = PAW_PBE O 08Apr2002
   POMASS =   16.000; ZVAL   =    6.000    mass and valenz
   ENMAX  =  400.000; ENMIN  =  300.000 eV

 Optimization of the real space projectors (new method)

 maximal supplied QI-value         = 16.25
 optimisation between [QCUT,QGAM] = [ 12.51, 25.03] = [ 43.85,175.40] Ry
 Optimized for a Real-space Cutoff    1.47 Angstroem

   l    n(q)    QCUT    max X(q) W(low)/X(q) W(high)/X(q)  e(spline)
   0     11    12.514    11.817    0.25E-04    0.32E-05    0.87E-07
   0     11    12.514     8.461    0.39E-04    0.59E-05    0.18E-06
   1     11    12.514     3.957    0.97E-05    0.57E-05    0.28E-07
   1     11    12.514     4.314    0.42E-04    0.14E-04    0.23E-06
   2     10    12.514    14.565    0.79E-04    0.50E-03    0.16E-05
   2     10    12.514    14.552    0.75E-04    0.48E-03    0.15E-05
 Optimization of the real space projectors (new method)

[...]

   l    n(q)    QCUT    max X(q) W(low)/X(q) W(high)/X(q)  e(spline)
   0      9    12.501   159.560    0.10E-03    0.83E-04    0.71E-07
   0      9    12.501   115.863    0.99E-04    0.81E-04    0.70E-07
   1      8    12.501    88.339    0.20E-03    0.25E-03    0.76E-07
   1      8    12.501    48.592    0.20E-03    0.24E-03    0.75E-07
 Optimization of the real space projectors (new method)

 maximal supplied QI-value         = 24.76
 optimisation between [QCUT,QGAM] = [ 12.38, 25.00] = [ 42.90,175.06] Ry
 Optimized for a Real-space Cutoff    1.16 Angstroem

   l    n(q)    QCUT    max X(q) W(low)/X(q) W(high)/X(q)  e(spline)
   0      9    12.378    20.381    0.16E-03    0.67E-05    0.31E-06
   0      9    12.378    15.268    0.17E-03    0.81E-05    0.33E-06
   1      8    12.378     5.964    0.20E-03    0.16E-03    0.30E-06
   1      8    12.378     5.382    0.18E-03    0.14E-03    0.26E-06
  PAW_PBE Ca_sv 06Sep2000               :
  PAW_PBE Si 05Jan2001                  :
  PAW_PBE O 08Apr2002                   :

 POSCAR: Ca Si  O
  positions in direct lattice
 exchange correlation table for  LEXCH =        8
   RHO(1)=    0.500       N(1)  =     2000
   RHO(2)=  100.500       N(2)  =     4000

 ion  position               nearest neighbor table
   1  0.707  0.039  0.219- 118 2.00  66 2.27  60 2.45  43 2.98  37 3.06  31 3.09
   2  0.518  0.415  0.217- 104 2.09  94 2.26  89 2.45  11 2.59
   3  0.799  0.548  0.201-  55 2.12  78 2.49
   4  0.195  0.359  0.574-  76 2.34  41 3.12
   5  0.317  0.613  0.698-  91 2.21 121 2.39 131 2.50
   6  0.833  0.291  0.572- 125 2.11  92 2.26  71 2.41  53 2.91  33 3.01
   7  0.406  0.860  0.687-  73 2.15  80 2.26  54 2.99
   8  0.473  0.928  0.235- 135 2.00  79 2.28 134 2.49  96 2.52 118 2.54  40 2.73
   9  0.814  0.648  0.546- 122 2.31  84 2.51  46 3.14
  10  0.101  0.033  0.482- 102 2.02  57 2.16  93 2.27  74 2.33 115 2.43  42 2.71  41 2.84  33 2.90

  11  0.472  0.263  0.338- 127 1.90  89 2.02  96 2.42   2 2.59  30 3.10
  12  0.535  0.438  0.607- 131 2.30  62 2.37 125 2.49  81 2.52  51 3.03
  13  0.196  0.809  0.171- 134 2.31 114 2.37
  14  0.909  0.802  0.982-  65 2.17  78 2.36  63 2.44  39 2.95
  15  0.829  0.348  0.949-  86 2.00 123 2.03 124 2.03  75 2.53  44 2.88  43 2.90
  16  0.456  0.665  0.144- 128 2.09  94 2.46 101 2.54
  17  0.569  0.726  0.453- 108 2.05  84 2.20 135 2.32  37 2.83  40 3.06
  18  0.598  0.471  0.977- 128 2.21  86 2.46  62 2.56  51 3.03
  19  0.597  0.170  0.925- 111 1.93  70 2.09  59 2.16  60 2.29  30 2.80
  20  0.075  0.430  0.838-  87 2.12 120 2.21 105 2.33  45 2.98
  21  0.939  0.874  0.259-  69 2.25 114 2.32  97 2.33  74 2.36  66 2.42
  22  0.015  0.257  0.254- 113 2.19 115 2.27  68 2.28  45 2.99  34 3.04
  23  0.278  0.525  0.988- 105 2.03 101 2.03 121 2.38  94 2.42  47 2.77
  24  0.296  0.131  0.056-  79 1.97 129 2.25  61 2.44 111 2.49  30 2.87
  25  0.810  0.112  0.757-  92 2.19  77 2.34  59 2.46  33 2.55
  26  0.973  0.879  0.706-  63 2.05 130 2.24  93 2.43  88 2.57
  27  0.088  0.163  0.853-  87 1.91  61 2.30 130 2.34  33 3.14
  28  0.678  0.704  0.035-  78 1.65 128 1.74 119 1.75 110 2.20  65 2.28  48 2.63
  29  0.292  0.756  0.907-  73 1.58  91 1.69 106 1.74 101 1.77  50 2.59
  30  0.505  0.166  0.121-  96 1.48 111 1.68 104 1.77  60 1.94  19 2.80  24 2.87  11 3.10
  31  0.866  0.091  0.048-  66 1.71 123 1.73  98 1.74  59 2.07  43 2.78  39 2.98   1 3.09
  32  0.518  0.114  0.636- 107 1.59 109 1.68  77 2.07  80 2.12  54 2.92  38 3.13
  33  0.972  0.119  0.645-  92 1.53  88 1.65 130 1.68 102 1.69  25 2.55  10 2.90   6 3.01  27 3.14

[...]

  49  0.058  0.631  0.307-  97 1.57  58 1.88  72 1.91  56 2.42  42 3.12  34 3.15
  50  0.104  0.710  0.855-  63 1.55  91 1.64 120 1.67 106 1.79  29 2.59
  51  0.436  0.411  0.818- 126 1.63  62 1.66 121 1.74  70 1.97  38 2.96  12 3.03  18 3.03
  52  0.839  0.970  0.498-  83 1.56  88 1.62 112 1.88  69 1.90  37 2.37
  53  0.701  0.395  0.423- 125 1.56  89 1.68  71 1.87  55 2.21   6 2.91
  54  0.627  0.917  0.653-  80 1.76  77 1.80 108 1.80  99 1.97  32 2.92   7 2.99  48 3.13
  55  0.781  0.533  0.363-   3 2.12  53 2.21
  56  0.201  0.598  0.191-  47 1.51  49 2.42
  57  0.262  0.076  0.473-  41 1.45  10 2.16
  58  0.115  0.715  0.411-  42 1.51  49 1.88
  59  0.751  0.107  0.937-  31 2.07  19 2.16  25 2.46
  60  0.653  0.169  0.093-  43 1.69  30 1.94  19 2.29   1 2.45
  61  0.142  0.051  0.981-  39 1.59  27 2.30  24 2.44
  62  0.543  0.475  0.787-  51 1.66  35 2.18  12 2.37  18 2.56
  63  0.015  0.786  0.827-  50 1.55  26 2.05  14 2.44
  64  0.985  0.432  0.062-  45 1.86
  65  0.749  0.844  0.955-  48 1.48  14 2.17  28 2.28
  66  0.861  0.999  0.144-  31 1.71   1 2.27  21 2.42
  67  0.486  0.574  0.349-  36 1.72
  68  0.049  0.346  0.402-  34 1.55  22 2.28
  69  0.887  0.004  0.363-  52 1.90  21 2.25
  70  0.491  0.285  0.884-  51 1.97  19 2.09  38 2.50
  71  0.845  0.384  0.411-  34 1.65  53 1.87   6 2.41
  72  0.964  0.517  0.308-  34 1.68  49 1.91
  73  0.364  0.833  0.845-  29 1.58   7 2.15
  74  0.095  0.918  0.344-  42 1.63  10 2.33  21 2.36
  75  0.766  0.334  0.765-  44 1.67  15 2.53
  76  0.146  0.519  0.642-  46 1.65   4 2.34
  77  0.656  0.049  0.686-  54 1.80  32 2.07  25 2.34
  78  0.801  0.675  0.056-  28 1.65  14 2.36   3 2.49
  79  0.359  0.015  0.132-  24 1.97   8 2.28
  80  0.513  0.957  0.590-  54 1.76  32 2.12   7 2.26
  81  0.691  0.542  0.662-  35 1.89  44 2.02  12 2.52
  82  0.719  0.260  0.248-  43 1.53
  83  0.850  0.854  0.527-  52 1.56  37 2.48
  84  0.730  0.769  0.419-  37 1.53  17 2.20   9 2.51
  85  0.184  0.388  0.187-  47 1.68  45 2.43
  86  0.736  0.379  0.070-  43 1.88  15 2.00  18 2.46
  87  0.033  0.288  0.909-  45 1.91  27 1.91  20 2.12
  88  0.906  0.025  0.589-  52 1.62  33 1.65  26 2.57
  89  0.580  0.362  0.389-  53 1.68  11 2.02   2 2.45
  90  0.270  0.879  0.433-  40 1.66  42 2.15
  91  0.223  0.699  0.812-  50 1.64  29 1.69   5 2.21
  92  0.930  0.216  0.697-  33 1.53  25 2.19   6 2.26
  93  0.079  0.873  0.551-  42 1.68  10 2.27  26 2.43
  94  0.380  0.491  0.141-  47 1.77   2 2.26  23 2.42  16 2.46
  95  0.372  0.697  0.446-  36 1.72  40 1.76
  96  0.508  0.119  0.224-  30 1.48  11 2.42   8 2.52
  97  0.984  0.701  0.240-  49 1.57  21 2.33
  98  0.940  0.022  0.959-  31 1.74  39 1.86
  99  0.614  0.912  0.804-  48 1.67  54 1.97
 100  0.254  0.177  0.695-  38 1.71
 101  0.360  0.657  0.973-  29 1.77  23 2.03  16 2.54
 102  0.063  0.162  0.561-  33 1.69  10 2.02
 103  0.894  0.484  0.727-  44 1.59  46 2.41
 104  0.450  0.291  0.140-  30 1.77   2 2.09
 105  0.173  0.408  0.987-  45 1.76  23 2.03  20 2.33
 106  0.168  0.805  0.932-  29 1.74  50 1.79
 107  0.456  0.131  0.741-  32 1.59  38 1.77
 108  0.591  0.797  0.593-  54 1.80  17 2.05
[...]
 121  0.316  0.472  0.816-  51 1.74  23 2.38   5 2.39
 122  0.970  0.682  0.626-  46 1.73   9 2.31
 123  0.847  0.224  0.043-  31 1.73  43 1.77  15 2.03
 124  0.797  0.494  0.903-  44 1.84  15 2.03
 125  0.711  0.395  0.543-  53 1.56   6 2.11  12 2.49
 126  0.401  0.331  0.727-  51 1.63  38 1.94
 127  0.349  0.256  0.418-  41 1.57  11 1.90
 128  0.591  0.610  0.076-  28 1.74  16 2.09  18 2.21
 129  0.314  0.196  0.895-  38 1.51  24 2.25
 130  0.997  0.046  0.749-  33 1.68  26 2.24  27 2.34
 131  0.377  0.500  0.553-  36 1.86  12 2.30   5 2.50
 132  0.513  0.685  0.726-  35 1.56
 133  0.308  0.460  0.321-  47 1.77  36 2.12
 134  0.348  0.784  0.263-  40 1.50  13 2.31   8 2.49
 135  0.493  0.870  0.377-  40 1.84   8 2.00  17 2.32

IMPORTANT INFORMATION: All symmetrisations will be switched off!
NOSYMM: (Re-)initialisation of all symmetry stuff for point group C_1.

Automatic generation of k-mesh.
 generate k-points for:    2    2    2
Space group operators:
 irot       det(A)        alpha          n_x          n_y          n_z        tau_x        tau_y        tau_z
    1     1.000000     0.000000     1.000000     0.000000     0.000000     0.000000     0.000000     0.000000

 Subroutine IBZKPT returns following result:

 Found      8 irreducible k-points:

 Following reciprocal coordinates:
            Coordinates               Weight
  0.000000  0.000000  0.000000      1.000000
  0.500000  0.000000  0.000000      1.000000
  0.000000  0.500000  0.000000      1.000000
  0.500000  0.500000  0.000000      1.000000
  0.000000  0.000000  0.500000      1.000000
  0.500000  0.000000  0.500000      1.000000
  0.000000  0.500000  0.500000      1.000000
  0.500000  0.500000  0.500000      1.000000

 Following cartesian coordinates:
            Coordinates               Weight
  0.000000  0.000000  0.000000      1.000000
  0.038669  0.000000  0.000000      1.000000
  0.000000  0.038669  0.000000      1.000000
  0.038669  0.038669  0.000000      1.000000
  0.000000  0.000000  0.038669      1.000000
  0.038669  0.000000  0.038669      1.000000
  0.000000  0.038669  0.038669      1.000000
  0.038669  0.038669  0.038669      1.000000

 SYSTEM =  unknown system
 POSCAR =  Ca Si  O

 Startparameter for this run:
   NWRITE =      2    write-flag & timer
   PREC   = a         normal or accurate (medium, high low for compatibility)
   ISTART =      0    job   : 0-new  1-cont  2-samecut
   ICHARG =      2    charge: 1-file 2-atom 10-const
   ISPIN  =      1    spin polarized calculation?
   LNONCOLLINEAR =      F non collinear calculations
   LSORBIT =      F    spin-orbit coupling
   INIWAV =      1    electr: 0-lowe 1-rand  2-diag
   LASPH  =      F    aspherical Exc in radial PAW
   METAGGA=      F    non-selfconsistent MetaGGA calc.

 Electronic Relaxation 1
   ENCUT  =  600.0 eV  44.10 Ry    6.64 a.u.  25.83 25.83 25.83*2*pi/ulx,y,z
   ENINI  =  600.0     initial cutoff
   ENAUG  =  605.4 eV  augmentation charge cutoff
[...]
     0.000000000  0.000000000 12.930412990     0.000000000  0.000000000  0.077337050

  length of vectors
    12.930412990 12.930412990 12.930412990     0.077337050  0.077337050  0.077337050

 FORCES acting on ions
    electron-ion (+dipol)            ewald-force                    non-local-force                 convergence-correction
   -.219E+00 -.450E+02 -.129E+03   0.552E+00 0.424E+02 0.127E+03   -.266E+00 0.473E+01 0.122E+01   0.247E-02 0.574E-03 0.278E-02
   -.127E+03 -.120E+03 -.413E+02   0.121E+03 0.122E+03 0.394E+02   0.563E+01 0.775E+00 0.168E+01   -.974E-03 0.208E-02 0.125E-02
   -.164E+02 -.768E+02 0.333E+02   0.194E+02 0.770E+02 -.310E+02   -.156E+01 -.335E+00 -.342E+01   0.308E-02 0.820E-03 0.471E-02
   -.326E+02 0.327E+02 0.705E+02   0.336E+02 -.332E+02 -.701E+02   -.282E+00 -.403E+00 -.698E+00   -.147E-02 0.181E-02 -.221E-02
   0.439E+02 -.144E+03 0.182E+03   -.447E+02 0.138E+03 -.178E+03   0.130E+01 0.446E+01 -.359E+01   -.176E-02 0.107E-02 -.130E-02
   0.751E+01 0.168E+03 0.134E+03   -.704E+01 -.162E+03 -.131E+03   0.557E+00 -.553E+01 -.221E+01   0.119E-02 0.118E-02 -.145E-02
   0.266E+03 -.127E+03 0.221E+02   -.260E+03 0.129E+03 -.184E+02   -.442E+01 -.196E+01 -.371E+01   -.234E-02 -.787E-03 -.865E-03
   0.669E+02 -.345E+02 0.128E+03   -.684E+02 0.389E+02 -.130E+03   0.170E+01 -.195E+01 -.205E+01   0.348E-02 -.480E-02 0.608E-02
   -.865E+01 -.178E+02 0.490E+02   0.113E+02 0.190E+02 -.482E+02   -.239E+01 -.886E+00 -.819E+00   0.281E-02 -.788E-03 -.240E-02
   -.858E+02 0.271E+02 0.128E+02   0.905E+02 -.239E+02 -.154E+02   -.377E+01 -.364E+01 0.567E+00   -.563E-03 -.169E-02 0.142E-02
   0.501E+02 0.189E+03 -.965E+02   -.510E+02 -.195E+03 0.100E+03   0.183E+01 0.233E+01 -.486E+01   0.209E-03 0.290E-02 0.185E-02
   0.517E+02 0.875E+02 0.131E+03   -.523E+02 -.896E+02 -.129E+03   0.761E+00 0.394E+00 -.139E+01   0.210E-03 0.680E-03 -.106E-02
   -.504E+02 -.574E+02 0.924E+02   0.515E+02 0.582E+02 -.901E+02   -.749E+00 -.656E+00 -.183E+01   -.406E-02 -.812E-02 0.348E-02
   -.114E+03 0.908E+02 -.361E+02   0.107E+03 -.934E+02 0.342E+02   0.542E+01 0.130E+01 0.166E+01   0.352E-02 -.177E-02 0.392E-03
   -.110E+03 -.990E+01 0.790E+02   0.112E+03 0.157E+02 -.791E+02   0.125E+01 -.512E+01 -.320E+01   -.190E-02 -.118E-03 -.227E-02
   0.135E+02 -.223E+03 -.344E+02   -.141E+02 0.219E+03 0.321E+02   -.115E+01 0.394E+01 0.270E+01   -.268E-02 -.337E-02 0.126E-02
   0.298E+02 0.157E+03 0.650E+02   -.307E+02 -.153E+03 -.652E+02   -.657E+00 -.550E+01 -.966E+00   0.357E-03 -.922E-03 0.357E-03
   0.116E+03 0.207E+02 -.158E+02   -.110E+03 -.189E+02 0.141E+02   -.416E+01 -.228E+01 0.419E+00   -.324E-03 0.134E-02 0.499E-03
   0.458E+01 0.122E+03 0.229E+03   -.614E+01 -.123E+03 -.227E+03   0.358E+01 0.961E+00 -.463E+01   0.159E-02 0.155E-02 -.198E-02
   -.301E+02 -.496E+02 0.205E+03   0.293E+02 0.517E+02 -.197E+03   0.768E+00 -.635E+00 -.800E+01   0.755E-03 0.147E-02 -.282E-02
   0.604E+02 0.885E+02 -.546E+01   -.568E+02 -.847E+02 0.657E+01   -.355E+01 -.299E+01 -.952E+00   0.211E-02 -.403E-02 0.265E-02
   0.104E+03 0.642E+02 -.370E+02   -.929E+02 -.646E+02 0.388E+02   -.901E+01 0.300E+00 -.926E+00   0.474E-03 0.311E-02 0.358E-02
   0.250E+02 -.416E+02 -.264E+02   -.258E+02 0.377E+02 0.244E+02   0.232E-01 0.198E+01 0.149E+01   -.529E-03 0.230E-02 0.265E-02
   0.132E+03 0.440E+02 -.787E+02   -.131E+03 -.476E+02 0.757E+02   -.324E+01 0.513E+01 0.178E+01   -.539E-02 0.691E-02 -.478E-02
   0.162E+03 0.749E+02 -.152E+01   -.165E+03 -.743E+02 0.805E+01   0.431E+00 -.117E+01 -.298E+01   0.145E-02 0.237E-03 -.212E-02
   -.811E+02 0.885E+02 -.256E+02   0.836E+02 -.902E+02 0.241E+02   -.304E+01 0.108E+01 -.107E+01   0.249E-02 -.112E-02 -.191E-02
   -.223E+03 0.139E+03 0.115E+03   0.224E+03 -.141E+03 -.114E+03   0.156E+01 -.181E+01 -.258E+01   -.144E-03 -.777E-03 -.218E-02
   0.361E+02 -.276E+02 -.261E+02   -.321E+02 0.314E+02 0.334E+02   -.395E+01 -.213E+01 -.696E+01   0.362E-03 -.205E-02 0.225E-03
   -.444E+02 -.918E+02 -.892E+02   0.491E+02 0.963E+02 0.807E+02   -.306E+01 -.467E+01 0.864E+01   -.666E-03 -.583E-03 -.595E-03
   0.432E+02 0.124E+02 0.163E+02   -.467E+02 -.174E+02 -.101E+02   0.335E+01 0.850E+01 -.127E+02   0.131E-02 0.218E-02 0.820E-03
   -.417E+02 0.178E+02 -.477E+02   0.386E+02 -.231E+02 0.458E+02   0.250E+00 0.277E+01 -.249E+01   0.517E-03 -.119E-04 0.255E-03
   0.159E+01 0.177E+02 0.537E+02   -.817E+01 -.972E+01 -.571E+02   0.753E+01 -.934E+01 -.809E+00   -.100E-03 -.112E-03 -.471E-03
   -.642E+02 -.331E+01 0.668E+02   0.686E+02 0.105E+02 -.620E+02   0.343E+01 -.820E+01 -.630E+01   0.399E-03 -.497E-04 -.399E-03
   -.586E+02 -.395E+02 0.214E+01   0.642E+02 0.304E+02 -.590E+01   -.740E+01 0.115E+02 0.544E+01   0.138E-02 0.272E-02 -.123E-02
   -.310E+02 -.319E+02 0.839E+01   0.212E+02 0.384E+02 -.841E+01   0.122E+02 -.783E+01 0.215E+01   -.136E-04 -.107E-03 -.418E-03
   0.108E+03 0.358E+02 -.290E+02   -.995E+02 -.341E+02 0.251E+02   -.647E+01 -.382E+01 0.196E+01   -.171E-02 0.102E-03 -.667E-03
   0.151E+02 -.591E+02 0.562E+02   -.138E+02 0.493E+02 -.553E+02   -.342E+01 0.126E+02 -.500E+01   0.767E-03 -.497E-03 0.607E-03
   0.170E+02 0.587E+02 0.672E+02   -.289E+02 -.618E+02 -.602E+02   0.125E+02 0.442E+01 -.132E+02   -.628E-03 0.322E-04 -.805E-03
   -.631E+02 0.340E+02 -.574E+00   0.685E+02 -.271E+02 0.196E+01   -.603E+01 -.418E+01 -.244E+01   -.247E-03 -.684E-03 -.505E-03
   0.265E+02 -.415E+02 -.766E+02   -.324E+02 0.429E+02 0.705E+02   0.669E+01 0.340E+00 0.135E+02   -.137E-02 -.149E-02 0.902E-03
   0.180E+01 -.569E+02 0.455E+02   0.325E+01 0.437E+02 -.405E+02   -.927E+01 0.168E+02 -.109E+02   -.675E-03 0.635E-03 0.890E-03
   -.400E+02 0.459E+02 -.415E+02   0.367E+02 -.439E+02 0.405E+02   0.594E+01 0.504E+01 0.439E+01   -.322E-03 -.279E-02 -.810E-04
   -.769E+02 -.172E+02 -.734E+02   0.672E+02 0.192E+02 0.819E+02   0.747E+01 0.202E+01 -.134E+02   0.259E-03 0.471E-03 0.875E-03
   0.562E+02 -.647E+02 0.286E+02   -.427E+02 0.570E+02 -.242E+02   -.118E+02 0.710E+01 -.169E+01   0.246E-03 0.281E-03 -.800E-03
   -.202E+02 0.164E+02 -.747E+02   0.193E+02 -.128E+02 0.737E+02   0.554E+00 0.299E+00 0.139E-01   0.166E-02 -.747E-03 0.671E-03
   -.566E+02 -.398E+02 -.645E+01   0.564E+02 0.431E+02 0.169E+01   -.349E+01 -.169E+01 0.438E+01   0.227E-03 0.571E-03 -.181E-02
   0.369E+02 0.113E+02 -.449E+02   -.430E+02 -.128E+02 0.468E+02   0.878E+01 -.712E+01 0.149E+01   -.219E-02 0.174E-02 0.158E-02
   0.122E+03 0.208E+02 0.414E+01   -.108E+03 -.112E+02 -.543E+01   -.148E+02 -.942E+01 -.672E+01   -.356E-03 -.828E-03 -.158E-02
   -.825E+02 0.699E+02 -.424E+02   0.743E+02 -.646E+02 0.357E+02   0.799E+01 -.710E+01 0.677E+01   0.202E-02 -.189E-02 0.163E-02
   0.170E+02 0.371E+01 0.191E+02   -.224E+02 -.518E+01 -.171E+02   0.502E+01 -.138E+01 0.714E+00   0.955E-04 0.170E-03 -.521E-03
   0.200E+02 -.142E+02 -.713E+02   -.224E+02 0.875E+01 0.629E+02   0.647E+00 0.101E+01 0.835E+01   -.306E-03 0.630E-03 -.395E-03
   0.396E+02 -.922E+02 0.503E+02   -.348E+02 0.793E+02 -.496E+02   -.374E+01 0.143E+02 -.488E+01   0.490E-03 -.406E-03 -.110E-03
   0.130E+02 0.173E+02 0.975E+02   -.175E+02 -.150E+02 -.854E+02   0.666E+01 0.119E+01 -.157E+02   0.704E-03 0.543E-03 -.704E-04
   -.560E+02 -.478E+00 -.111E+02   0.459E+02 0.986E+00 0.951E+01   0.722E+01 -.142E+01 0.295E+01   0.563E-04 -.248E-03 -.604E-03
   0.745E+02 -.102E+03 -.729E+01   -.674E+02 0.106E+03 0.968E+01   -.114E+02 -.388E+01 -.143E+01   0.320E-02 -.195E-03 0.993E-04
   0.115E+03 -.103E+03 -.289E+02   -.130E+03 0.130E+03 0.239E+02   0.121E+02 -.212E+02 0.480E+01   -.486E-02 -.210E-03 0.693E-02
   -.185E+03 0.897E+02 -.649E+02   0.194E+03 -.130E+03 0.830E+02   -.747E+01 0.347E+02 -.146E+02   -.106E-02 -.584E-03 0.171E-02
   -.540E+02 0.146E+03 -.706E+02   0.636E+02 -.173E+03 0.780E+02   -.104E+02 0.207E+02 -.986E+01   -.193E-02 -.774E-02 -.508E-02
   0.495E+01 0.148E+03 0.493E+02   -.125E+02 -.149E+03 -.523E+02   0.112E+02 0.903E-01 0.303E+01   0.115E-02 0.372E-03 -.527E-03
   0.233E+02 0.665E+02 -.432E+02   -.286E+02 -.811E+02 0.324E+02   0.488E+01 0.153E+02 0.114E+02   0.155E-02 0.130E-02 0.103E-02
[...]
   -.945E+02 -.501E+02 -.122E+02   0.875E+02 0.740E+02 0.150E+02   0.913E+01 -.274E+02 -.294E+01   0.148E-02 -.283E-03 -.219E-02
   -.139E+03 0.563E+02 -.109E+03   0.149E+03 -.422E+02 0.947E+02   -.927E+01 -.181E+02 0.199E+02   -.116E-03 -.695E-03 0.651E-03
   -.776E+02 -.190E+03 -.247E+02   0.841E+02 0.204E+03 0.407E+02   -.922E+01 -.141E+02 -.200E+02   -.455E-03 0.840E-03 -.101E-02
   0.772E+02 0.280E+02 -.188E+02   -.755E+02 -.229E+02 0.505E+02   -.364E+01 -.543E+01 -.302E+02   0.845E-03 0.620E-03 -.838E-03
   0.575E+02 0.727E+02 0.153E+03   -.626E+02 -.806E+02 -.176E+03   0.460E+01 0.647E+01 0.219E+02   -.535E-03 0.536E-03 -.103E-02
   0.966E+02 -.690E+01 -.773E+02   -.785E+02 0.265E+02 0.815E+02   -.221E+02 -.187E+02 -.223E+01   -.812E-03 0.158E-02 0.752E-03
   -.236E+02 -.562E+02 -.736E+02   0.142E+02 0.448E+02 0.785E+02   0.115E+02 0.118E+02 -.484E+01   -.204E-03 -.105E-02 0.514E-03
   0.652E+02 0.632E+02 -.419E+01   -.727E+02 -.624E+02 0.373E+02   0.546E+01 -.121E+01 -.305E+02   -.121E-02 0.625E-03 -.187E-02
   -.158E+03 0.994E+02 -.792E+02   0.165E+03 -.111E+03 0.992E+02   -.712E+01 0.118E+02 -.207E+02   0.101E-02 -.752E-03 -.105E-02
   0.923E+02 0.149E+02 0.529E+02   -.954E+02 -.258E+02 -.401E+02   0.289E+01 0.132E+02 -.157E+02   -.127E-02 0.780E-03 -.115E-02
   0.942E+02 -.629E+02 -.121E+02   -.118E+03 0.815E+02 0.614E+01   0.215E+02 -.191E+02 0.551E+01   -.531E-03 -.123E-03 -.504E-03
   0.955E+02 0.302E+02 -.145E+03   -.945E+02 -.483E+02 0.156E+03   -.613E+00 0.210E+02 -.834E+01   -.363E-02 0.270E-02 -.253E-03
   0.495E+02 0.952E+01 0.922E+02   -.541E+02 -.200E+02 -.121E+03   0.397E+01 0.934E+01 0.228E+02   -.263E-02 -.406E-02 0.176E-02
   0.996E+01 -.107E+03 -.919E+02   0.584E+01 0.118E+03 0.978E+02   -.186E+02 -.138E+02 -.345E+01   0.104E-03 -.142E-02 0.193E-02
   0.125E+02 -.216E+02 0.906E+02   -.122E-11 -.625E-12 0.284E-13   -.125E+02 0.216E+02 -.906E+02   0.141E-01 -.312E-02 0.170E-02

 POSITION                                       TOTAL-FORCE (eV/Angst)
      9.14534      0.49951      2.82965         0.069502      2.147487      0.012517
      6.70335      5.37211      2.81006        -0.196732      2.444708     -0.170188
     10.33020      7.08950      2.59606         1.440088     -0.139051     -1.047579
      2.51804      4.63926      7.42653         0.715958     -0.981011     -0.307182
      4.10463      7.93057      9.02223         0.417526     -1.997278      0.002151
     10.76868      3.76044      7.39921         1.028698      1.161042      0.866791
      5.24846     11.11567      8.88202         0.964550      0.481456      0.036475
      6.11400     11.99435      3.03422         0.184231      2.514742     -3.623302
     10.52439      8.37950      7.06215         0.303918      0.361138      0.041913
      1.30546      0.42984      6.23780         0.943778     -0.480139     -2.044902
      6.09808      3.39450      4.36678         0.853744     -3.852552     -1.050704
      6.91826      5.66415      7.85419         0.139430     -1.686615     -0.185749
      2.53073     10.46079      2.21413         0.282898      0.098259      0.449303
     11.76007     10.36427     12.70336        -1.192729     -1.310531     -0.278964
     10.71768      4.49809     12.27615         3.338160      0.681547     -3.282875
      5.89300      8.59896      1.86299        -1.774404      0.142613      0.435109
      7.35902      9.39257      5.85220        -1.478705     -1.341631     -1.195098
      7.73438      6.08884     12.62937         1.654999     -0.438881     -1.288920
      7.71867      2.20427     11.95753         2.027291     -0.347218     -2.913887
      0.96332      5.56099     10.83362        -0.067992      1.425780      0.671637
     12.13676     11.30249      3.35110         0.005515      0.775940      0.155209
      0.19007      3.32344      3.28193         1.913138     -0.153151      0.817794
      3.59106      6.78318     12.77750        -0.778264     -1.888705     -0.547723
      3.82135      1.69147      0.72328        -1.335607      1.524396     -1.238079
     10.47233      1.44987      9.78275        -2.376580     -0.591696      3.546276
     12.58473     11.37173      9.13244        -0.555424     -0.672466     -2.549669
      1.14193      2.10690     11.02974         2.515541     -3.436295     -1.702659
      8.76086      9.10398      0.45816         0.085240      1.681140      0.303715
      3.76952      9.77822     11.72727         1.707792     -0.181735      0.190602
      6.53088      2.15213      1.55840        -0.134870      3.517850     -6.554830
     11.19138      1.17319      0.61867        -2.870142     -2.544751     -4.359167
      6.69680      1.47251      8.22738         0.947889     -1.333503     -4.172994
     12.57144      1.53362      8.33642         7.824333     -1.056400     -1.545734
     12.45536      5.55816      5.23982        -1.815208      2.378917      1.680731
      7.93587      8.07890      9.74970         2.405074     -1.367336      2.132736
      4.88774      7.31309      5.49782         1.560614     -2.151106     -1.915522
      9.20159     11.42702      5.14852        -2.138493      2.729991     -4.057177
      4.49638      2.62139     10.13953         0.629511      1.296554     -6.255616
      0.76933     12.53272      0.25904        -0.582581      2.762678     -1.054375
      4.69676     10.50792      4.83933         0.766107      1.775490      7.397365
      3.31167      2.30137      5.52336        -4.216430      3.641109     -5.844146
      1.43998     10.72650      5.59664         2.662360      7.013841      3.417358
      9.66877      3.21462      1.72445        -2.300239      3.968614     -4.807268
     10.06734      5.98495      9.89166         1.699157     -0.609150      2.727665
      1.03878      4.21525      0.55830        -0.301413      3.864175     -0.995200
      0.35527      7.26242      8.05046        -3.675027      1.670291     -0.379718
      3.31380      6.40288      2.57718         2.700287     -8.643848      3.404807
      8.76084     10.61065     11.23650        -0.773261      0.158039     -8.010863
      0.74374      8.16419      3.96755        -0.262024     -1.876372     -0.006412
      1.34519      9.17979     11.05076        -0.409541     -2.850547      2.752970
      5.64087      5.31547     10.57463        -1.758563     -4.392985     -0.113942
     10.84568     12.54878      6.44207         1.036496      1.308419     -4.114106
      9.06430      5.10734      5.46975         2.224591      3.409629     -3.608640
      8.11382     11.86005      8.43793        -2.960887     -0.909467      1.412692
     10.10170      6.89454      4.69507        -4.262100      0.244492      0.970668
      2.59634      7.73154      2.47365        -2.753517      5.911004     -0.153235
      3.38915      0.98555      6.11614         1.517546     -5.772689      3.614449
      1.48401      9.24805      5.30892        -0.891738     -6.685493     -2.480044
      9.71231      1.38729     12.12073         3.588518     -1.344993      0.082048
      8.44092      2.18751      1.19654        -0.445756      0.678478      0.601425
[...]
      4.08114      6.09749     10.55037         2.554596      1.197390      1.082928
     12.54381      8.81926      8.09074         2.115404     -3.495085     -0.147345
     10.95804      2.89016      0.55312         1.418946     -3.979354      5.878649
     10.30338      6.39235     11.67365        -2.696809      0.523897     -3.987684
      9.19488      5.10759      7.02407        -1.903630     -0.345061      1.447694
      5.17902      4.28346      9.39774        -0.485000     -1.420293     -1.610546
      4.51258      3.30912      5.40726        -3.983671      0.838340      1.914362
      7.64588      7.88162      0.98840         2.202981      0.395444      0.057138
      4.05406      2.53578     11.57836        -2.037966     -0.422531      2.569791
     12.89599      0.59005      9.68587        -0.175329      0.188862     -0.599886
      4.87731      6.46209      7.15017        -0.166348      2.268847     -2.910445
      6.63813      8.85377      9.38120        -1.877664     -0.529098     -0.409119
      3.98555      5.95408      4.14899         0.381874      2.929126      2.489761
      4.49395     10.13950      3.39745        -0.683220     -1.193760     -6.265397
      6.37397     11.25285      4.87553        -2.757077     -2.949811      2.496200
    total drift:                                0.007375      0.000704     -0.000590

  FREE ENERGIE OF THE ION-ELECTRON SYSTEM (eV)
  free  energy   TOTEN  =      -892.40974701 eV

  energy  without entropy=     -892.36808035  energy(sigma->0) =     -892.38891368