 vasp.5.4.4.18Apr17-6-g9f103f2a35 (build Oct 31 2019 15:01:46) complex

 executed on             LinuxIFC date 2024.04.29  06:37:09

 INCAR:
 POTCAR:    PAW_PBE Ca_sv 06Sep2000
 POTCAR:    PAW_PBE Si 05Jan2001
 POTCAR:    PAW_PBE O 08Apr2002
 POTCAR:    PAW_PBE Ca_sv 06Sep2000
   VRHFIN =Ca: 3s3p4s

   TITEL  = PAW_PBE Ca_sv 06Sep2000
   POMASS =   40.078; ZVAL   =   10.000    mass and valenz
   ENMAX  =  266.622; ENMIN  =  199.967 eV

   TITEL  = PAW_PBE Si 05Jan2001
   POMASS =   28.085; ZVAL   =    4.000    mass and valenz
   ENMAX  =  245.345; ENMIN  =  184.009 eV

   TITEL  = PAW_PBE O 08Apr2002
   POMASS =   16.000; ZVAL   =    6.000    mass and valenz
   ENMAX  =  400.000; ENMIN  =  300.000 eV

 Optimization of the real space projectors (new method)

 maximal supplied QI-value         = 16.25
 optimisation between [QCUT,QGAM] = [ 12.51, 25.03] = [ 43.85,175.40] Ry
 Optimized for a Real-space Cutoff    1.47 Angstroem

   l    n(q)    QCUT    max X(q) W(low)/X(q) W(high)/X(q)  e(spline)
   0     11    12.514    11.817    0.25E-04    0.32E-05    0.87E-07
   0     11    12.514     8.461    0.39E-04    0.59E-05    0.18E-06
   1     11    12.514     3.957    0.97E-05    0.57E-05    0.28E-07
   1     11    12.514     4.314    0.42E-04    0.14E-04    0.23E-06
   2     10    12.514    14.565    0.79E-04    0.50E-03    0.16E-05
   2     10    12.514    14.552    0.75E-04    0.48E-03    0.15E-05
 Optimization of the real space projectors (new method)

[...]

   l    n(q)    QCUT    max X(q) W(low)/X(q) W(high)/X(q)  e(spline)
   0      9    12.501   159.560    0.10E-03    0.83E-04    0.71E-07
   0      9    12.501   115.863    0.99E-04    0.81E-04    0.70E-07
   1      8    12.501    88.339    0.20E-03    0.25E-03    0.76E-07
   1      8    12.501    48.592    0.20E-03    0.24E-03    0.75E-07
 Optimization of the real space projectors (new method)

 maximal supplied QI-value         = 24.76
 optimisation between [QCUT,QGAM] = [ 12.38, 25.00] = [ 42.90,175.06] Ry
 Optimized for a Real-space Cutoff    1.16 Angstroem

   l    n(q)    QCUT    max X(q) W(low)/X(q) W(high)/X(q)  e(spline)
   0      9    12.378    20.381    0.16E-03    0.67E-05    0.31E-06
   0      9    12.378    15.268    0.17E-03    0.81E-05    0.33E-06
   1      8    12.378     5.964    0.20E-03    0.16E-03    0.30E-06
   1      8    12.378     5.382    0.18E-03    0.14E-03    0.26E-06
  PAW_PBE Ca_sv 06Sep2000               :
  PAW_PBE Si 05Jan2001                  :
  PAW_PBE O 08Apr2002                   :

 POSCAR: Ca Si  O
  positions in direct lattice
 exchange correlation table for  LEXCH =        8
   RHO(1)=    0.500       N(1)  =     2000
   RHO(2)=  100.500       N(2)  =     4000

 ion  position               nearest neighbor table
   1  0.785  0.590  0.645-  69 2.17  65 2.40
   2  0.539  0.950  0.597- 111 2.04  60 2.22  90 2.48
   3  0.298  0.098  0.239-  96 2.29 101 2.47  59 2.52  48 2.69
   4  0.692  0.659  0.205-  66 1.80  94 2.35  92 2.46  49 3.12
   5  0.222  0.871  0.289-  96 2.14 122 2.17 116 2.26  50 2.79  52 2.89
   6  0.760  0.254  0.407-  81 2.16  74 2.23  91 2.36  37 2.39  62 2.56  32 3.14
   7  0.307  0.556  0.043-  56 2.12
   8  0.910  0.941  0.184-  67 2.48
   9  0.606  0.976  0.120-  79 2.19 110 2.35  93 2.49 101 2.54  48 2.55
  10  0.416  0.775  0.105- 110 1.89 105 1.96  48 2.78
  11  0.888  0.477  0.333-  74 2.22 107 2.25
  12  0.909  0.095  0.527- 104 2.03  91 2.28  62 2.29 102 2.30  68 2.43  28 2.72  42 3.15
  13  0.044  0.136  0.315-  86 2.25  59 2.27
  14  0.479  0.254  0.052- 129 2.25 123 2.26
  15  0.500  0.835  0.365- 131 2.11  79 2.14  90 2.33  66 2.48  50 3.16
  16  0.200  0.587  0.385- 103 2.19 100 2.24  83 2.26 122 2.38 126 2.48  50 2.52  71 2.55  43 2.98

  17  0.638  0.661  0.441- 132 1.98  66 2.10  30 2.87
  18  0.526  0.876  0.883- 112 2.00
  19  0.581  0.529  0.925- 127 2.12  70 2.20  76 2.31  45 2.89  53 3.15
  20  0.862  0.486  0.909- 108 1.92
  21  0.527  0.406  0.410- 132 2.18  81 2.42 115 2.46  58 2.54 125 2.54  30 3.05
  22  0.093  0.698  0.634-  87 1.96  33 3.10
  23  0.798  0.974  0.782- 114 2.20  60 2.21 109 2.49  28 2.81  46 2.94
  24  0.855  0.245  0.042-  61 1.93  78 2.31  46 2.78
  25  0.135  0.307  0.572- 130 2.09 128 2.17  34 2.48  38 2.83  43 2.97
  26  0.403  0.277  0.748- 106 2.42  38 3.15
  27  0.160  0.936  0.928-  57 1.81  99 2.08  47 2.96
  28  0.979  0.004  0.689- 102 1.48 109 1.51 104 1.68  12 2.72  23 2.81
  29  0.735  0.737  0.963-  73 1.52 127 1.72  77 1.89  64 2.18
  30  0.464  0.584  0.528- 132 1.45 125 1.81  85 1.83  83 1.99  17 2.87  21 3.05
  31  0.682  0.309  0.818-  70 1.58 120 1.69  97 1.77  61 2.16  51 2.92
  32  0.644  0.287  0.212-  81 1.63 123 1.69  98 1.73  78 2.16  45 3.01   6 3.14
  33  0.943  0.659  0.469- 100 1.62 119 1.66  87 1.71 107 1.90  42 3.03  22 3.10
  34  0.961  0.358  0.565- 128 1.66 130 2.06 133 2.13  62 2.17  74 2.18  25 2.48  37 2.62
  35  0.183  0.302  0.133-  72 1.66  89 1.66 118 1.74  59 2.09  54 2.89  44 2.92
  36  0.713  0.014  0.413-  91 1.46  55 1.65  90 1.71  68 2.07
  37  0.771  0.336  0.561-  62 1.66  58 1.66  74 1.86 133 2.03   6 2.39  34 2.62
  38  0.323  0.396  0.568- 106 1.64 124 1.64 125 1.70 126 2.18  25 2.83  26 3.15
  39  0.329  0.112  0.554-  82 1.52 135 1.72 111 1.74 124 2.39
  40  0.287  0.780  0.752- 117 1.52  63 1.87  88 1.95  53 2.65
  41  0.575  0.709  0.691-  85 1.69  65 1.82 112 1.87  69 1.97  53 3.04
  42  0.948  0.880  0.453- 134 1.61 119 1.68  68 1.71 104 2.23  33 3.03  12 3.15
  43  0.147  0.376  0.367-  86 1.51 103 1.60 126 1.63  72 1.94  25 2.97  16 2.98
  44  0.331  0.420  0.233-  71 1.56 115 1.67  72 1.92  89 2.01  35 2.92
  45  0.561  0.473  0.127-  92 1.46 129 1.54  98 1.56 115 2.49  19 2.89  32 3.01
  46  0.840  0.053  0.978-  93 1.60 114 1.69  67 1.74  24 2.78  23 2.94
  47  0.280  0.038  0.780- 121 1.67  99 1.74 135 1.75  88 2.02  27 2.96
  48  0.422  0.973  0.152- 110 1.52 101 1.57  96 1.58  79 1.85   9 2.55   3 2.69  10 2.78
  49  0.916  0.670  0.162-  95 1.60  94 1.68  64 1.68  80 1.72   4 3.12
  50  0.299  0.738  0.424- 122 1.59 131 1.66  83 1.91 113 2.00  16 2.52   5 2.79  15 3.16
  51  0.869  0.212  0.786-  84 1.73  97 1.80 114 1.87 102 2.14  61 2.37  31 2.92
  52  0.107  0.804  0.125-  75 1.64  80 1.73 116 1.84  57 1.94   5 2.89
  53  0.415  0.665  0.840-  76 1.49  63 1.66 112 1.94 105 1.97  40 2.65  41 3.04  19 3.15
  54  0.087  0.421  0.986- 108 1.48  56 1.66 118 1.66  35 2.89
  55  0.734  0.022  0.294-  36 1.65
  56  0.162  0.514  0.011-  54 1.66   7 2.12
  57  0.074  0.869  0.004-  27 1.81  52 1.94
  58  0.654  0.361  0.537-  37 1.66  21 2.54
  59  0.137  0.164  0.180-  35 2.09  13 2.27   3 2.52
  60  0.659  0.942  0.706-  23 2.21   2 2.22
  61  0.800  0.294  0.922-  24 1.93  31 2.16  51 2.37
  62  0.850  0.245  0.571-  37 1.66  34 2.17  12 2.29   6 2.56
  63  0.355  0.663  0.735-  53 1.66  40 1.87
  64  0.852  0.723  0.071-  49 1.68  29 2.18
  65  0.694  0.740  0.641-  41 1.82   1 2.40
  66  0.626  0.722  0.300-   4 1.80  17 2.10  15 2.48
  67  0.944  0.059  0.050-  46 1.74   8 2.48
  68  0.842  0.947  0.455-  42 1.71  36 2.07  12 2.43
  69  0.639  0.580  0.705-  41 1.97   1 2.17
  70  0.677  0.415  0.865-  31 1.58  19 2.20
  71  0.274  0.519  0.228-  44 1.56  16 2.55
  72  0.208  0.352  0.241-  35 1.66  44 1.92  43 1.94
  73  0.678  0.822  0.005-  29 1.52
  74  0.845  0.383  0.458-  37 1.86  34 2.18  11 2.22   6 2.23
  75  0.201  0.730  0.122-  52 1.64
  76  0.429  0.558  0.857-  53 1.49  19 2.31
[...]
 121  0.324  0.071  0.889-  47 1.67
 122  0.277  0.723  0.310-  50 1.59   5 2.17  16 2.38
 123  0.611  0.198  0.133-  32 1.69  14 2.26
 124  0.359  0.284  0.542-  38 1.64  39 2.39
 125  0.428  0.460  0.558-  38 1.70  30 1.81  21 2.54
 126  0.235  0.416  0.436-  43 1.63  38 2.18  16 2.48
 127  0.702  0.616  0.972-  29 1.72  19 2.12
 128  0.044  0.429  0.618-  34 1.66  25 2.17
 129  0.495  0.418  0.055-  45 1.54  14 2.25
 130  0.026  0.251  0.481-  34 2.06  25 2.09
 131  0.380  0.821  0.460-  50 1.66  15 2.11
 132  0.546  0.554  0.469-  30 1.45  17 1.98  21 2.18
 133  0.854  0.385  0.675-  37 2.03  34 2.13
 134  0.036  0.941  0.403-  42 1.61
 135  0.269  0.082  0.660-  39 1.72  47 1.75

IMPORTANT INFORMATION: All symmetrisations will be switched off!
NOSYMM: (Re-)initialisation of all symmetry stuff for point group C_1.

Automatic generation of k-mesh.
 generate k-points for:    2    2    2
Space group operators:
 irot       det(A)        alpha          n_x          n_y          n_z        tau_x        tau_y        tau_z
    1     1.000000     0.000000     1.000000     0.000000     0.000000     0.000000     0.000000     0.000000

 Subroutine IBZKPT returns following result:

 Found      8 irreducible k-points:

 Following reciprocal coordinates:
            Coordinates               Weight
  0.000000  0.000000  0.000000      1.000000
  0.500000  0.000000  0.000000      1.000000
  0.000000  0.500000  0.000000      1.000000
  0.500000  0.500000  0.000000      1.000000
  0.000000  0.000000  0.500000      1.000000
  0.500000  0.000000  0.500000      1.000000
  0.000000  0.500000  0.500000      1.000000
  0.500000  0.500000  0.500000      1.000000

 Following cartesian coordinates:
            Coordinates               Weight
  0.000000  0.000000  0.000000      1.000000
  0.036574  0.000000  0.000000      1.000000
  0.000000  0.036574  0.000000      1.000000
  0.036574  0.036574  0.000000      1.000000
  0.000000  0.000000  0.036574      1.000000
  0.036574  0.000000  0.036574      1.000000
  0.000000  0.036574  0.036574      1.000000
  0.036574  0.036574  0.036574      1.000000

 SYSTEM =  unknown system
 POSCAR =  Ca Si  O

 Startparameter for this run:
   NWRITE =      2    write-flag & timer
   PREC   = a         normal or accurate (medium, high low for compatibility)
   ISTART =      0    job   : 0-new  1-cont  2-samecut
   ICHARG =      2    charge: 1-file 2-atom 10-const
   ISPIN  =      1    spin polarized calculation?
   LNONCOLLINEAR =      F non collinear calculations
   LSORBIT =      F    spin-orbit coupling
   INIWAV =      1    electr: 0-lowe 1-rand  2-diag
   LASPH  =      F    aspherical Exc in radial PAW
   METAGGA=      F    non-selfconsistent MetaGGA calc.

 Electronic Relaxation 1
   ENCUT  =  600.0 eV  44.10 Ry    6.64 a.u.  27.30 27.30 27.30*2*pi/ulx,y,z
   ENINI  =  600.0     initial cutoff
   ENAUG  =  605.4 eV  augmentation charge cutoff
   NELM   =     60;   NELMIN=  2; NELMDL= -5     # of ELM steps
   EDIFF  = 0.1E-05   stopping-criterion for ELM
   LREAL  =      T    real-space projection
   NLSPLINE    = F    spline interpolate recip. space projectors
   LCOMPAT=      F    compatible to vasp.4.4
   GGA_COMPAT  = T    GGA compatible to vasp.4.4-vasp.4.6
   LMAXPAW     = -100 max onsite density
   LMAXMIX     =    2 max onsite mixed and CHGCAR
   VOSKOWN=      0    Vosko Wilk Nusair interpolation
   ROPT   =   -0.00025  -0.00025  -0.00025
 Ionic relaxation
   EDIFFG = -.1E-01   stopping-criterion for IOM
   NSW    =      1    number of steps for IOM
   NBLOCK =      1;   KBLOCK =      1    inner block; outer block
   IBRION =     -1    ionic relax: 0-MD 1-quasi-New 2-CG
   NFREE  =      0    steps in history (QN), initial steepest desc. (CG)
[...]
     0.000000000  0.000000000 13.670863650     0.000000000  0.000000000  0.073148268

  length of vectors
    13.670863650 13.670863650 13.670863650     0.073148268  0.073148268  0.073148268

 FORCES acting on ions
    electron-ion (+dipol)            ewald-force                    non-local-force                 convergence-correction
   -.196E+03 0.123E+02 -.191E+03   0.193E+03 -.887E+01 0.191E+03   0.398E+01 -.257E+01 -.322E-01   0.809E-02 -.153E-01 -.124E-01
   0.556E+02 -.101E+03 -.135E+03   -.512E+02 0.105E+03 0.135E+03   -.288E+01 -.489E+01 -.546E-01   -.241E-01 -.212E-03 -.478E-03
   -.154E+02 -.185E+03 -.578E+02   0.127E+02 0.184E+03 0.551E+02   0.139E+01 0.243E+01 0.306E+01   0.118E-02 -.594E-03 -.539E-03
   -.111E+03 0.794E+02 0.181E+03   0.114E+03 -.759E+02 -.181E+03   0.340E+00 -.509E+01 -.491E+01   -.150E-01 -.370E-02 0.580E-02
   0.985E+02 -.154E+03 -.149E+03   -.102E+03 0.152E+03 0.145E+03   0.128E+01 0.232E+01 0.470E+01   0.479E-02 -.283E-02 0.631E-02
   0.552E+02 0.135E+03 0.176E+03   -.583E+02 -.138E+03 -.179E+03   0.276E+01 0.269E+00 0.249E+00   -.467E-03 -.493E-03 0.352E-03
   0.727E+02 0.510E+02 0.244E+03   -.797E+02 -.506E+02 -.243E+03   0.632E+01 0.433E+00 -.315E+00   0.213E-02 0.498E-02 -.101E-01
   0.861E+02 -.821E+02 0.539E+02   -.819E+02 0.790E+02 -.557E+02   -.311E+01 0.138E+01 0.170E+01   0.371E-02 0.855E-02 0.631E-02
   -.248E+03 -.170E+03 0.903E+02   0.250E+03 0.169E+03 -.871E+02   0.164E+01 0.215E+01 -.255E+01   -.101E-01 0.316E-02 0.117E-02
   0.104E+03 0.192E+03 -.192E+02   -.105E+03 -.191E+03 0.168E+02   -.881E+00 -.464E+01 0.628E+01   -.710E-02 -.118E-02 -.126E-01
   -.478E+02 0.791E+02 0.270E+03   0.481E+02 -.749E+02 -.266E+03   0.716E+00 -.277E+01 -.460E+01   0.448E-02 -.543E-02 0.451E-02
   -.751E+02 0.153E+01 0.309E+02   0.717E+02 -.274E+01 -.293E+02   0.171E+01 0.272E+01 -.300E+01   0.525E-02 0.257E-02 -.840E-03
   0.118E+03 0.102E+03 0.110E+03   -.110E+03 -.975E+02 -.111E+03   -.640E+01 -.395E+01 0.838E+00   0.417E-02 0.154E-02 0.219E-02
   0.183E+03 0.173E+03 0.297E+03   -.179E+03 -.171E+03 -.294E+03   -.433E+01 -.247E+01 -.340E+01   -.616E-02 -.110E-02 -.344E-02
   0.102E+02 -.958E+02 -.818E+02   -.630E+01 0.999E+02 0.787E+02   -.135E+01 -.311E+01 0.200E+01   -.859E-02 0.462E-03 0.251E-02
   0.227E+02 -.179E+02 -.245E+02   -.292E+02 0.161E+02 0.225E+02   0.407E+01 0.992E+00 0.741E+00   0.258E-02 0.474E-02 0.815E-02
   -.163E+03 -.781E+02 -.654E+02   0.166E+03 0.807E+02 0.621E+02   0.138E+01 0.578E+00 0.378E+01   -.990E-02 -.146E-02 -.294E-02
   0.388E+02 -.351E+03 0.958E+02   -.367E+02 0.347E+03 -.961E+02   -.151E+01 0.570E+01 0.164E+01   -.356E-01 -.446E-02 -.512E-02
   0.702E+02 0.911E+02 0.110E+03   -.664E+02 -.911E+02 -.114E+03   -.372E+01 -.188E+00 0.242E+01   -.191E-01 -.258E-02 0.135E-04
   -.925E+02 -.156E+03 0.619E+02   0.921E+02 0.153E+03 -.606E+02   -.372E+01 0.301E+01 -.194E+01   0.624E-02 -.152E-01 -.107E-02
   0.720E+02 0.203E+03 -.243E+02   -.694E+02 -.205E+03 0.252E+02   -.201E+01 -.168E+00 -.725E+00   -.577E-02 -.451E-03 0.206E-02
   -.133E+03 0.125E+00 -.386E+03   0.129E+03 0.104E+01 0.381E+03   0.544E+01 -.588E+00 0.446E+01   0.242E-01 0.223E-02 0.373E-03
   0.570E+02 0.130E+03 -.520E+02   -.611E+02 -.134E+03 0.488E+02   0.244E+01 0.165E+01 0.194E+01   0.536E-02 0.217E-01 -.230E-02
   -.191E+03 0.481E+02 -.106E+03   0.187E+03 -.431E+02 0.108E+03   0.513E+01 -.448E+01 0.114E+01   0.155E-02 -.738E-03 0.793E-04
   -.201E+03 0.145E+03 -.363E+03   0.199E+03 -.144E+03 0.362E+03   0.484E+01 -.237E+01 0.172E+01   0.605E-02 0.137E-02 0.345E-02
   0.407E+02 0.941E+02 -.188E+03   -.392E+02 -.926E+02 0.185E+03   -.727E+00 -.143E+01 0.187E+01   -.846E-02 -.103E-02 0.181E-02
   -.664E+02 -.126E+03 0.464E+02   0.627E+02 0.126E+03 -.494E+02   0.652E+01 0.194E+01 0.187E+01   0.230E-01 -.591E-03 -.150E-01
   -.158E+03 0.277E+02 -.742E+02   0.149E+03 -.361E+02 0.762E+02   0.153E+02 0.287E+01 -.549E+01   0.594E-02 0.180E-02 -.127E-02
   -.989E+02 -.934E+00 0.631E+02   0.945E+02 0.516E+01 -.639E+02   0.114E+02 -.855E+01 -.219E+01   -.150E-01 -.184E-02 0.109E-01
   0.119E+03 -.232E+02 -.122E+03   -.109E+03 0.183E+02 0.113E+03   -.196E+02 0.751E+01 0.149E+02   -.601E-02 0.154E-02 0.319E-02
   0.579E+02 0.615E+02 0.464E+02   -.640E+02 -.550E+02 -.394E+02   0.665E+01 -.848E+01 -.454E+01   -.211E-02 -.115E-02 -.125E-03
   -.296E+02 0.675E+02 0.429E+02   0.293E+02 -.716E+02 -.395E+02   0.473E+01 0.314E+01 -.449E+01   -.155E-02 -.711E-03 0.233E-03
   0.437E+02 0.103E+02 -.111E+02   -.346E+02 -.896E+01 0.155E+02   -.968E+01 -.256E+01 -.254E+01   0.596E-02 -.837E-03 0.105E-02
   -.174E+02 -.345E+02 -.371E+02   0.244E+02 0.386E+02 0.433E+02   -.118E+02 -.472E+01 -.476E+01   0.269E-02 -.120E-03 0.154E-03
   0.589E+02 0.938E+02 0.172E+03   -.527E+02 -.914E+02 -.165E+03   -.748E+01 -.565E+01 -.420E+01   0.160E-02 -.403E-04 -.127E-02
   0.880E+02 0.315E+02 0.184E+02   -.851E+02 -.246E+02 -.197E+02   -.438E+01 -.162E+02 -.413E+01   -.138E-02 0.123E-02 -.597E-03
   0.106E+03 -.398E+02 -.996E+02   -.105E+03 0.387E+02 0.993E+02   0.127E+01 0.512E+01 0.541E+01   0.310E-03 -.839E-03 -.474E-03
   0.367E+02 -.354E+02 -.517E+02   -.312E+02 0.247E+02 0.619E+02   -.409E+01 0.961E+01 -.104E+02   -.107E-02 0.162E-02 0.228E-02
   -.380E+02 -.898E+02 -.476E+02   0.360E+02 0.734E+02 0.381E+02   0.637E+01 0.137E+02 0.118E+02   -.915E-03 -.208E-02 0.354E-02
   -.847E+01 -.443E+02 0.286E+02   -.410E+01 0.408E+02 -.210E+02   0.159E+02 0.603E+01 -.900E+01   0.853E-02 -.122E-02 0.332E-02
   0.273E+02 -.504E+02 -.716E+02   -.159E+02 0.452E+02 0.650E+02   -.374E+01 0.152E+01 0.617E+01   -.186E-01 0.519E-03 0.118E-02
   -.180E+02 0.452E+02 -.664E+02   0.171E+02 -.390E+02 0.556E+02   -.142E+01 -.378E+01 0.976E+01   0.411E-02 0.408E-03 0.497E-03
   0.488E+02 0.241E+02 -.155E+02   -.509E+02 -.257E+02 0.113E+02   0.290E+01 0.457E+01 0.207E+00   0.148E-02 0.425E-03 0.135E-02
   -.527E+02 0.670E+02 -.234E+01   0.513E+02 -.547E+02 0.977E+00   0.395E+00 -.152E+02 -.454E+00   -.661E-03 0.296E-04 -.144E-03
   -.354E+02 0.273E+02 0.920E+01   0.305E+02 -.216E+02 -.122E+02   0.362E+01 -.101E+02 0.461E+01   -.334E-02 -.679E-03 -.346E-03
   -.749E+02 0.428E+02 -.254E+02   0.683E+02 -.422E+02 0.284E+02   0.812E+01 -.874E+00 -.258E+01   0.522E-03 0.430E-02 0.852E-03
   -.464E+02 -.861E+02 -.228E+02   0.386E+02 0.847E+02 0.293E+02   0.431E+01 -.173E+01 -.766E+01   0.329E-02 -.684E-02 -.220E-02
   0.550E+02 -.128E+03 0.301E+02   -.535E+02 0.124E+03 -.313E+02   -.265E+00 0.163E+01 0.558E+01   -.152E-02 -.679E-03 -.146E-02
   -.407E+02 0.320E+02 0.692E+02   0.388E+02 -.368E+02 -.696E+02   0.156E+01 0.624E+01 0.222E+00   0.658E-02 -.343E-02 0.462E-02
   -.699E+01 -.339E+02 -.120E+03   0.679E+01 0.405E+02 0.114E+03   -.103E+01 -.393E+01 0.117E+02   -.222E-02 0.638E-03 0.479E-02
   -.714E+02 0.301E+02 -.649E+02   0.773E+02 -.176E+02 0.639E+02   -.496E+01 -.924E+01 0.758E+00   0.192E-02 0.846E-03 -.429E-03
   0.317E+02 0.285E+02 0.104E+03   -.280E+02 -.299E+02 -.104E+03   -.577E+01 0.426E+01 -.261E+01   0.642E-02 -.913E-03 0.137E-02
   0.933E+02 -.440E+02 0.143E+01   -.939E+02 0.280E+02 -.216E+01   0.154E+01 0.214E+02 0.274E+01   -.130E-01 0.888E-02 -.676E-02
   -.922E+02 0.734E+02 0.119E+03   0.839E+02 -.605E+02 -.119E+03   0.124E+02 -.976E+01 0.325E+01   0.430E-02 -.124E-02 -.188E-02
   -.163E+02 -.393E+02 0.145E+03   0.194E+02 0.417E+02 -.169E+03   -.289E+01 -.247E+01 0.238E+02   -.213E-02 0.205E-02 0.947E-03
   0.634E+02 -.321E+02 0.187E+03   -.583E+02 0.556E+02 -.182E+03   -.523E+01 -.268E+02 -.552E+01   0.688E-02 -.439E-03 -.425E-02
   0.148E+03 0.837E+02 0.106E+03   -.161E+03 -.829E+02 -.112E+03   0.101E+02 -.566E+01 0.114E+02   0.122E-01 0.205E-02 -.273E-02
   0.168E+03 0.492E+02 -.144E+03   -.194E+03 -.420E+02 0.144E+03   0.290E+02 -.843E+01 -.686E+00   -.246E-02 -.123E-02 -.686E-03
   0.309E+02 0.408E+02 0.216E+03   -.372E+02 -.523E+02 -.220E+03   0.853E+01 0.142E+02 0.317E+01   0.296E-02 0.110E-02 -.842E-03
   0.361E+02 -.679E+02 -.464E+02   -.340E+02 0.655E+02 0.436E+02   -.302E+01 0.276E+01 0.398E+01   -.117E-01 0.707E-02 -.194E-02
[...]
   -.432E+02 0.453E+02 0.120E+03   0.381E+02 -.530E+02 -.152E+03   0.658E+01 0.707E+01 0.325E+02   -.271E-03 0.526E-03 0.480E-02
   -.552E+02 0.101E+03 0.654E+02   0.541E+02 -.124E+03 -.780E+02   0.114E+01 0.259E+02 0.138E+02   -.312E-02 -.196E-03 -.118E-03
   -.943E+02 0.177E+03 -.136E+02   0.106E+03 -.197E+03 0.397E+01   -.116E+02 0.191E+02 0.968E+01   -.254E-02 0.112E-04 0.322E-02
   0.459E+00 0.764E+02 -.195E+03   0.179E+02 -.838E+02 0.200E+03   -.195E+02 0.884E+01 -.560E+01   -.623E-02 0.334E-02 0.334E-02
   -.118E+03 0.474E+02 -.122E+03   0.134E+03 -.361E+02 0.127E+03   -.137E+02 -.111E+02 -.127E+01   0.979E-03 0.142E-02 0.341E-02
   -.128E+03 0.153E+02 0.165E+02   0.127E+03 -.335E+02 -.134E+02   0.136E+01 0.202E+02 -.309E+01   -.141E-01 -.114E-01 0.514E-02
   -.939E+02 -.181E+03 -.247E+03   0.107E+03 0.203E+03 0.264E+03   -.139E+02 -.237E+02 -.190E+02   0.611E-02 0.577E-03 0.478E-03
   0.117E+03 0.798E+02 0.178E+03   -.138E+03 -.925E+02 -.198E+03   0.205E+02 0.112E+02 0.172E+02   -.493E-02 -.254E-03 -.199E-02
   -.145E+01 0.934E+02 0.994E+01   0.612E+01 -.995E+02 -.215E+02   -.764E+01 0.805E+01 0.147E+02   0.305E-02 0.673E-03 0.129E-02
   0.586E+02 -.144E+03 -.194E+03   -.477E+02 0.163E+03 0.209E+03   -.125E+02 -.205E+02 -.156E+02   -.575E-02 -.146E-02 0.684E-02
   -.226E+02 0.820E+02 0.825E+01   0.514E+02 -.963E+02 -.255E+02   -.247E+02 0.111E+02 0.122E+02   -.680E-02 0.105E-03 0.122E-02
   -.204E+02 -.153E+03 -.150E+03   0.240E+02 0.152E+03 0.168E+03   -.503E+01 0.345E+01 -.233E+02   0.310E-02 -.263E-02 -.161E-02
   -.122E+03 -.425E+02 0.382E+02   0.147E+03 0.554E+02 -.464E+02   -.258E+02 -.129E+02 0.632E+01   0.528E-02 -.800E-03 0.295E-02
   0.519E+02 -.703E+02 -.691E+02   -.711E+02 0.653E+02 0.658E+02   0.206E+02 0.734E+01 0.433E+01   0.481E-02 -.713E-02 0.526E-02
   -.445E+02 0.917E+01 -.655E+02   -.711E-12 0.668E-12 0.327E-12   0.446E+02 -.914E+01 0.655E+02   -.879E-01 0.583E-02 0.397E-01

 POSITION                                       TOTAL-FORCE (eV/Angst)
     10.73702      8.06696      8.81763         0.442068      0.817566     -0.089125
      7.36334     12.98136      8.15949         1.527234     -0.665022     -0.173187
      4.07957      1.34152      3.27172        -1.355966      1.128155      0.365750
      9.45606      9.00428      2.80391         3.526522     -1.537653     -4.708106
      3.03289     11.91007      3.94911        -2.343696     -0.078483      0.999983
     10.38573      3.46762      5.57056        -0.391109     -2.634458     -2.676880
      4.19349      7.60296      0.58609        -0.632646      0.839551      0.393587
     12.44481     12.86063      2.51215         1.153267     -1.688327     -0.177169
      8.28626     13.33726      1.63718         2.872296      0.242431      0.654982
      5.69144     10.59700      1.43054        -1.510230     -3.500195      3.856365
     12.13390      6.52540      4.54567         0.963654      1.395880     -0.885390
     12.42830      1.29535      7.20262        -1.602707      1.510285     -1.415173
      0.60611      1.86104      4.30803         1.569802      0.588074      0.184480
      6.54235      3.47367      0.71194         0.250233     -0.470164      0.021012
      6.83284     11.42071      4.99037         2.590206      0.931693     -1.060034
      2.73118      8.01947      5.26720        -2.428623     -0.761652     -1.178139
      8.72627      9.04133      6.02299         4.687464      3.196375      0.484191
      7.19090     11.98123     12.06861         0.587366      1.770904      1.314319
      7.94919      7.23463     12.64226         0.104571     -0.208530     -1.543695
     11.78255      6.64125     12.43160        -4.058929      0.445175     -0.697692
      7.20178      5.55426      5.60274         0.564710     -2.104950      0.121497
      1.27377      9.54862      8.66145         1.545048      0.581343     -0.574138
     10.90752     13.31102     10.68901        -1.662667     -3.096267     -1.289791
     11.69469      3.34617      0.58045         0.807919      0.526568      3.188405
      1.84977      4.19961      7.82113         2.866307     -1.401189      1.045425
      5.51295      3.78801     10.22263         0.735389      0.060315     -0.522421
      2.18300     12.79481     12.69333         2.894106      1.643372     -1.077016
     13.38377      0.05447      9.42515         5.634776     -5.551817     -3.429785
     10.05027     10.06874     13.17174         6.942983     -4.324532     -2.982886
      6.33861      7.99015      7.21968        -9.584611      2.626692      5.853408
      9.31736      4.22368     11.17724         0.486189     -2.021458      2.504151
      8.80723      3.92651      2.89212         4.404089     -0.926892     -1.096212
     12.88546      9.00921      6.40797        -0.585365     -1.222078      1.889592
     13.13800      4.89432      7.71893        -4.813395     -0.614783      1.495227
      2.50346      4.13285      1.81750        -1.221466     -3.239805      3.033170
      9.74271      0.18618      5.64279        -1.481684     -9.296968     -5.386352
     10.53426      4.59720      7.67528         2.147577      3.954298      5.106525
      4.41310      5.40809      7.76070         1.403949     -1.028842     -0.164305
      4.50178      1.53138      7.57226         4.409185     -2.695938      2.406870
      3.92634     10.66524     10.28603         3.335679      2.525561     -1.380533
      7.85850      9.69396      9.45297         7.606063     -3.723836     -0.401945
     12.95490     12.03365      6.19015        -2.249912      2.367757     -1.041481
      2.00961      5.14285      5.01309         0.822281      2.957773     -3.986963
      4.51951      5.74568      3.18113        -1.071786     -2.883059     -1.816781
      7.67323      6.46785      1.74112        -1.213310     -4.359716      1.640799
     11.47918      0.72296     13.36478         1.436048     -0.254215      0.429813
      3.82381      0.51508     10.66608        -3.431584     -3.134994     -1.187245
      5.77508     13.30081      2.07637         1.202346     -2.089022      4.420761
     12.51922      9.16030      2.20974        -0.411372      1.382369     -0.111410
      4.08157     10.08786      5.78967        -1.229668      2.669068      5.466841
     11.87763      2.89290     10.74838         0.935573      3.283930     -0.230890
      1.45850     10.99220      1.71201        -2.064729      2.871291     -2.877800
      5.67776      9.08461     11.48658         0.894204      5.367734      2.007400
      1.18956      5.75173     13.48626         4.161171      3.053059      3.213073
     10.03206      0.29912      4.01721         0.165040     -0.019381     -0.339809
      2.20785      7.02058      0.14848        -0.131018     -3.237237     -0.806148
      1.00522     11.88231      0.04846        -2.773309     -4.875088      5.302370
      8.93894      4.93698      7.34670         2.611371     -1.286954     -0.290571
      1.87101      2.24785      2.46480         2.184794      2.763333     -0.835395
      9.00961     12.88289      9.64679        -0.912668      0.359834      1.259050
[...]
      4.42579      0.96447     12.15854         0.087827      0.043225     -2.787764
      3.78241      9.88999      4.24340         1.398232     -0.700027     -0.264825
      8.35399      2.70029      1.81725         0.005725      3.212767      1.273838
      4.90177      3.87821      7.41588        -0.153815     -1.193504      0.061607
      5.85762      6.29137      7.62663        -1.186234      1.439855     -0.191626
      3.21415      5.68826      5.96405         2.236254      0.164966      3.630487
      9.59257      8.41923     13.28311         0.585525      2.022755      0.039028
      0.60391      5.86481      8.44280        -1.059627     -1.745889     -2.309781
      6.76930      5.71432      0.75108        -1.059246     -1.466014     -2.778337
      0.35578      3.42483      6.57595        -2.974095      1.904795      3.132361
      5.18907     11.22184      6.29101        -1.630333     -1.620509     -0.595649
      7.46293      7.56955      6.40540         4.076790     -3.199124     -5.069406
     11.67143      5.26691      9.22212        -1.508441      2.117016     -5.120643
      0.48811     12.86643      5.51350        -0.452147     -0.006293     -1.931355
      3.67340      1.12164      9.02784         1.433040      2.353493      0.987714
    total drift:                                0.023016      0.030197     -0.010467

  FREE ENERGIE OF THE ION-ELECTRON SYSTEM (eV)
  free  energy   TOTEN  =      -875.66984282 eV

  energy  without entropy=     -875.62296582  energy(sigma->0) =     -875.64640432