 vasp.5.4.4.18Apr17-6-g9f103f2a35 (build Mar 16 2023 09:39:13) complex

 executed on             LinuxIFC date 2024.04.30  08:38:27

 INCAR:
 POTCAR:    PAW_PBE Ca_sv 06Sep2000
 POTCAR:    PAW_PBE Si 05Jan2001
 POTCAR:    PAW_PBE O 08Apr2002
 POTCAR:    PAW_PBE Ca_sv 06Sep2000
   VRHFIN =Ca: 3s3p4s

   TITEL  = PAW_PBE Ca_sv 06Sep2000
   POMASS =   40.078; ZVAL   =   10.000    mass and valenz
   ENMAX  =  266.622; ENMIN  =  199.967 eV

   TITEL  = PAW_PBE Si 05Jan2001
   POMASS =   28.085; ZVAL   =    4.000    mass and valenz
   ENMAX  =  245.345; ENMIN  =  184.009 eV

   TITEL  = PAW_PBE O 08Apr2002
   POMASS =   16.000; ZVAL   =    6.000    mass and valenz
   ENMAX  =  400.000; ENMIN  =  300.000 eV

 Optimization of the real space projectors (new method)

 maximal supplied QI-value         = 16.25
 optimisation between [QCUT,QGAM] = [ 12.51, 25.03] = [ 43.85,175.40] Ry
 Optimized for a Real-space Cutoff    1.47 Angstroem

   l    n(q)    QCUT    max X(q) W(low)/X(q) W(high)/X(q)  e(spline)
   0     11    12.514    11.817    0.25E-04    0.32E-05    0.87E-07
   0     11    12.514     8.461    0.39E-04    0.59E-05    0.18E-06
   1     11    12.514     3.957    0.97E-05    0.57E-05    0.28E-07
   1     11    12.514     4.314    0.42E-04    0.14E-04    0.23E-06
   2     10    12.514    14.565    0.79E-04    0.50E-03    0.16E-05
   2     10    12.514    14.552    0.75E-04    0.48E-03    0.15E-05
 Optimization of the real space projectors (new method)

[...]

   l    n(q)    QCUT    max X(q) W(low)/X(q) W(high)/X(q)  e(spline)
   0      9    12.501   159.560    0.10E-03    0.83E-04    0.71E-07
   0      9    12.501   115.863    0.99E-04    0.81E-04    0.70E-07
   1      8    12.501    88.339    0.20E-03    0.25E-03    0.76E-07
   1      8    12.501    48.592    0.20E-03    0.24E-03    0.75E-07
 Optimization of the real space projectors (new method)

 maximal supplied QI-value         = 24.76
 optimisation between [QCUT,QGAM] = [ 12.38, 25.00] = [ 42.90,175.06] Ry
 Optimized for a Real-space Cutoff    1.16 Angstroem

   l    n(q)    QCUT    max X(q) W(low)/X(q) W(high)/X(q)  e(spline)
   0      9    12.378    20.381    0.16E-03    0.67E-05    0.31E-06
   0      9    12.378    15.268    0.17E-03    0.81E-05    0.33E-06
   1      8    12.378     5.964    0.20E-03    0.16E-03    0.30E-06
   1      8    12.378     5.382    0.18E-03    0.14E-03    0.26E-06
  PAW_PBE Ca_sv 06Sep2000               :
  PAW_PBE Si 05Jan2001                  :
  PAW_PBE O 08Apr2002                   :

 POSCAR: Ca Si  O
  positions in direct lattice
 exchange correlation table for  LEXCH =        8
   RHO(1)=    0.500       N(1)  =     2000
   RHO(2)=  100.500       N(2)  =     4000

 ion  position               nearest neighbor table
   1  0.633  0.100  0.111- 103 2.16 135 2.24 105 2.28  97 2.36  99 2.43  29 3.09  40 3.11  54 3.16

   2  0.234  0.149  0.745- 133 1.98  91 2.34  64 2.38  38 2.87  44 3.15
   3  0.830  0.324  0.663-  84 2.01  85 2.09  81 2.23 101 2.31 126 2.48  44 2.70  53 2.74
   4  0.506  0.904  0.948-  76 2.11  78 2.23 103 2.34 118 2.43  33 2.72  45 2.80
   5  0.859  0.174  0.969-  68 2.18 132 2.22  99 2.45  56 2.50 108 2.52  84 2.56  44 2.94
   6  0.616  0.982  0.379- 105 2.09  67 2.18  80 2.36 110 2.38 127 2.43  54 3.01  40 3.03
   7  0.364  0.879  0.674- 109 2.02  79 2.03  64 2.29  30 2.97
   8  0.767  0.873  0.080- 130 2.21 103 2.43  43 3.04
   9  0.522  0.407  0.507- 124 2.22 121 2.29 112 2.38  96 2.44  28 2.95
  10  0.508  0.462  0.207- 124 2.24 104 2.37  29 2.91
  11  0.838  0.699  0.429- 115 2.27 131 2.30  63 2.41 129 2.46  28 2.75
  12  0.856  0.361  0.273- 129 2.07 134 2.08  86 2.25  46 2.66  28 3.06  27 3.16  37 3.16
  13  0.848  0.471  0.913-  56 2.22  84 2.25 111 2.42 106 2.47  43 2.92  48 3.15
  14  0.840  0.641  0.691- 111 2.01  65 2.21  81 2.43 122 2.44
  15  0.979  0.742  0.933- 120 2.00 111 2.19  90 2.22 130 2.38  51 2.99
  16  0.275  0.702  0.000-  90 2.26  76 2.31
  17  0.264  0.467  0.845-  91 2.27  77 2.27 102 2.38  38 2.44  72 2.56  35 2.88
  18  0.515  0.150  0.607- 121 2.06 110 2.19  83 2.33  85 2.36  79 2.54 114 2.55  53 2.93
  19  0.219  0.221  0.319- 125 1.95  94 2.17  21 3.02
  20  0.496  0.735  0.452- 127 2.08 109 2.30 112 2.50  42 3.04
  21  0.035  0.121  0.455-  95 2.06  69 2.07  93 2.50  89 2.50  19 3.02  34 3.12  37 3.14
  22  0.851  0.004  0.650- 123 2.06  89 2.24  93 2.45  60 2.50  49 3.00
  23  0.491  0.236  0.881-  91 2.14  55 2.18 135 2.22 114 2.38  38 2.80  29 2.97  47 3.16
  24  0.318  0.958  0.237-  94 2.18  62 2.43  70 2.53  30 2.90
  25  0.280  0.578  0.529-  98 2.04 112 2.33  77 2.35 107 2.45  52 3.15
  26  0.084  0.862  0.327- 115 2.12  70 2.28 131 2.55
  27  0.023  0.498  0.420- 129 2.23  86 2.43  92 2.47  98 2.54  34 3.08  36 3.15  12 3.16
  28  0.745  0.494  0.457-  81 1.58  96 1.71 129 1.73  66 1.79  11 2.75   9 2.95  12 3.06
  29  0.640  0.346  0.042-  55 1.54 132 1.64  97 1.74 104 2.13  10 2.91  23 2.97   1 3.09
  30  0.337  0.013  0.470-  61 1.43  79 1.54  94 1.71  83 2.16  24 2.90   7 2.97
  31  0.718  0.625  0.150-  63 1.51 104 1.70  82 1.71 117 1.72  43 2.68  42 2.85
  32  0.048  0.835  0.587- 122 1.62  57 1.64 115 1.68  93 1.77  51 2.50
  33  0.663  0.015  0.832- 103 1.61 114 1.62 116 1.65 123 1.74   4 2.72  49 3.02
  34  0.128  0.328  0.578-  95 1.58  98 1.68 126 1.77 133 1.79  92 2.34  35 2.90  27 3.08  44 3.12
                            21 3.12
  35  0.055  0.494  0.735-  65 1.52  92 1.64 102 1.68 107 1.90  51 2.80  17 2.88  34 2.90  44 3.03

  36  0.029  0.617  0.188- 120 1.60 131 1.68  86 1.75  58 2.11  46 2.72  27 3.15
  37  0.989  0.148  0.201-  69 1.49  68 1.69  71 1.78 134 1.90  99 2.15  40 2.35  41 2.93  21 3.14
                            12 3.16
  38  0.365  0.346  0.721-  91 1.52  77 1.52 121 1.61 133 1.93  72 2.36  17 2.44  23 2.80   2 2.87

  39  0.250  0.401  0.103- 128 1.60  73 1.63 119 1.69  74 1.91  46 2.89  47 3.02
  40  0.823  0.087  0.284- 134 1.58  99 1.62  67 1.69  37 2.35   6 3.03   1 3.11
  41  0.055  0.970  0.051-  62 1.55 130 1.66 100 1.73  68 1.86  37 2.93  45 3.06
  42  0.550  0.778  0.210- 127 1.56 118 1.60  87 1.90  82 1.99  31 2.85  20 3.04
  43  0.719  0.675  0.934- 117 1.62  78 1.63 111 1.71 106 1.84  82 2.55  31 2.68  13 2.92  48 2.95
                             8 3.04
  44  0.000  0.256  0.790-  84 1.56 108 1.68 126 1.79 102 1.92   3 2.70   5 2.94  35 3.03  34 3.12
                             2 3.15
  45  0.287  0.979  0.949- 113 1.54  64 1.66  76 1.74 100 1.75   4 2.80  47 2.98  41 3.06
  46  0.012  0.403  0.123-  74 1.54  86 1.57  56 1.67  71 1.84  12 2.66  36 2.72  39 2.89
  47  0.349  0.172  0.090-  73 1.53 125 1.53 113 1.69 135 1.82  45 2.98  39 3.02  23 3.16
  48  0.609  0.495  0.811-  75 1.56 101 1.65  72 1.68 106 1.73  52 2.40  43 2.95  13 3.15
  49  0.642  0.872  0.628- 116 1.60  60 1.64 109 1.70 110 1.73  22 3.00  33 3.02
  50  0.302  0.681  0.278-  88 1.61  58 1.62  87 1.70  70 1.86
  51  0.126  0.715  0.736- 107 1.56  90 1.59  57 1.70 122 1.98  65 2.19  32 2.50  35 2.80  15 2.99

  52  0.466  0.587  0.711- 112 1.54  72 1.67  59 1.69  75 1.97  77 2.30  48 2.40  25 3.15
  53  0.730  0.195  0.506-  89 1.53  80 1.58  85 1.65  66 1.95   3 2.74  18 2.93
  54  0.497  0.191  0.315- 105 1.57 124 1.76  83 2.07  80 2.14 125 2.33   6 3.01   1 3.16
  55  0.515  0.351  0.018-  29 1.54  23 2.18
  56  0.906  0.359  0.046-  46 1.67  13 2.22   5 2.50
  57  0.170  0.787  0.623-  32 1.64  51 1.70
  58  0.199  0.657  0.195-  50 1.62  36 2.11
  59  0.378  0.674  0.777-  52 1.69
  60  0.763  0.829  0.583-  49 1.64  22 2.50
  61  0.413  0.932  0.427-  30 1.43
  62  0.139  0.971  0.147-  41 1.55  24 2.43
  63  0.750  0.693  0.250-  31 1.51  11 2.41
  64  0.331  0.995  0.820-  45 1.66   7 2.29   2 2.38
  65  0.995  0.596  0.777-  35 1.52  51 2.19  14 2.21
  66  0.722  0.347  0.454-  28 1.79  53 1.95
  67  0.787  0.959  0.325-  40 1.69   6 2.18
  68  0.997  0.112  0.066-  37 1.69  41 1.86   5 2.18
  69  0.036  0.076  0.290-  37 1.49  21 2.07
  70  0.259  0.801  0.363-  50 1.86  26 2.28  24 2.53
  71  0.046  0.283  0.210-  37 1.78  46 1.84
  72  0.471  0.487  0.805-  52 1.67  48 1.68  38 2.36  17 2.56
  73  0.305  0.286  0.058-  47 1.53  39 1.63
  74  0.107  0.426  0.042-  46 1.54  39 1.91
  75  0.628  0.593  0.729-  48 1.56  52 1.97
  76  0.351  0.876  0.024-  45 1.74   4 2.11  16 2.31
  77  0.333  0.457  0.671-  38 1.52  17 2.27  52 2.30  25 2.35
  78  0.612  0.755  0.921-  43 1.63   4 2.23
  79  0.344  0.027  0.597-  30 1.54   7 2.03  18 2.54
  80  0.647  0.172  0.407-  53 1.58  54 2.14   6 2.36
  81  0.779  0.483  0.583-  28 1.58   3 2.23  14 2.43
  82  0.591  0.662  0.101-  31 1.71  42 1.99  43 2.55
  83  0.399  0.180  0.455-  54 2.07  30 2.16  18 2.33
  84  0.891  0.318  0.817-  44 1.56   3 2.01  13 2.25   5 2.56
  85  0.695  0.219  0.636-  53 1.65   3 2.09  18 2.36
  86  0.987  0.483  0.222-  46 1.57  36 1.75  12 2.25  27 2.43
  87  0.394  0.758  0.206-  50 1.70  42 1.90
  88  0.367  0.579  0.335-  50 1.61
  89  0.836  0.126  0.512-  53 1.53  22 2.24  21 2.50
  90  0.148  0.726  0.864-  51 1.59  15 2.22  16 2.26
  91  0.332  0.293  0.830-  38 1.52  23 2.14  17 2.27   2 2.34
  92  0.994  0.461  0.619-  35 1.64  34 2.34  27 2.47
  93  0.047  0.980  0.605-  32 1.77  22 2.45  21 2.50
  94  0.243  0.052  0.372-  30 1.71  19 2.17  24 2.18
  95  0.069  0.288  0.469-  34 1.58  21 2.06
  96  0.625  0.565  0.435-  28 1.71   9 2.44
  97  0.685  0.281  0.163-  29 1.74   1 2.36
  98  0.197  0.432  0.516-  34 1.68  25 2.04  27 2.54
  99  0.829  0.088  0.150-  40 1.62  37 2.15   1 2.43   5 2.45
 100  0.149  0.935  0.948-  41 1.73  45 1.75
 101  0.698  0.395  0.782-  48 1.65   3 2.31
 102  0.087  0.386  0.817-  35 1.68  44 1.92  17 2.38
 103  0.670  0.005  0.964-  33 1.61   1 2.16   4 2.34   8 2.43
 104  0.688  0.488  0.135-  31 1.70  29 2.13  10 2.37
 105  0.527  0.075  0.264-  54 1.57   6 2.09   1 2.28
 106  0.656  0.536  0.940-  48 1.73  43 1.84  13 2.47
 107  0.166  0.599  0.695-  51 1.56  35 1.90  25 2.45
 108  0.019  0.129  0.843-  44 1.68   5 2.52
 109  0.511  0.822  0.621-  49 1.70   7 2.02  20 2.30
 110  0.613  0.001  0.574-  49 1.73  18 2.19   6 2.38
 111  0.836  0.662  0.856-  43 1.71  14 2.01  15 2.19  13 2.42
[...]
 121  0.477  0.307  0.661-  38 1.61  18 2.06   9 2.29
 122  0.984  0.783  0.693-  32 1.62  51 1.98  14 2.44
 123  0.792  0.067  0.797-  33 1.74  22 2.06
 124  0.499  0.333  0.341-  54 1.76   9 2.22  10 2.24
 125  0.333  0.173  0.216-  47 1.53  19 1.95  54 2.33
 126  0.021  0.253  0.643-  34 1.77  44 1.79   3 2.48
 127  0.603  0.788  0.327-  42 1.56  20 2.08   6 2.43
 128  0.217  0.426  0.229-  39 1.60
 129  0.849  0.508  0.360-  28 1.73  12 2.07  27 2.23  11 2.46
 130  0.935  0.913  0.019-  41 1.66   8 2.21  15 2.38
 131  0.976  0.683  0.298-  36 1.68  11 2.30  26 2.55
 132  0.696  0.257  0.956-  29 1.64   5 2.22
 133  0.251  0.271  0.638-  34 1.79  38 1.93   2 1.98
 134  0.888  0.196  0.312-  40 1.58  37 1.90  12 2.08
 135  0.472  0.119  0.021-  47 1.82  23 2.22   1 2.24

IMPORTANT INFORMATION: All symmetrisations will be switched off!
NOSYMM: (Re-)initialisation of all symmetry stuff for point group C_1.

Automatic generation of k-mesh.
 generate k-points for:    2    2    2
Space group operators:
[...]
     0.000000000  0.000000000 12.093787620     0.000000000  0.000000000  0.082687081

  length of vectors
    12.093787620 12.093787620 12.093787620     0.082687081  0.082687081  0.082687081

 FORCES acting on ions
    electron-ion (+dipol)            ewald-force                    non-local-force                 convergence-correction
   -.178E+02 0.102E+02 -.763E+02   0.141E+02 -.716E+01 0.731E+02   0.299E+01 -.198E+01 0.286E+01   -.772E-03 -.538E-03 -.958E-03
   0.206E+03 0.246E+03 -.835E+02   -.205E+03 -.249E+03 0.832E+02   -.211E+01 -.157E+01 0.221E+01   -.143E-03 -.742E-03 -.159E-03
   -.488E+02 0.440E+02 0.845E+02   0.417E+02 -.412E+02 -.830E+02   0.528E+01 -.136E+01 -.361E+01   -.492E-03 -.462E-03 0.183E-02
   0.935E+02 0.175E+03 0.111E+03   -.915E+02 -.176E+03 -.107E+03   -.804E+00 0.136E+01 -.396E+01   0.299E-03 0.104E-02 0.376E-03
   -.101E+03 0.108E+03 0.760E+02   0.993E+02 -.107E+03 -.789E+02   0.407E+00 -.974E+00 0.112E+01   -.109E-02 0.449E-03 -.120E-02
   -.764E+02 0.161E+03 -.409E+02   0.764E+02 -.161E+03 0.436E+02   -.494E+00 -.166E+01 -.395E+00   -.107E-02 0.464E-03 -.119E-03
   0.187E+03 0.161E+03 -.952E+02   -.184E+03 -.159E+03 0.967E+02   -.407E+01 -.397E+01 0.747E+00   0.104E-02 0.690E-03 -.138E-03
   -.125E+03 0.745E+02 -.660E+02   0.126E+03 -.721E+02 0.640E+02   -.943E+00 -.194E+01 0.230E+01   -.103E-02 0.123E-02 -.773E-03
   0.714E+02 -.755E+02 0.983E+02   -.700E+02 0.761E+02 -.991E+02   -.102E+01 -.336E+00 0.818E+00   -.710E-04 -.308E-03 0.908E-03
   0.134E+03 -.116E+03 -.307E+02   -.134E+03 0.114E+03 0.306E+02   -.118E+01 0.203E+01 -.296E+00   -.918E-04 -.126E-03 -.119E-03
   0.402E+02 -.131E+03 -.643E+02   -.400E+02 0.135E+03 0.571E+02   -.131E+01 -.240E+01 0.512E+01   0.243E-03 -.184E-05 0.300E-03
   0.111E+03 -.270E+02 0.225E+02   -.118E+03 0.265E+02 -.225E+02   0.276E+01 -.149E+00 -.135E+01   -.322E-03 -.506E-03 -.180E-03
   -.872E+02 -.499E+02 -.846E+02   0.846E+02 0.456E+02 0.849E+02   0.184E+01 0.370E+01 -.183E+00   0.332E-04 -.102E-02 -.112E-02
   0.974E+02 -.167E+03 0.205E+03   -.985E+02 0.167E+03 -.201E+03   -.375E+00 0.343E+00 -.567E+01   0.287E-03 -.494E-03 0.111E-02
   -.796E+02 -.246E+03 -.215E+02   0.800E+02 0.245E+03 0.221E+02   -.694E+00 0.305E+01 -.205E+01   -.684E-04 -.797E-03 -.961E-03
   -.394E+02 0.508E+02 -.125E+02   0.402E+02 -.487E+02 0.135E+02   -.709E-01 -.210E+01 -.122E+00   -.382E-03 0.324E-03 -.233E-03
   0.694E+02 -.154E+03 -.259E+03   -.675E+02 0.154E+03 0.260E+03   -.198E+01 0.182E+01 0.175E+01   -.538E-03 0.107E-02 -.162E-03
   0.660E+02 0.567E+02 -.218E+02   -.636E+02 -.589E+02 0.227E+02   -.184E+01 -.339E+00 -.688E+00   0.298E-03 0.412E-03 0.111E-02
   0.851E+01 -.202E+03 -.617E+02   -.615E+01 0.203E+03 0.618E+02   -.410E+01 0.200E+01 0.206E+01   0.495E-03 -.372E-03 0.372E-03
   0.604E+02 0.815E+02 -.178E+02   -.573E+02 -.817E+02 0.190E+02   -.374E+01 -.102E+01 -.468E-01   -.105E-03 0.328E-03 0.424E-03
   -.530E+02 0.211E+03 -.164E+03   0.500E+02 -.210E+03 0.167E+03   0.166E+01 -.245E+01 0.834E+00   -.181E-03 0.509E-03 0.225E-03
   -.191E+03 0.158E+03 -.345E+02   0.190E+03 -.156E+03 0.362E+02   0.164E+01 -.287E+01 -.191E+01   0.726E-04 0.863E-03 0.291E-03
   -.646E+01 -.521E+01 0.475E+02   0.984E+01 0.191E+01 -.431E+02   -.411E+00 0.193E+01 -.422E+01   0.140E-02 -.875E-03 -.370E-04
   0.174E+02 0.121E+03 0.976E+02   -.191E+02 -.123E+03 -.962E+02   0.246E+01 0.558E+00 -.265E+01   0.855E-03 -.585E-04 0.528E-04
   0.665E+02 -.225E+03 0.207E+03   -.648E+02 0.218E+03 -.204E+03   -.102E+01 0.727E+01 -.254E+01   0.774E-03 0.317E-03 0.480E-03
   0.675E+02 0.531E+02 0.486E+02   -.653E+02 -.560E+02 -.476E+02   -.144E+01 0.308E+01 -.243E+01   0.103E-02 0.483E-03 -.511E-04
   -.182E+03 -.163E+03 -.107E+02   0.182E+03 0.159E+03 0.119E+02   0.168E+01 0.263E+01 -.496E+00   0.486E-03 -.177E-03 0.193E-03
   0.299E+02 -.647E+02 0.492E+02   -.306E+02 0.633E+02 -.414E+02   -.182E+01 -.208E+01 -.876E+01   -.190E-03 -.149E-03 0.110E-03
   -.253E+02 -.980E+02 -.287E+02   0.172E+02 0.831E+02 0.268E+02   0.126E+02 0.127E+02 0.490E+01   0.381E-05 -.357E-03 -.484E-03
   0.119E+03 -.925E+01 -.308E+02   -.109E+03 0.197E+01 0.313E+02   -.146E+02 0.168E+02 -.145E+01   0.410E-03 -.226E-03 0.450E-04
   -.189E+02 0.238E+02 -.398E+02   0.161E+02 -.186E+02 0.459E+02   0.113E+00 -.876E+01 -.906E+01   -.382E-03 -.263E-03 -.273E-03
   -.233E+02 -.413E+02 0.401E+02   0.200E+02 0.442E+02 -.371E+02   0.133E+01 0.289E+01 -.458E+01   0.211E-03 0.156E-03 0.344E-03
   -.543E+02 0.163E+02 0.181E+02   0.530E+02 -.139E+02 -.190E+02   0.486E+01 0.216E+00 -.226E+01   -.491E-03 0.586E-03 0.335E-03
   -.361E+02 0.411E+01 -.394E+02   0.369E+02 -.463E+01 0.262E+02   0.143E+01 0.165E+01 0.132E+02   -.339E-03 -.705E-04 0.226E-04
   -.633E+02 0.210E+02 -.139E+02   0.525E+02 -.146E+02 0.119E+02   0.120E+02 -.754E+01 -.146E+01   -.197E-03 0.277E-03 -.376E-04
   -.817E+02 -.623E+02 -.113E+02   0.725E+02 0.684E+02 0.746E+01   0.100E+02 -.399E+01 0.530E+01   0.397E-03 -.210E-03 -.104E-03
   -.199E+02 0.186E+01 0.740E+02   0.295E+02 -.827E+01 -.702E+02   -.963E+01 0.114E+02 -.948E+01   -.420E-04 -.171E-03 0.135E-04
   -.106E+01 0.273E+02 0.133E+02   0.270E+01 -.239E+02 -.170E+02   0.572E+00 -.544E+01 -.459E+01   0.494E-03 0.344E-04 -.588E-03
   0.693E+01 -.179E+02 0.206E+02   -.283E+01 0.251E+02 -.102E+02   -.449E+01 -.301E+01 -.972E+01   0.818E-04 0.247E-03 -.628E-04
   0.309E+02 0.780E+02 -.619E+02   -.286E+02 -.805E+02 0.554E+02   -.526E+01 -.221E+01 0.778E+01   -.151E-03 0.376E-03 0.679E-04
   0.280E+02 0.421E+02 0.468E+02   -.216E+02 -.453E+02 -.417E+02   -.677E+01 0.495E+01 -.867E+01   0.274E-03 0.216E-03 -.263E-03
   0.394E+02 0.979E+02 0.264E+02   -.345E+02 -.870E+02 -.233E+02   -.746E+01 -.125E+02 -.758E+01   -.363E-03 0.332E-03 -.342E-04
   0.505E+02 -.700E+02 0.480E+02   -.525E+02 0.731E+02 -.475E+02   -.176E+01 -.472E+01 -.337E+01   0.129E-03 -.277E-03 -.529E-03
   -.109E+03 0.830E+02 -.382E+02   0.999E+02 -.878E+02 0.409E+02   0.121E+02 0.215E+01 -.301E+01   -.621E-03 -.914E-04 0.101E-03
   0.412E+02 0.522E+02 0.591E+02   -.426E+02 -.502E+02 -.578E+02   -.815E+00 -.702E+01 -.248E+01   0.134E-03 -.195E-03 -.136E-03
   -.391E+02 -.722E+01 0.301E+02   0.408E+02 0.680E+01 -.376E+02   -.183E+01 -.604E+01 0.503E+01   -.118E-03 0.253E-03 0.162E-04
   -.690E+01 0.663E+01 0.220E+02   0.324E+01 -.387E+01 -.192E+02   0.706E+01 -.766E+01 -.844E+01   0.641E-03 -.382E-03 -.216E-04
   0.468E+02 0.559E+00 -.381E+02   -.380E+02 0.144E+01 0.322E+02   -.484E+01 -.537E+01 0.863E+01   0.326E-03 -.312E-03 0.193E-04
   -.152E+02 0.104E+03 0.235E+02   0.157E+02 -.970E+02 -.215E+02   -.295E+01 -.374E+01 -.294E+01   -.519E-03 0.276E-03 -.502E-04
   0.412E+02 0.304E+02 -.216E+02   -.386E+02 -.328E+02 0.217E+02   -.222E+01 0.548E+01 0.707E+00   -.229E-03 0.289E-03 -.111E-03
   -.186E+02 -.119E+03 0.413E+01   0.245E+02 0.112E+03 0.655E+00   -.841E+01 0.848E+01 -.399E+01   0.135E-03 -.189E-03 0.215E-03
   -.274E+02 -.111E+03 -.334E+02   0.217E+02 0.113E+03 0.292E+02   0.476E+01 0.136E+01 0.686E+01   -.115E-03 0.156E-03 -.564E-03
   -.185E+02 -.876E+01 0.246E+02   0.190E+02 0.363E+01 -.196E+02   -.309E+01 0.920E+01 -.330E+01   -.254E-04 -.102E-04 0.362E-03
   0.350E+02 -.830E+02 0.221E+02   -.340E+02 0.791E+02 -.198E+02   -.270E+01 0.850E+01 0.406E+01   -.448E-04 -.365E-03 -.741E-04
   0.120E+03 -.127E+03 -.619E+02   -.154E+03 0.131E+03 0.571E+02   0.327E+02 -.192E+01 0.568E+01   -.324E-03 -.934E-04 -.347E-03
   -.237E+02 0.645E+01 -.173E+01   0.590E+01 -.171E+02 -.115E+02   0.187E+02 0.116E+02 0.156E+02   -.849E-03 -.363E-03 -.591E-03
   -.925E+02 -.766E+02 0.729E+02   0.122E+03 0.790E+02 -.854E+02   -.274E+02 -.265E+01 0.127E+02   0.109E-02 0.118E-04 0.173E-03
   0.537E+02 0.227E+01 0.168E+02   -.631E+02 -.637E+01 -.341E+02   0.607E+01 0.380E+01 0.164E+02   -.402E-03 -.156E-03 -.604E-03
   0.211E+02 -.134E+03 -.987E+02   -.354E+02 0.149E+03 0.111E+03   0.152E+02 -.158E+02 -.130E+02   -.404E-03 0.335E-03 -.601E-04
   -.664E+02 0.663E+02 0.466E+02   0.892E+02 -.711E+02 -.545E+02   -.233E+02 0.310E+01 0.723E+01   -.195E-03 0.175E-03 0.310E-03
[...]
   0.408E+02 -.137E+03 -.338E+02   -.637E+02 0.135E+03 0.527E+02   0.240E+02 0.420E+00 -.178E+02   -.667E-03 -.279E-03 0.903E-03
   -.115E+03 0.344E+02 -.435E+02   0.132E+03 -.249E+02 0.426E+02   -.193E+02 -.929E+01 0.286E+01   0.116E-03 0.111E-02 0.253E-03
   0.739E+02 -.670E+02 0.564E+02   -.741E+02 0.828E+02 -.510E+02   -.849E-01 -.186E+02 -.782E+01   0.263E-03 -.126E-02 -.255E-03
   -.383E+02 -.477E+02 0.720E+01   0.354E+02 0.475E+02 0.190E+02   0.617E+01 -.165E+01 -.244E+02   0.147E-02 -.612E-03 0.439E-03
   -.229E+02 0.151E+03 -.178E+02   0.110E+02 -.162E+03 0.300E+01   0.129E+02 0.107E+02 0.188E+02   0.140E-03 0.183E-03 0.536E-03
   -.839E+02 0.450E+02 -.342E+02   0.105E+03 -.447E+02 0.568E+02   -.217E+02 0.542E+00 -.210E+02   -.193E-03 0.349E-03 0.324E-03
   -.538E+02 -.790E+02 -.113E+03   0.483E+02 0.897E+02 0.142E+03   0.589E+01 -.128E+02 -.284E+02   -.137E-03 0.293E-03 0.115E-02
   0.469E+02 -.100E+03 0.117E+02   -.369E+02 0.107E+03 -.298E+02   -.119E+02 -.529E+01 0.217E+02   0.512E-04 -.276E-04 -.346E-04
   -.299E+02 0.299E+02 0.495E+02   0.105E+02 -.334E+02 -.576E+02   0.208E+02 0.262E+01 0.884E+01   -.419E-03 0.552E-03 -.392E-03
   -.571E+02 -.103E+03 0.311E+02   0.456E+02 0.115E+03 -.144E+02   0.141E+02 -.129E+02 -.189E+02   0.173E-03 -.553E-03 -.865E-06
   -.382E+01 0.666E+01 0.714E+02   0.124E+02 -.214E+02 -.912E+02   -.915E+01 0.156E+02 0.201E+02   0.348E-03 -.361E-03 -.124E-02
   0.213E+02 0.533E+02 0.119E+03   -.111E+02 -.595E+02 -.126E+03   -.119E+02 0.794E+01 0.636E+01   -.379E-03 0.241E-03 -.196E-03
   0.235E+02 0.244E+01 -.797E+02   -.142E+02 0.218E+02 0.975E+02   -.931E+01 -.244E+02 -.173E+02   -.790E-03 -.706E-03 0.859E-04
   0.650E+02 0.341E+02 -.174E+02   -.531E+02 -.434E+02 0.843E+01   -.147E+02 0.107E+02 0.114E+02   0.275E-03 -.266E-03 0.766E-04
   0.735E+01 -.100E+02 0.352E+02   0.618E-12 0.199E-12 -.304E-12   -.736E+01 0.100E+02 -.352E+02   0.229E-02 0.141E-02 0.111E-02

 POSITION                                       TOTAL-FORCE (eV/Angst)
      7.65671      1.20985      1.33803        -0.703177      1.059857     -0.402623
      2.82818      1.80552      9.01333        -1.223392     -4.050118      1.868847
     10.03448      3.92057      8.01543        -1.850160      1.509422     -2.151367
      6.11946     10.93150     11.46958         1.123635     -0.260804     -0.091696
     10.38660      2.09982     11.71901        -0.818362     -0.168739     -1.822909
      7.45375     11.87243      4.57801        -0.491747     -1.744600      2.316454
      4.40363     10.63158      8.14972        -1.113564     -1.713511      2.342347
      9.27508     10.56388      0.96980        -0.386028      0.428750      0.329365
      6.31390      4.92452      6.12763         0.415121      0.299105     -0.052522
      6.14768      5.58911      2.50541        -0.660136      0.692576     -0.444744
     10.13996      8.45650      5.18332        -1.186196      2.061380     -1.997984
     10.35574      4.36464      3.29647        -4.024507     -0.554162     -1.331791
     10.25552      5.70209     11.04437        -0.690850     -0.647731      0.130267
     10.16161      7.74881      8.35801        -1.443955      0.362170     -2.205480
     11.83854      8.96933     11.27930        -0.294825      1.951804     -1.486709
      3.32055      8.49354      0.00403         0.802345      0.022921      0.855367
      3.18979      5.65070     10.22506        -0.066657      2.447804      2.604472
      6.22226      1.81082      7.33647         0.579565     -2.577647      0.238369
      2.64738      2.67271      3.85944        -1.731169      3.255538      2.224484
      5.99512      8.88847      5.46585        -0.641694     -1.202631      1.149376
      0.42387      1.46370      5.50442        -1.412137     -1.529861      3.110880
     10.29371      0.04897      7.85995         0.285702     -0.749315     -0.197965
      5.94381      2.85716     10.65595         2.964758     -1.369572      0.153722
      3.85153     11.58023      2.87150         0.750677     -1.259360     -1.189506
      3.38528      6.99454      6.39758         0.688566      0.234997      0.578291
      1.00985     10.42340      3.95364         0.696079      0.145155     -1.428598
      0.27654      6.01789      5.07537         1.380817     -0.955717      0.719171
      9.01016      5.97105      5.52766        -2.508972     -3.526305     -0.945573
      7.74146      4.18472      0.51209         4.567688     -2.159799      2.963829
      4.08027      0.16012      5.68266        -4.386079      9.489868     -0.983654
      8.68713      7.55946      1.81520        -2.724198     -3.572240     -2.918577
      0.57819     10.09498      7.09768        -1.925239      5.818859     -1.568520
      8.01232      0.18381     10.05869         3.493955      2.585394     -3.177319
      1.54918      3.96427      6.98978         2.158432      1.133406      0.013557
      0.66350      5.97280      8.88830         1.257143     -1.133711     -3.501594
      0.35259      7.46641      2.27633         0.816103      2.061268      1.509254
     11.95630      1.78558      2.43020        -0.082209      4.955703     -5.688447
      4.41809      4.18038      8.71662         2.211081     -2.060239     -8.348877
      3.02400      4.85253      1.24488        -0.396741      4.196218      0.689828
      9.95531      1.05486      3.42869        -2.948549     -4.665080      1.331270
      0.67111     11.72881      0.61391        -0.414961      1.724095     -3.561154
      6.64860      9.41048      2.54538        -2.563289     -1.643829     -4.460914
      8.69797      8.16071     11.29863        -3.711020     -1.616489     -2.904832
      0.00373      3.09303      9.55072         3.085762     -2.717289     -0.340309
      3.46794     11.84289     11.47143        -2.257120     -5.006964     -1.262036
      0.14366      4.87175      1.49107        -0.165162     -6.460143     -2.496614
      4.21547      2.07936      1.08654         3.408263     -4.897366     -5.619148
      7.36958      5.98042      9.81108         3.953574     -3.372729      2.741266
      7.76659     10.54042      7.59554        -2.439996      2.879259     -0.965463
      3.64745      8.23272      3.36788         0.386412      3.102990      0.826161
      1.52607      8.64135      8.89729        -2.457458      1.593549      0.796187
      5.63153      7.10482      8.59929        -0.958742      3.566120      2.647913
      8.82475      2.36003      6.11594        -2.516500      4.070169      1.734689
      6.01098      2.30468      3.80506        -1.664292      4.597058      6.382112
      6.22790      4.24463      0.22259        -1.760649      1.783806      0.925035
     10.96290      4.34128      0.55957         0.928607      0.933638      2.412910
      2.05263      9.51509      7.53124         1.873091     -0.197700      0.302759
      2.40681      7.94628      2.36055        -3.347887     -0.296902     -0.884519
      4.57298      8.15365      9.39196         0.840348     -0.603502     -0.943653
      9.23322     10.03027      7.05380        -0.590603     -1.669888     -0.696145
[...]
      5.77023      3.71206      7.98799        -0.516453      0.663650      1.682962
     11.89563      9.46947      8.38085         1.041086     -1.567332      1.123932
      9.57996      0.80503      9.63507        -2.131216      0.231393      1.912592
      6.02964      4.03314      4.11807        -0.288992     -2.813276     -2.426719
      4.02366      2.09094      2.60733         3.302247     -1.886378      1.712929
      0.25101      3.06423      7.78131         1.000260     -0.456405      3.936416
      7.28860      9.52453      3.95974        -0.580575      0.883175      1.487004
      2.62743      5.14637      2.76866         0.343097     -2.050451      0.248463
     10.26466      6.14044      4.35500        -1.791945      1.534202      3.696244
     11.30179     11.03918      0.22409         1.371709     -0.861867      0.715338
     11.80179      8.25607      3.60946         2.593644     -0.988345     -2.244417
      8.42104      3.11179     11.56129        -0.616599      0.919408      0.203852
      3.03997      3.28013      7.71042        -1.727333      1.667721     -1.482943
     10.74520      2.37485      3.77020         0.007635     -0.136921      0.521505
      5.70877      1.43884      0.25701        -2.900069      1.380814      2.460186
    total drift:                               -0.003499     -0.003970      0.011659

  FREE ENERGIE OF THE ION-ELECTRON SYSTEM (eV)
  free  energy   TOTEN  =      -930.28832587 eV

  energy  without entropy=     -930.28832587  energy(sigma->0) =     -930.28832587