 vasp.5.4.4.18Apr17-6-g9f103f2a35 (build Mar 16 2023 09:39:13) complex

 executed on             LinuxIFC date 2024.04.30  19:04:00

 INCAR:
 POTCAR:    PAW_PBE Ca_sv 06Sep2000
 POTCAR:    PAW_PBE Si 05Jan2001
 POTCAR:    PAW_PBE O 08Apr2002
 POTCAR:    PAW_PBE Ca_sv 06Sep2000
   VRHFIN =Ca: 3s3p4s

   TITEL  = PAW_PBE Ca_sv 06Sep2000
   POMASS =   40.078; ZVAL   =   10.000    mass and valenz
   ENMAX  =  266.622; ENMIN  =  199.967 eV

   TITEL  = PAW_PBE Si 05Jan2001
   POMASS =   28.085; ZVAL   =    4.000    mass and valenz
   ENMAX  =  245.345; ENMIN  =  184.009 eV

   TITEL  = PAW_PBE O 08Apr2002
   POMASS =   16.000; ZVAL   =    6.000    mass and valenz
   ENMAX  =  400.000; ENMIN  =  300.000 eV

 Optimization of the real space projectors (new method)

 maximal supplied QI-value         = 16.25
 optimisation between [QCUT,QGAM] = [ 12.51, 25.03] = [ 43.85,175.40] Ry
 Optimized for a Real-space Cutoff    1.47 Angstroem

   l    n(q)    QCUT    max X(q) W(low)/X(q) W(high)/X(q)  e(spline)
   0     11    12.514    11.817    0.25E-04    0.32E-05    0.87E-07
   0     11    12.514     8.461    0.39E-04    0.59E-05    0.18E-06
   1     11    12.514     3.957    0.97E-05    0.57E-05    0.28E-07
   1     11    12.514     4.314    0.42E-04    0.14E-04    0.23E-06
   2     10    12.514    14.565    0.79E-04    0.50E-03    0.16E-05
   2     10    12.514    14.552    0.75E-04    0.48E-03    0.15E-05
 Optimization of the real space projectors (new method)

[...]

   l    n(q)    QCUT    max X(q) W(low)/X(q) W(high)/X(q)  e(spline)
   0      9    12.501   159.560    0.10E-03    0.83E-04    0.71E-07
   0      9    12.501   115.863    0.99E-04    0.81E-04    0.70E-07
   1      8    12.501    88.339    0.20E-03    0.25E-03    0.76E-07
   1      8    12.501    48.592    0.20E-03    0.24E-03    0.75E-07
 Optimization of the real space projectors (new method)

 maximal supplied QI-value         = 24.76
 optimisation between [QCUT,QGAM] = [ 12.38, 25.00] = [ 42.90,175.06] Ry
 Optimized for a Real-space Cutoff    1.16 Angstroem

   l    n(q)    QCUT    max X(q) W(low)/X(q) W(high)/X(q)  e(spline)
   0      9    12.378    20.381    0.16E-03    0.67E-05    0.31E-06
   0      9    12.378    15.268    0.17E-03    0.81E-05    0.33E-06
   1      8    12.378     5.964    0.20E-03    0.16E-03    0.30E-06
   1      8    12.378     5.382    0.18E-03    0.14E-03    0.26E-06
  PAW_PBE Ca_sv 06Sep2000               :
  PAW_PBE Si 05Jan2001                  :
  PAW_PBE O 08Apr2002                   :

 POSCAR: Ca Si  O
  positions in direct lattice
 exchange correlation table for  LEXCH =        8
   RHO(1)=    0.500       N(1)  =     2000
   RHO(2)=  100.500       N(2)  =     4000

 ion  position               nearest neighbor table
   1  0.860  0.732  0.907- 111 1.92  78 2.36  79 2.57  40 3.01  49 3.15
   2  0.550  0.085  0.352-  76 2.08  73 2.40 101 2.41  65 2.49  56 2.52  39 3.05  45 3.13
   3  0.635  0.611  0.454- 115 2.15  69 2.50  58 2.54  45 3.12   7 3.15
   4  0.134  0.628  0.251-  82 2.21  59 2.27 112 2.29 113 2.31
   5  0.178  0.092  0.975- 125 2.15 118 2.20 106 2.26  67 2.26 132 2.43  41 2.99  46 3.16
   6  0.993  0.071  0.234-  66 2.01 121 2.28 103 2.43 124 2.48  11 3.07  18 3.15
   7  0.603  0.410  0.291-  73 2.32  89 2.40   3 3.15  34 3.15
   8  0.269  0.864  0.172- 116 1.87  82 2.36  92 2.40
   9  0.520  0.523  0.703- 107 2.14 119 2.21 115 2.31  88 2.38  93 2.42  42 2.75  30 3.08  36 3.15

  10  0.375  0.700  0.351-  59 2.14 116 2.17  58 2.38 113 2.52  32 3.11  33 3.15
  11  0.784  0.969  0.131- 124 1.87  65 2.39 131 2.45 128 2.55  14 3.02  49 3.04   6 3.07
  12  0.469  0.365  0.974-  64 2.16 114 2.19  97 2.28  62 2.37  88 2.42  34 2.80  38 3.12
  13  0.923  0.813  0.394-  69 2.04 112 2.07 100 2.34 103 2.41 124 2.51  35 3.12  49 3.15  54 3.15

[...]

  33  0.288  0.489  0.477- 135 1.58  59 1.61 102 1.62  91 1.75  83 2.18  30 2.89  29 2.97  43 3.02
                            21 3.07  16 3.11  10 3.15
  34  0.617  0.237  0.098-  73 1.57  64 1.71 128 1.78  97 1.83  52 2.74  12 2.80   7 3.15
  35  0.901  0.557  0.405-  71 1.54 112 1.65 117 1.76  68 1.76  20 2.81  13 3.12  21 3.15
  36  0.598  0.278  0.743- 108 1.51  88 1.62 134 1.70  90 1.99  50 3.05   9 3.15
  37  0.852  0.931  0.623- 110 1.50 100 1.63  94 1.72 123 2.12  39 2.95  51 2.96
  38  0.223  0.356  0.899-  72 1.54 118 1.60 114 1.65 130 1.73  16 2.97  25 3.08  12 3.12
  39  0.788  0.073  0.434- 110 1.58  76 1.61  66 1.62  75 1.66  65 2.18  50 2.42  37 2.95   2 3.05

  40  0.076  0.853  0.940-  63 1.50  55 1.59 125 1.67 111 2.21  67 2.44  49 2.82   1 3.01  51 3.12
                            24 3.14
  41  0.341  0.920  0.905-  70 1.57  60 1.68  67 1.70 132 1.73  23 2.80   5 2.99
  42  0.331  0.648  0.680- 119 1.48  93 1.59  74 1.69  83 1.86   9 2.75  15 2.88
  43  0.078  0.355  0.463- 135 1.46  68 1.58  84 1.66 122 1.70  33 3.02  16 3.05  20 3.09  17 3.16

[...]

  52  0.473  0.063  0.082- 131 1.61  97 1.66 132 1.74  92 1.82  34 2.74
  53  0.676  0.759  0.711- 127 1.58 107 1.59 109 1.63  77 1.64  44 3.00  15 3.02  26 3.02
  54  0.174  0.882  0.416- 103 1.59  99 1.61 116 1.66  96 1.84  17 3.09  13 3.15
  55  0.012  0.880  0.829-  40 1.59  51 2.11  24 2.29
  56  0.479  0.996  0.527-  31 1.71  15 2.24   2 2.52
  57  0.897  0.311  0.885-  46 1.64  22 2.07  27 2.09
  58  0.542  0.791  0.400-  45 1.59  10 2.38  15 2.50   3 2.54
  59  0.247  0.586  0.396-  33 1.61  10 2.14   4 2.27
  60  0.389  0.814  0.981-  41 1.68  26 2.26  19 2.50
  61  0.208  0.399  0.233-  29 1.56  18 2.09
  62  0.462  0.558  0.005-  32 1.62  12 2.37  26 2.39  19 2.55
  63  0.128  0.743  0.921-  40 1.50  19 2.21
  64  0.612  0.377  0.080-  34 1.71  12 2.16
  65  0.711  0.963  0.313-  45 1.64  39 2.18  11 2.39   2 2.49
  66  0.851  0.091  0.318-  39 1.62   6 2.01
  67  0.219  0.961  0.848-  41 1.70  24 2.15   5 2.26  40 2.44
  68  0.986  0.446  0.447-  43 1.58  35 1.76  20 2.45
  69  0.761  0.769  0.408-  45 1.78  13 2.04   3 2.50
  70  0.426  0.917  0.807-  41 1.57  23 2.52
  71  0.800  0.522  0.334-  35 1.54  20 2.32  28 2.52
  72  0.219  0.476  0.942-  38 1.54  19 2.15  25 2.53
  73  0.589  0.231  0.224-  34 1.57   7 2.32   2 2.40
  74  0.256  0.764  0.701-  42 1.69  24 2.20
  75  0.858  0.166  0.507-  39 1.66  50 1.77
  76  0.678  0.146  0.450-  39 1.61  50 1.65   2 2.08
  77  0.682  0.832  0.825-  53 1.64  14 2.15  26 2.51
  78  0.702  0.696  0.015-  48 1.70   1 2.36  26 2.44
  79  0.883  0.542  0.999-  28 1.74  22 2.42   1 2.57
  80  0.940  0.439  0.189-  28 1.60  20 2.12  18 2.35
  81  0.986  0.639  0.723-  44 1.70  25 2.04  21 2.38
  82  0.098  0.773  0.146-  49 1.62   4 2.21   8 2.36
  83  0.226  0.544  0.638-  42 1.86  21 2.13  33 2.18
  84  0.064  0.278  0.576-  43 1.66  16 2.32  17 2.34  27 2.47
  85  0.302  0.121  0.407-  47 1.59  31 1.69
  86  0.941  0.231  0.072-  46 1.59  18 2.22
  87  0.807  0.490  0.733-  44 1.66  27 2.34
  88  0.597  0.386  0.822-  36 1.62  22 2.32   9 2.38  12 2.42
  89  0.434  0.439  0.191-  29 1.67  32 1.78   7 2.40
  90  0.746  0.243  0.679-  50 1.76  36 1.99
  91  0.346  0.425  0.593-  33 1.75  30 2.02  16 2.06
  92  0.371  0.033  0.189-  52 1.82  47 1.85   8 2.40
  93  0.420  0.647  0.583-  42 1.59  15 2.19   9 2.42
  94  0.811  0.976  0.751-  37 1.72  51 2.04
  95  0.893  0.069  0.947-  46 1.66  51 1.74
  96  0.251  0.934  0.536-  54 1.84  31 1.84  24 2.35
  97  0.474  0.199  0.065-  52 1.66  34 1.83  12 2.28
  98  0.319  0.142  0.621-  31 1.70  23 2.25  16 2.35
  99  0.147  0.766  0.476-  54 1.61  21 2.01
 100  0.961  0.868  0.576-  37 1.63  13 2.34
 101  0.477  0.253  0.430-  30 1.61   2 2.41
 102  0.368  0.415  0.400-  33 1.62  29 1.76  30 2.13
 103  0.068  0.948  0.375-  54 1.59  13 2.41  17 2.42   6 2.43
 104  0.753  0.356  0.477-  50 1.61  20 2.37
 105  0.914  0.679  0.181-  49 1.62  28 1.73
 106  0.041  0.151  0.862-  46 1.68  51 1.78   5 2.26
 107  0.608  0.662  0.767-  53 1.59  26 2.07   9 2.14
 108  0.530  0.295  0.640-  36 1.51  30 1.71
 109  0.801  0.710  0.698-  44 1.56  53 1.63
 110  0.794  0.976  0.523-  37 1.50  39 1.58
 111  0.914  0.829  0.021-  49 1.60   1 1.92  40 2.21
[...]
 121  0.175  0.112  0.206-  47 1.67   6 2.28
 122  0.049  0.257  0.366-  43 1.70  20 2.49  18 2.54
 123  0.973  0.046  0.675-  51 1.75  37 2.12  17 2.42
 124  0.897  0.892  0.203-  49 1.65  11 1.87   6 2.48  13 2.51
 125  0.105  0.944  0.040-  40 1.67   5 2.15
 126  0.738  0.556  0.170-  48 1.61  28 1.74
 127  0.645  0.818  0.599-  53 1.58  15 2.15
 128  0.699  0.133  0.031-  34 1.78  14 2.32  11 2.55
 129  0.527  0.650  0.194-  32 1.74  48 1.77
 130  0.130  0.361  0.790-  38 1.73  16 2.13  25 2.35  27 2.45
 131  0.585  0.999  0.115-  52 1.61  11 2.45
 132  0.370  0.034  0.986-  41 1.73  52 1.74   5 2.43  23 2.53
 133  0.692  0.772  0.226-  48 1.64  45 1.82
 134  0.557  0.167  0.818-  36 1.70  23 2.22
 135  0.180  0.417  0.483-  43 1.46  33 1.58  16 2.54

IMPORTANT INFORMATION: All symmetrisations will be switched off!
NOSYMM: (Re-)initialisation of all symmetry stuff for point group C_1.

Automatic generation of k-mesh.
 generate k-points for:    2    2    2
Space group operators:
 irot       det(A)        alpha          n_x          n_y          n_z        tau_x        tau_y        tau_z
    1     1.000000     0.000000     1.000000     0.000000     0.000000     0.000000     0.000000     0.000000

 Subroutine IBZKPT returns following result:

 Found      8 irreducible k-points:

 Following reciprocal coordinates:
            Coordinates               Weight
  0.000000  0.000000  0.000000      1.000000
  0.500000  0.000000  0.000000      1.000000
  0.000000  0.500000  0.000000      1.000000
  0.500000  0.500000  0.000000      1.000000
  0.000000  0.000000  0.500000      1.000000
  0.500000  0.000000  0.500000      1.000000
  0.000000  0.500000  0.500000      1.000000
  0.500000  0.500000  0.500000      1.000000

 Following cartesian coordinates:
            Coordinates               Weight
  0.000000  0.000000  0.000000      1.000000
  0.041344  0.000000  0.000000      1.000000
  0.000000  0.041344  0.000000      1.000000
  0.041344  0.041344  0.000000      1.000000
  0.000000  0.000000  0.041344      1.000000
  0.041344  0.000000  0.041344      1.000000
  0.000000  0.041344  0.041344      1.000000
  0.041344  0.041344  0.041344      1.000000

 SYSTEM =  unknown system
 POSCAR =  Ca Si  O

 Startparameter for this run:
   NWRITE =      2    write-flag & timer
   PREC   = a         normal or accurate (medium, high low for compatibility)
   ISTART =      0    job   : 0-new  1-cont  2-samecut
   ICHARG =      2    charge: 1-file 2-atom 10-const
   ISPIN  =      1    spin polarized calculation?
   LNONCOLLINEAR =      F non collinear calculations
   LSORBIT =      F    spin-orbit coupling
   INIWAV =      1    electr: 0-lowe 1-rand  2-diag
   LASPH  =      F    aspherical Exc in radial PAW
   METAGGA=      F    non-selfconsistent MetaGGA calc.

 Electronic Relaxation 1
   ENCUT  =  600.0 eV  44.10 Ry    6.64 a.u.  24.15 24.15 24.15*2*pi/ulx,y,z
   ENINI  =  600.0     initial cutoff
   ENAUG  =  605.4 eV  augmentation charge cutoff
   NELM   =     60;   NELMIN=  2; NELMDL= -5     # of ELM steps
   EDIFF  = 0.1E-05   stopping-criterion for ELM
[...]
     0.000000000  0.000000000 12.093787620     0.000000000  0.000000000  0.082687081

  length of vectors
    12.093787620 12.093787620 12.093787620     0.082687081  0.082687081  0.082687081

 FORCES acting on ions
    electron-ion (+dipol)            ewald-force                    non-local-force                 convergence-correction
   0.475E+02 0.100E+03 0.958E+02   -.524E+02 -.101E+03 -.940E+02   0.198E+01 -.230E+01 -.502E+01   -.766E-03 -.498E-03 0.410E-02
   0.910E+02 0.139E+03 0.311E+02   -.887E+02 -.133E+03 -.293E+02   -.365E+01 -.456E+01 -.270E+01   0.246E-03 0.834E-03 -.319E-02
   0.104E+01 0.172E+02 -.952E+01   0.237E+01 -.142E+02 0.116E+02   -.152E+01 -.633E+00 -.178E+01   -.104E-02 -.477E-03 -.369E-02
   0.910E+01 0.153E+03 0.186E+03   -.100E+02 -.151E+03 -.184E+03   0.188E+00 -.265E+01 -.155E+01   0.322E-03 -.147E-02 -.187E-02
   -.581E+02 -.942E+02 -.491E+02   0.563E+02 0.950E+02 0.503E+02   0.229E+01 0.479E+00 0.195E+00   0.199E-02 0.191E-02 0.156E-02
   -.441E+02 -.892E+02 0.109E+03   0.448E+02 0.868E+02 -.106E+03   0.118E+01 0.147E+01 -.409E+01   -.323E-03 0.111E-02 -.409E-03
   -.682E+02 -.194E+02 -.246E+02   0.671E+02 0.127E+02 0.208E+02   0.119E+01 0.508E+01 0.316E+01   -.362E-03 -.141E-02 -.307E-02
   -.173E+03 -.417E+02 0.142E+03   0.169E+03 0.440E+02 -.145E+03   0.254E+01 -.873E+00 -.389E+01   0.207E-02 0.605E-03 -.341E-03
   -.128E+03 0.113E+03 -.727E+02   0.129E+03 -.111E+03 0.734E+02   -.416E+00 -.322E+01 -.746E+00   -.161E-02 -.135E-02 0.123E-02
   -.205E+03 -.659E+02 0.330E+02   0.202E+03 0.673E+02 -.318E+02   0.419E+01 -.116E+01 -.671E+00   0.581E-03 -.135E-03 -.291E-02
   0.169E+03 -.124E+03 0.173E+03   -.172E+03 0.125E+03 -.168E+03   -.101E+01 0.185E+01 -.600E+01   -.178E-02 0.104E-02 0.166E-02
   0.349E+02 -.154E+02 0.511E+02   -.336E+02 0.152E+02 -.525E+02   -.186E+01 0.102E+01 0.470E+00   0.101E-03 -.174E-02 0.134E-02
   0.198E+02 -.977E+02 -.275E+02   -.226E+02 0.959E+02 0.297E+02   0.292E+01 0.363E+01 -.158E+01   -.242E-03 0.193E-03 -.380E-02
   0.896E+02 -.756E+02 0.912E+02   -.898E+02 0.770E+02 -.966E+02   -.203E+00 -.676E-01 0.345E+01   -.202E-02 0.284E-02 0.344E-02
   0.209E+02 -.174E+03 -.695E+02   -.168E+02 0.177E+03 0.685E+02   -.427E+01 -.805E+00 0.138E+01   -.181E-03 0.277E-03 -.118E-02
   -.453E+02 0.192E+03 -.976E+02   0.426E+02 -.190E+03 0.970E+02   0.184E+01 -.290E+01 0.496E+00   0.568E-03 0.204E-04 0.125E-02
   -.727E+02 -.192E+02 -.516E+02   0.675E+02 0.231E+02 0.529E+02   0.363E+01 -.264E+01 -.918E+00   0.420E-03 0.169E-02 -.214E-02
   -.190E+02 -.556E+02 0.106E+03   0.209E+02 0.567E+02 -.108E+03   -.141E+01 -.140E+01 0.128E+01   0.690E-03 0.400E-03 -.866E-03
   0.403E+02 -.755E+01 -.800E+02   -.409E+02 0.614E+01 0.774E+02   0.964E+00 0.189E+01 0.238E+01   0.132E-02 -.210E-02 0.231E-02
   0.140E+03 0.185E+03 0.108E+03   -.138E+03 -.184E+03 -.104E+03   -.227E+01 -.376E+01 -.249E+01   -.511E-03 -.463E-03 -.285E-02
   0.624E+02 0.163E+02 -.112E+03   -.600E+02 -.127E+02 0.113E+03   -.369E+01 -.358E+01 -.778E+00   0.192E-02 -.118E-02 -.222E-02
   0.663E+02 0.152E+02 -.740E+02   -.649E+02 -.136E+02 0.735E+02   -.245E+01 0.194E+00 0.134E+01   -.161E-02 -.216E-02 0.356E-02
   -.854E+02 0.341E+02 0.884E+02   0.910E+02 -.328E+02 -.900E+02   -.415E+01 -.139E+01 0.128E+01   0.869E-03 0.181E-02 0.254E-02
   -.226E+02 -.771E+02 0.470E+02   0.238E+02 0.718E+02 -.457E+02   -.175E+01 0.370E+01 -.254E+01   0.245E-02 0.139E-02 0.724E-03
   0.147E+02 0.114E+02 -.187E+03   -.116E+02 -.996E+01 0.187E+03   -.140E+01 -.186E+01 0.239E+01   0.170E-02 -.314E-02 0.363E-02
   -.154E+02 -.835E+02 -.118E+03   0.190E+02 0.836E+02 0.117E+03   -.280E+01 0.604E+00 0.159E+01   -.874E-03 -.772E-03 0.257E-02
   0.902E+02 0.753E+02 0.865E+02   -.918E+02 -.796E+02 -.861E+02   0.165E+01 0.237E+01 -.287E+01   0.803E-03 -.165E-02 0.168E-02
   -.216E+02 0.352E+02 0.620E+02   0.235E+02 -.384E+02 -.668E+02   -.350E+01 0.578E+01 0.161E+01   -.248E-03 -.375E-03 0.316E-03
   -.704E+01 0.133E+02 0.643E+02   -.194E+01 -.134E+02 -.652E+02   0.986E+01 -.228E+01 0.337E+01   0.256E-03 -.293E-03 -.778E-03
   -.154E+02 0.269E+02 -.191E+02   0.202E+02 -.341E+02 0.146E+02   -.463E+01 0.854E+01 0.523E+01   -.135E-03 -.389E-03 -.385E-03
   -.399E+02 0.186E+02 -.149E+02   0.434E+02 -.174E+02 0.191E+02   -.296E+01 -.122E+01 -.167E+01   0.870E-04 0.489E-03 -.542E-03
   -.136E+02 -.496E+01 0.417E+01   0.116E+02 0.811E+01 -.919E+01   0.500E+01 -.430E+01 0.511E+01   0.110E-03 -.461E-03 -.532E-04
   -.652E+02 -.532E+02 -.606E+01   0.600E+02 0.479E+02 -.414E+00   0.502E+01 0.617E+01 0.103E+02   0.276E-03 -.702E-03 -.798E-03
   -.108E+03 0.179E+02 0.669E+02   0.106E+03 -.171E+02 -.580E+02   0.289E+01 -.237E+01 -.108E+02   -.386E-03 -.367E-04 -.107E-05
   0.327E+02 0.365E+02 -.287E+02   -.351E+02 -.324E+02 0.229E+02   0.628E+01 -.157E+01 0.971E+01   -.124E-04 -.387E-03 -.155E-02
   -.874E+02 0.773E+02 -.180E+02   0.791E+02 -.762E+02 0.199E+02   0.120E+02 -.513E+01 0.229E+01   -.669E-03 -.181E-03 0.687E-03
   0.749E+02 0.158E+02 -.868E+02   -.676E+02 -.123E+02 0.804E+02   -.216E+01 -.331E+01 0.120E+02   -.523E-03 0.974E-03 -.555E-03
   -.238E+02 -.901E+01 -.673E+01   0.201E+02 0.873E+01 0.136E+02   0.131E+01 -.293E+01 -.770E+01   0.503E-03 -.366E-03 0.956E-03
   0.365E+02 0.263E+02 -.390E+00   -.308E+02 -.183E+02 0.210E+01   -.343E+01 -.804E+01 -.446E+01   -.523E-03 0.614E-03 -.109E-02
   0.191E+01 -.115E+02 -.261E+02   0.208E+01 0.601E+01 0.218E+02   -.486E+01 0.999E+01 0.790E+01   0.594E-03 0.234E-03 0.111E-02
   -.608E+01 0.346E+02 -.281E+02   0.160E+02 -.360E+02 0.197E+02   -.883E+01 -.864E-01 0.854E+01   0.481E-03 0.937E-03 0.103E-02
   0.378E+02 -.533E+02 -.165E+01   -.358E+02 0.523E+02 0.781E+01   -.109E+02 0.273E+01 -.989E+01   0.639E-03 -.714E-03 0.214E-03
   0.288E+02 0.566E+02 0.299E+02   -.271E+02 -.569E+02 -.265E+02   -.786E+01 -.703E+01 -.455E+01   0.278E-03 -.318E-03 -.894E-03
   0.495E+02 0.802E+02 -.438E+01   -.490E+02 -.761E+02 0.762E+01   0.144E+01 -.499E+01 -.250E+01   -.626E-04 -.327E-03 -.981E-04
   0.966E+02 -.544E+02 0.846E+01   -.911E+02 0.494E+02 -.662E+01   0.150E+01 0.150E+00 -.307E+01   -.381E-03 0.492E-03 -.164E-02
   0.596E+02 -.326E+02 0.364E+01   -.597E+02 0.353E+02 0.253E+01   0.483E-01 -.124E-01 -.432E+01   0.410E-04 0.643E-03 0.109E-02
   0.102E+02 0.466E+02 0.391E+02   -.117E+02 -.402E+02 -.388E+02   0.392E-01 -.837E+01 -.524E+01   0.578E-03 0.449E-03 -.873E-03
   0.744E+02 -.688E+01 0.415E+02   -.661E+02 0.109E+02 -.432E+02   -.760E+01 -.965E+00 -.438E+00   -.231E-03 -.149E-03 0.489E-03
   -.310E+02 0.154E+02 0.186E+02   0.294E+02 -.150E+02 -.193E+02   0.162E+01 -.131E+00 0.229E+01   -.394E-03 -.414E-03 0.565E-03
   0.662E+02 -.343E+01 -.974E+02   -.577E+02 0.981E+01 0.922E+02   -.440E+01 -.447E+01 0.718E+01   -.322E-03 -.440E-03 -.579E-03
   0.520E+02 -.117E+02 0.179E+02   -.513E+02 0.146E+02 -.218E+02   -.160E+01 -.624E+01 0.215E+00   0.992E-04 0.957E-03 0.758E-03
   -.162E+02 0.481E+02 0.138E+02   0.214E+02 -.472E+02 -.112E+02   -.801E+01 -.120E+01 -.100E+01   0.967E-04 0.758E-03 0.243E-03
   0.115E+02 -.427E+02 0.273E+02   -.140E+02 0.437E+02 -.251E+02   0.343E+01 0.348E+00 0.154E+00   -.721E-03 0.129E-03 0.443E-03
   -.572E+02 -.793E+02 0.330E+01   0.511E+02 0.695E+02 -.212E+01   0.780E+01 0.675E+01 0.152E+01   0.288E-03 0.510E-03 -.879E-03
   0.905E+02 0.861E+01 0.531E+02   -.104E+03 -.148E+02 -.790E+02   0.113E+02 0.980E+01 0.250E+02   0.166E-02 0.545E-03 0.177E-02
   -.950E+02 -.477E+02 -.655E+02   0.120E+03 0.419E+02 0.705E+02   -.286E+02 0.752E+01 -.655E+01   -.493E-03 0.562E-03 -.812E-03
   0.426E+02 0.163E+02 -.456E+02   -.461E+02 0.153E+01 0.406E+02   0.379E+01 -.195E+02 0.488E+01   -.455E-03 0.254E-03 0.146E-02
   0.743E+02 -.705E+02 0.469E+02   -.941E+02 0.614E+02 -.361E+02   0.174E+02 0.887E+01 -.108E+02   0.259E-03 0.292E-03 -.224E-02
   -.103E+02 -.907E+01 0.423E+02   -.184E+01 0.240E+02 -.557E+02   0.128E+02 -.144E+02 0.139E+02   0.703E-03 -.103E-02 -.158E-02
   -.619E+02 -.122E+02 -.110E+03   0.728E+02 -.127E+01 0.123E+03   -.135E+02 0.138E+02 -.125E+02   0.915E-03 0.317E-03 0.119E-02
[...]
   -.255E+02 0.667E+02 0.456E+02   0.224E+02 -.832E+02 -.579E+02   0.351E+01 0.174E+02 0.120E+02   -.281E-04 0.329E-03 -.117E-02
   0.979E+01 -.115E+03 -.120E+02   -.827E+01 0.120E+03 -.540E+01   0.282E-01 -.395E+01 0.192E+02   0.318E-04 0.847E-03 -.124E-04
   -.298E+02 -.108E+02 -.330E+02   0.200E+02 0.212E+02 0.485E+02   0.149E+02 -.122E+02 -.121E+02   -.155E-02 0.421E-03 -.700E-03
   0.448E+01 -.340E+02 -.655E+02   -.275E+01 0.458E+02 0.868E+02   -.204E+01 -.124E+02 -.228E+02   0.107E-02 0.824E-03 0.319E-03
   0.705E+02 0.948E+02 0.667E+02   -.747E+02 -.116E+03 -.580E+02   0.396E+01 0.197E+02 -.973E+01   -.574E-03 -.416E-03 -.275E-03
   -.192E+02 -.125E+03 0.176E+02   0.187E+02 0.141E+03 -.467E+02   0.145E+00 -.167E+02 0.293E+02   -.131E-02 -.110E-03 -.253E-03
   -.576E+02 -.938E+02 0.565E+02   0.688E+02 0.825E+02 -.646E+02   -.122E+02 0.157E+02 0.924E+01   -.148E-02 0.230E-03 0.101E-02
   0.272E+01 -.758E+02 -.494E+01   -.426E+01 0.902E+02 0.195E+02   0.955E+00 -.162E+02 -.149E+02   0.382E-04 0.803E-03 -.356E-03
   0.481E+02 0.304E+02 -.343E+02   -.611E+02 -.334E+02 0.232E+02   0.129E+02 0.370E+01 0.118E+02   0.133E-02 -.662E-03 0.132E-02
   0.371E+02 0.117E+03 -.151E+02   -.138E+02 -.130E+03 0.258E+02   -.257E+02 0.120E+02 -.117E+02   -.476E-03 0.124E-02 0.277E-03
   -.762E+02 -.161E+02 -.271E+02   0.668E+02 0.292E+02 0.278E+02   0.101E+02 -.136E+02 -.126E+01   0.197E-03 0.147E-02 0.614E-03
   0.959E+02 -.368E+02 0.751E+02   -.802E+02 0.495E+02 -.717E+02   -.174E+02 -.119E+02 -.402E+01   -.446E-03 0.640E-04 -.969E-03
   -.111E+03 0.952E+02 0.128E+02   0.108E+03 -.113E+03 0.927E+00   0.368E+01 0.187E+02 -.149E+02   -.121E-02 0.888E-03 0.135E-02
   0.229E+02 0.622E+02 0.459E+02   -.144E+02 -.572E+02 -.385E+02   -.492E+01 -.392E+01 -.708E+01   0.304E-03 -.814E-03 -.101E-02
   0.675E+02 0.622E+02 0.591E+02   0.977E-13 0.199E-12 -.313E-12   -.676E+02 -.622E+02 -.591E+02   0.399E-02 -.436E-02 -.724E-02

 POSITION                                       TOTAL-FORCE (eV/Angst)
     10.40540      8.85522     10.96761        -2.849308     -2.823955     -3.182473
      6.65325      1.02655      4.26228        -1.366859      0.806464     -0.928544
      7.68447      7.38709      5.49036         1.896393      2.314178      0.311213
      1.61864      7.59721      3.03767        -0.745112     -1.005829      0.416442
      2.14791      1.11403     11.78736         0.585515      1.225019      1.385966
     12.01132      0.85495      2.83139         1.891942     -0.935852     -0.844231
      7.29284      4.96353      3.52328         0.100599     -1.654801     -0.604701
      3.24864     10.44322      2.08467        -0.618862      1.453676     -6.601561
      6.29421      6.32429      8.50104         0.425778     -1.492419     -0.087713
      4.53428      8.46076      4.24018         1.080269      0.279571      0.502045
      9.48631     11.71982      1.57865        -4.244908      2.188856     -1.087725
      5.66778      4.41512     11.78492        -0.527081      0.805024     -0.918779
     11.16223      9.83635      4.76219         0.106593      1.748976      0.545820
      8.06754     11.93504     11.01576        -0.347617      1.315567     -1.929480
      5.64934      9.93943      7.13755        -0.150758      2.131953      0.450428
      2.83471      3.78860      7.94601        -0.813230     -0.902335     -0.083261
      0.87220      1.17741      6.14557        -1.572235      1.257823      0.421018
      0.96520      3.70645      1.99502         0.429214     -0.270611     -1.263791
      3.38477      7.77991     11.39434         0.364590      0.478084     -0.194765
     10.49855      4.15853      3.85007        -0.429720     -2.384347      1.643136
      1.15689      7.64881      6.76891        -1.272989      0.041691      0.216151
      9.18098      4.89287     11.16288        -1.102340      1.845496      0.857027
      4.60826      1.44728      9.60871         1.451696     -0.090225     -0.336164
      1.74689     10.97588      8.41669        -0.506957     -1.598105     -1.238804
      0.57558      6.41740     10.10968         1.669897     -0.397690      2.618635
      6.42645      8.66975     11.00229         0.777983      0.708300      0.895773
     11.35928      4.21698      8.72795         0.025953     -1.930787     -2.463118
     10.62047      6.60565      1.72066        -1.692571      2.613432     -3.222391
      4.01886      4.59207      3.17637         0.879198     -2.443762      2.471061
      5.76416      4.22802      6.30579         0.154224      1.332721      0.700580
      4.21582      0.60660      6.26482         0.543842      0.023619      2.505736
      5.10563      6.93871      1.59148         2.969872     -1.149959      0.082029
      3.48485      5.91919      5.77413        -0.188407      0.920258      3.790371
      7.46422      2.86185      1.18044         0.626920     -1.613834     -1.935876
     10.89176      6.73574      4.89344         3.809792      2.551246      3.920661
      7.23756      3.36056      8.98729         3.661510     -4.017145      4.193709
     10.30211     11.26394      7.53019         5.107818      0.169379      5.624068
      2.69125      4.31039     10.86912        -2.395945     -3.200608     -0.814179
      9.53148      0.87732      5.25105         2.274090     -0.065267     -2.751967
      0.91576     10.31999     11.37140        -0.862879      4.515979      3.519269
      4.12600     11.12609     10.94534         1.097571     -1.561084      0.170667
      4.00823      7.83371      8.22138        -8.933687      1.749439     -3.736891
      0.94388      4.29150      5.60209        -6.159917     -7.280382     -1.205843
     10.42692      7.24704      8.11095         1.971346     -0.884165      0.736137
      7.85929     10.23722      4.22494         7.002351     -4.877057     -1.236190
     11.37077      2.38337     11.43678        -0.087627      2.736370      1.851180
      3.54394      1.58051      3.33543        -1.499245     -1.920039     -4.898466
      8.04560      8.04540      1.77878         0.714441      3.083086     -2.136324
     11.67653      9.61557      1.65881         0.049282      0.284302      1.583850
      8.87919      2.87004      6.46743         4.113688      1.909203      2.005315
     11.50088      0.51741      9.88339        -0.928876     -3.354761     -3.651570
      5.71530      0.76603      0.99358        -2.811734     -0.242782      1.582059
      8.17919      9.18130      8.59492         0.914034      1.339967      2.399593
      2.09957     10.66268      5.03494         1.724401     -3.010108      2.697680
      0.14880     10.64140     10.02153        -2.257597      3.575980     -0.873156
      5.78728     12.04317      6.36755        -3.286121      1.713498     -1.517035
     10.85076      3.75718     10.69921         0.256416     -1.756827     -0.076499
      6.55649      9.56840      4.83399        -2.383238     -0.228887     -0.018869
      2.98266      7.08671      4.78438         0.637959      0.591652      0.543860
      4.70235      9.84755     11.87004        -2.691370      0.277134      0.874975
[...]
      2.11429      1.35935      2.49494         1.310553      0.896731      1.155099
      0.58834      3.11219      4.43090         0.376263      0.903718     -0.298867
     11.77200      0.55652      8.15941         1.544620      0.879727      1.810215
     10.84871     10.79052      2.45901         5.110950     -1.761146      3.414897
      1.26523     11.41408      0.48886        -0.306036     -0.606504     -1.413573
      8.92055      6.72834      2.05415        -0.226184     -1.564466     -1.020820
      7.80098      9.89016      7.23917        -0.337996     -0.320866      0.154915
      8.44863      1.61419      0.37178        -1.024007      4.430895      1.199507
      6.37483      7.86248      2.34071        -0.576724     -1.817428     -0.344129
      1.57078      4.36471      9.55733        -0.090288      0.700244      0.723636
      7.07240     12.08466      1.39576        -2.350586     -0.932632     -0.995761
      4.47043      0.41626     11.91929         0.648315     -0.434415     -0.519838
      8.37389      9.33296      2.73166        -1.711843      0.733476     -0.689928
      6.73389      2.01465      9.88887         0.962325      1.318355     -1.170799
      2.17743      5.03778      5.83948         3.555886      1.111815      0.301081
    total drift:                               -0.014239     -0.007551     -0.026678

  FREE ENERGIE OF THE ION-ELECTRON SYSTEM (eV)
  free  energy   TOTEN  =      -942.81516683 eV

  energy  without entropy=     -942.81516683  energy(sigma->0) =     -942.81516683