 vasp.5.4.4.18Apr17-6-g9f103f2a35 (build Oct 31 2019 15:01:46) complex

 executed on             LinuxIFC date 2024.04.28  20:08:22

 INCAR:
 POTCAR:    PAW_PBE Ca_sv 06Sep2000
 POTCAR:    PAW_PBE Si 05Jan2001
 POTCAR:    PAW_PBE O 08Apr2002
 POTCAR:    PAW_PBE Ca_sv 06Sep2000
   VRHFIN =Ca: 3s3p4s

   TITEL  = PAW_PBE Ca_sv 06Sep2000
   POMASS =   40.078; ZVAL   =   10.000    mass and valenz
   ENMAX  =  266.622; ENMIN  =  199.967 eV

   TITEL  = PAW_PBE Si 05Jan2001
   POMASS =   28.085; ZVAL   =    4.000    mass and valenz
   ENMAX  =  245.345; ENMIN  =  184.009 eV

   TITEL  = PAW_PBE O 08Apr2002
   POMASS =   16.000; ZVAL   =    6.000    mass and valenz
   ENMAX  =  400.000; ENMIN  =  300.000 eV

 Optimization of the real space projectors (new method)

 maximal supplied QI-value         = 16.25
 optimisation between [QCUT,QGAM] = [ 12.51, 25.03] = [ 43.85,175.40] Ry
 Optimized for a Real-space Cutoff    1.47 Angstroem

   l    n(q)    QCUT    max X(q) W(low)/X(q) W(high)/X(q)  e(spline)
   0     11    12.514    11.817    0.25E-04    0.32E-05    0.87E-07
   0     11    12.514     8.461    0.39E-04    0.59E-05    0.18E-06
   1     11    12.514     3.957    0.97E-05    0.57E-05    0.28E-07
   1     11    12.514     4.314    0.42E-04    0.14E-04    0.23E-06
   2     10    12.514    14.565    0.79E-04    0.50E-03    0.16E-05
   2     10    12.514    14.552    0.75E-04    0.48E-03    0.15E-05
 Optimization of the real space projectors (new method)

[...]

   l    n(q)    QCUT    max X(q) W(low)/X(q) W(high)/X(q)  e(spline)
   0      9    12.501   159.560    0.10E-03    0.83E-04    0.71E-07
   0      9    12.501   115.863    0.99E-04    0.81E-04    0.70E-07
   1      8    12.501    88.339    0.20E-03    0.25E-03    0.76E-07
   1      8    12.501    48.592    0.20E-03    0.24E-03    0.75E-07
 Optimization of the real space projectors (new method)

 maximal supplied QI-value         = 24.76
 optimisation between [QCUT,QGAM] = [ 12.38, 25.00] = [ 42.90,175.06] Ry
 Optimized for a Real-space Cutoff    1.16 Angstroem

   l    n(q)    QCUT    max X(q) W(low)/X(q) W(high)/X(q)  e(spline)
   0      9    12.378    20.381    0.16E-03    0.67E-05    0.31E-06
   0      9    12.378    15.268    0.17E-03    0.81E-05    0.33E-06
   1      8    12.378     5.964    0.20E-03    0.16E-03    0.30E-06
   1      8    12.378     5.382    0.18E-03    0.14E-03    0.26E-06
  PAW_PBE Ca_sv 06Sep2000               :
  PAW_PBE Si 05Jan2001                  :
  PAW_PBE O 08Apr2002                   :

 POSCAR: Ca Si  O
  positions in direct lattice
 exchange correlation table for  LEXCH =        8
   RHO(1)=    0.500       N(1)  =     2000
   RHO(2)=  100.500       N(2)  =     4000

 ion  position               nearest neighbor table
   1  0.170  0.785  0.797- 123 2.05 120 2.19 117 2.20  44 2.82  53 3.02
   2  0.708  0.103  0.670- 113 2.13 125 2.43   3 2.58  51 2.99
   3  0.739  0.272  0.735-  74 2.12 134 2.20 125 2.24  89 2.46   2 2.58
   4  0.501  0.202  0.129- 126 2.06  61 2.09  96 2.24  30 2.62  27 2.97
   5  0.297  0.867  0.321-  63 2.11  69 2.16  73 2.26  37 2.87
   6  0.439  0.442  0.442-  62 2.21  98 2.30  45 2.38
   7  0.455  0.921  0.106- 101 2.30  69 2.32  61 2.36  30 2.74  23 3.01
   8  0.965  0.017  0.573-  56 2.44 130 2.46
   9  0.887  0.877  0.835-  84 2.05 135 2.15 118 2.23  43 2.90
  10  0.213  0.217  0.563-  67 2.19
  11  0.623  0.797  0.750-  79 2.18 114 2.20 111 2.41 113 2.56  51 2.94
  12  0.259  0.943  0.618- 107 2.05  85 2.36
  13  0.746  0.253  0.252-  60 1.72  38 3.08
  14  0.730  0.556  0.276- 102 2.19  55 2.35  71 2.47  48 2.90  46 3.15
  15  0.691  0.523  0.734-  70 2.47 124 2.55
  16  0.652  0.747  0.498- 114 1.95  91 2.14  48 2.84  51 3.00
  17  0.053  0.023  0.969- 135 2.04  86 2.12 120 2.25  44 2.73
  18  0.117  0.650  0.282- 132 2.09
  19  0.883  0.707  0.014-  84 2.03 129 2.07 104 2.41
  20  0.538  0.078  0.451- 127 1.77 119 2.39 122 2.52  35 3.13  30 3.16
  21  0.600  0.429  0.001-  87 1.90 110 2.27  52 2.91
  22  0.934  0.470  0.928- 131 1.93 104 2.24
  23  0.604  0.010  0.979- 126 2.51   7 3.01
  24  0.256  0.676  0.083-  63 2.27  75 2.30 116 2.34
  25  0.020  0.950  0.209-  86 2.16
  26  0.099  0.528  0.643-  80 1.87  57 2.15 100 2.43  54 3.13
  27  0.298  0.255  0.101-  81 2.20  96 2.43  94 2.49   4 2.97
  28  0.509  0.424  0.210-  98 1.60 110 1.64  97 1.81  62 2.39  45 2.64
  29  0.948  0.310  0.628- 100 1.55  74 1.78 108 1.87
  30  0.453  0.061  0.242- 119 1.38  69 1.60  61 1.78  96 2.48   4 2.62   7 2.74  20 3.16
  31  0.497  0.988  0.722- 128 1.61 111 1.70 122 1.89 113 1.97 107 2.16  49 2.98  35 3.05  34 3.08

  32  0.171  0.445  0.169-  90 1.50  75 1.61  81 1.64  76 1.98
  33  0.646  0.282  0.503- 106 1.58 125 1.58  92 1.94 133 2.26
  34  0.407  0.875  0.888- 101 1.72 123 1.74 111 1.77 103 1.97  31 3.08
  35  0.442  0.177  0.628-  67 1.58 127 1.59 133 1.88 128 2.09 109 2.21  49 2.87  31 3.05  20 3.13

  36  0.282  0.642  0.562-  80 1.45  82 1.62  72 2.07 117 2.31  64 2.51  41 2.60
  37  0.127  0.858  0.433-  73 1.64  56 1.67  85 1.70  65 2.00  53 2.79   5 2.87
  38  0.838  0.201  0.060-  66 1.52  60 1.60  99 1.75  95 1.87  13 3.08  43 3.13
  39  0.199  0.264  0.331-  88 1.59  94 1.69  58 1.85  90 2.27  45 2.95
  40  0.697  0.793  0.149- 121 1.62 129 1.63  55 1.82
  41  0.449  0.659  0.641-  72 1.64  64 1.64  79 1.71  36 2.60
  42  0.913  0.773  0.506-  59 1.59  65 1.68 112 1.73  53 2.69
  43  0.837  0.073  0.877- 135 1.59 118 1.60  66 1.82  89 1.90   9 2.90  38 3.13
  44  0.072  0.829  0.968- 116 1.47 120 1.53  86 1.78  84 2.30  17 2.73   1 2.82
  45  0.401  0.323  0.327-  58 1.60  62 1.64  96 1.79  98 2.20   6 2.38  28 2.64  39 2.95
  46  0.935  0.542  0.184- 132 1.56 104 1.66 102 1.78  14 3.15
  47  0.525  0.694  0.977-  93 1.51 115 1.52 103 1.65
  48  0.679  0.548  0.476-  71 1.61 124 1.62  91 1.73  92 2.04  16 2.84  14 2.90
  49  0.332  0.106  0.785- 109 1.58 107 1.69  78 1.70 128 1.89  35 2.87  31 2.98
  50  0.060  0.301  0.029-  68 1.56  95 1.62  76 1.78 131 1.89
  51  0.745  0.900  0.614- 130 1.59 114 1.60  83 1.72 113 2.25  11 2.94   2 2.99  16 3.00
  52  0.618  0.237  0.922- 126 1.50  87 1.53 134 1.56  99 1.94  21 2.91
  53  0.078  0.767  0.604-  77 1.67 117 1.76  65 1.85 112 2.11  42 2.69  37 2.79   1 3.02
  54  0.119  0.393  0.820- 105 1.47  57 1.81 131 1.83  26 3.13
  55  0.725  0.723  0.255-  40 1.82  14 2.35
  56  0.096  0.967  0.470-  37 1.67   8 2.44
  57  0.039  0.486  0.777-  54 1.81  26 2.15
  58  0.317  0.275  0.388-  45 1.60  39 1.85
  59  0.835  0.831  0.447-  42 1.59
  60  0.815  0.192  0.171-  38 1.60  13 1.72
  61  0.412  0.083  0.125-  30 1.78   4 2.09   7 2.36
  62  0.514  0.335  0.355-  45 1.64   6 2.21  28 2.39
  63  0.264  0.758  0.222-   5 2.11  24 2.27
  64  0.386  0.757  0.652-  41 1.64  36 2.51
  65  0.030  0.764  0.481-  42 1.68  53 1.85  37 2.00
  66  0.852  0.112  1.000-  38 1.52  43 1.82
  67  0.348  0.140  0.577-  35 1.58  10 2.19
  68  0.152  0.264  0.979-  50 1.56
  69  0.404  0.960  0.259-  30 1.60   5 2.16   7 2.32
  70  0.801  0.585  0.856-  15 2.47
  71  0.765  0.485  0.433-  48 1.61  14 2.47
  72  0.379  0.565  0.642-  41 1.64  36 2.07
  73  0.137  0.852  0.317-  37 1.64   5 2.26
  74  0.863  0.356  0.711-  29 1.78   3 2.12
  75  0.159  0.552  0.130-  32 1.61  24 2.30
  76  0.060  0.413  0.089-  50 1.78  32 1.98
  77  0.047  0.872  0.651-  53 1.67
  78  0.299  0.082  0.899-  49 1.70
  79  0.547  0.666  0.714-  41 1.71  11 2.18
  80  0.218  0.569  0.597-  36 1.45  26 1.87
  81  0.272  0.409  0.123-  32 1.64  27 2.20
  82  0.332  0.634  0.458-  36 1.62
  83  0.664  0.965  0.548-  51 1.72 122 1.94
  84  0.945  0.757  0.893-  19 2.03   9 2.05  44 2.30
  85  0.230  0.833  0.493-  37 1.70  12 2.36
  86  0.063  0.908  0.067-  44 1.78  17 2.12  25 2.16
  87  0.580  0.338  0.902-  52 1.53  21 1.90
  88  0.109  0.269  0.400-  39 1.59
  89  0.860  0.202  0.840-  43 1.90   3 2.46
  90  0.168  0.411  0.271-  32 1.50  39 2.27
  91  0.592  0.623  0.432-  48 1.73  16 2.14
  92  0.618  0.417  0.490-  33 1.94  48 2.04
  93  0.454  0.720  0.054-  47 1.51
  94  0.195  0.195  0.232-  39 1.69  27 2.49
  95  0.948  0.273  0.039-  50 1.62  38 1.87
[...]
 121  0.637  0.891  0.133-  40 1.62
 122  0.533  0.968  0.593-  31 1.89  83 1.94  20 2.52
 123  0.294  0.832  0.860-  34 1.74   1 2.05
 124  0.740  0.581  0.569-  48 1.62  15 2.55
 125  0.725  0.248  0.577-  33 1.58   3 2.24   2 2.43
 126  0.566  0.184  0.998-  52 1.50   4 2.06  23 2.51
 127  0.522  0.124  0.568-  35 1.59  20 1.77
 128  0.461  0.093  0.749-  31 1.61  49 1.89  35 2.09
 129  0.750  0.759  0.051-  40 1.63  19 2.07
 130  0.850  0.915  0.657-  51 1.59   8 2.46
 131  0.039  0.381  0.922-  54 1.83  50 1.89  22 1.93
 132  0.974  0.621  0.252-  46 1.56  18 2.09
 133  0.533  0.275  0.618-  35 1.88  33 2.26
 134  0.652  0.183  0.831-  52 1.56   3 2.20
 135  0.934  0.014  0.886-  43 1.59  17 2.04   9 2.15

IMPORTANT INFORMATION: All symmetrisations will be switched off!
NOSYMM: (Re-)initialisation of all symmetry stuff for point group C_1.

Automatic generation of k-mesh.
 generate k-points for:    2    2    2
Space group operators:
 irot       det(A)        alpha          n_x          n_y          n_z        tau_x        tau_y        tau_z
    1     1.000000     0.000000     1.000000     0.000000     0.000000     0.000000     0.000000     0.000000

 Subroutine IBZKPT returns following result:

 Found      8 irreducible k-points:

 Following reciprocal coordinates:
            Coordinates               Weight
  0.000000  0.000000  0.000000      1.000000
  0.500000  0.000000  0.000000      1.000000
  0.000000  0.500000  0.000000      1.000000
  0.500000  0.500000  0.000000      1.000000
  0.000000  0.000000  0.500000      1.000000
  0.500000  0.000000  0.500000      1.000000
  0.000000  0.500000  0.500000      1.000000
  0.500000  0.500000  0.500000      1.000000

 Following cartesian coordinates:
            Coordinates               Weight
  0.000000  0.000000  0.000000      1.000000
  0.035682  0.000000  0.000000      1.000000
  0.000000  0.035682  0.000000      1.000000
  0.035682  0.035682  0.000000      1.000000
  0.000000  0.000000  0.035682      1.000000
  0.035682  0.000000  0.035682      1.000000
  0.000000  0.035682  0.035682      1.000000
  0.035682  0.035682  0.035682      1.000000

 SYSTEM =  unknown system
 POSCAR =  Ca Si  O

 Startparameter for this run:
   NWRITE =      2    write-flag & timer
   PREC   = a         normal or accurate (medium, high low for compatibility)
   ISTART =      0    job   : 0-new  1-cont  2-samecut
   ICHARG =      2    charge: 1-file 2-atom 10-const
   ISPIN  =      1    spin polarized calculation?
   LNONCOLLINEAR =      F non collinear calculations
   LSORBIT =      F    spin-orbit coupling
   INIWAV =      1    electr: 0-lowe 1-rand  2-diag
   LASPH  =      F    aspherical Exc in radial PAW
   METAGGA=      F    non-selfconsistent MetaGGA calc.

 Electronic Relaxation 1
   ENCUT  =  600.0 eV  44.10 Ry    6.64 a.u.  27.99 27.99 27.99*2*pi/ulx,y,z
   ENINI  =  600.0     initial cutoff
   ENAUG  =  605.4 eV  augmentation charge cutoff
   NELM   =     60;   NELMIN=  2; NELMDL= -5     # of ELM steps
   EDIFF  = 0.1E-05   stopping-criterion for ELM
[...]
     0.000000000  0.000000000 14.012776000     0.000000000  0.000000000  0.071363447

  length of vectors
    14.012776000 14.012776000 14.012776000     0.071363447  0.071363447  0.071363447

 FORCES acting on ions
    electron-ion (+dipol)            ewald-force                    non-local-force                 convergence-correction
   -.496E+01 0.225E+03 -.193E+02   0.798E+01 -.223E+03 0.214E+02   -.290E+01 -.274E+01 -.147E+01   -.686E-02 -.537E-02 0.360E-02
   -.286E+03 -.837E+02 0.160E+03   0.279E+03 0.780E+02 -.162E+03   0.525E+01 0.448E+01 0.110E+01   0.141E-01 0.121E-01 0.612E-02
   -.535E+02 -.319E+03 0.235E+02   0.599E+02 0.321E+03 -.221E+02   -.528E+01 -.379E+00 -.191E+00   0.714E-02 0.155E-01 0.827E-02
   -.123E+03 -.744E+02 -.576E+01   0.122E+03 0.756E+02 0.355E+01   0.274E+01 0.165E+01 0.257E+01   0.369E-02 0.186E-02 -.468E-02
   -.135E+03 -.266E+02 -.657E+02   0.133E+03 0.202E+02 0.594E+02   0.213E+01 0.429E+01 0.592E+01   -.321E-02 -.429E-02 -.442E-02
   0.210E+03 -.221E+03 -.263E+03   -.202E+03 0.225E+03 0.263E+03   -.574E+01 -.398E+00 0.289E+01   0.344E-02 0.713E-02 0.436E-02
   0.209E+02 0.286E+03 -.171E+03   -.250E+02 -.287E+03 0.169E+03   0.277E+01 -.167E+01 0.124E+01   0.271E-02 -.409E-02 -.298E-02
   -.380E+02 -.271E+03 0.210E+03   0.400E+02 0.270E+03 -.210E+03   -.144E+01 0.126E+01 0.291E+00   0.395E-03 -.167E-02 0.111E-02
   0.212E+02 0.172E+03 0.400E+02   -.191E+02 -.170E+03 -.390E+02   -.221E+01 -.147E+01 -.315E+01   -.641E-03 -.171E-01 0.444E-02
   0.291E+03 -.165E+03 -.301E+02   -.288E+03 0.164E+03 0.280E+02   -.398E+01 0.160E+01 0.159E+01   -.577E-02 0.257E-02 0.242E-02
   -.103E+03 0.263E+03 -.191E+03   0.986E+02 -.264E+03 0.187E+03   0.342E+01 0.741E+00 0.481E+01   0.133E-01 -.235E-01 0.138E-01
   0.141E+03 -.657E+02 0.152E+03   -.137E+03 0.651E+02 -.152E+03   -.373E+01 -.177E+00 -.171E+01   -.922E-02 -.409E-02 0.361E-02
   -.190E+03 0.852E+01 -.260E+03   0.187E+03 -.366E+01 0.265E+03   -.271E+01 0.126E+01 0.228E+01   0.392E-02 0.257E-02 -.409E-02
   0.113E+02 -.123E+03 0.222E+02   -.684E+01 0.119E+03 -.216E+02   -.435E+01 0.291E+01 -.596E+00   0.446E-02 0.124E-02 -.725E-02
   0.823E+02 0.672E+02 -.503E+02   -.756E+02 -.600E+02 0.498E+02   -.488E+01 -.535E+01 0.655E-01   0.320E-01 0.165E-01 0.357E-01
   0.102E+03 -.299E+02 0.372E+03   -.100E+03 0.266E+02 -.371E+03   -.203E+01 0.342E+01 -.348E+01   0.843E-02 -.101E-01 0.163E-02
   -.204E+03 -.338E+03 -.175E+03   0.202E+03 0.335E+03 0.170E+03   0.371E+01 0.568E+01 0.352E+01   -.343E-02 -.212E-02 -.548E-03
   -.689E+01 0.662E+02 -.199E+03   0.747E+01 -.668E+02 0.192E+03   0.171E+01 0.750E+00 0.560E+01   -.424E-02 -.889E-03 -.335E-02
   0.245E+02 0.235E+02 -.205E+03   -.267E+02 -.274E+02 0.200E+03   0.243E+01 0.105E+01 0.499E+01   -.122E-01 -.195E-01 -.223E-01
   -.153E+02 0.212E+03 0.406E+03   0.199E+02 -.212E+03 -.405E+03   -.231E+01 -.309E+01 -.633E+01   0.461E-02 0.515E-02 -.185E-01
   -.326E+02 -.341E+03 0.849E+02   0.293E+02 0.341E+03 -.812E+02   0.390E+01 0.409E+01 0.235E+00   0.142E-01 0.121E-01 -.107E-01
   0.161E+03 -.798E+02 0.836E+02   -.159E+03 0.816E+02 -.841E+02   -.418E+01 0.515E+00 -.395E+00   -.304E-01 0.252E-01 -.132E-01
   -.158E+03 0.133E+03 -.171E+03   0.158E+03 -.129E+03 0.167E+03   0.643E+00 -.249E+01 0.191E+01   0.395E-02 -.269E-02 0.383E-02
   -.189E+03 0.107E+03 0.913E+02   0.185E+03 -.105E+03 -.853E+02   0.390E+01 -.115E+01 -.526E+01   -.211E-02 -.135E-02 -.387E-02
   0.210E+03 -.184E+03 -.227E+03   -.204E+03 0.179E+03 0.223E+03   -.443E+01 0.392E+01 0.373E+01   -.405E-02 -.208E-02 -.318E-02
   0.861E+02 0.167E+03 0.125E+03   -.896E+02 -.170E+03 -.122E+03   -.206E+01 0.163E+01 -.254E+01   -.947E-02 0.344E-02 0.614E-02
   0.172E+03 0.499E+02 0.234E+03   -.179E+03 -.442E+02 -.230E+03   0.504E+01 -.504E+01 -.401E+01   -.152E-02 0.231E-02 -.445E-02
   -.241E+02 -.140E+03 -.620E+01   0.225E+02 0.138E+03 -.865E+00   0.592E+01 0.216E+00 0.388E+01   0.270E-02 0.144E-02 -.377E-02
   -.562E+02 0.710E+02 0.338E+02   0.595E+02 -.588E+02 -.390E+02   -.670E+01 -.130E+02 0.449E+01   -.196E-02 0.316E-02 0.214E-02
   0.730E+02 0.792E+02 -.695E+02   -.615E+02 -.796E+02 0.716E+02   -.255E+02 -.373E+01 -.964E+01   0.927E-03 -.491E-03 -.268E-02
   0.445E+02 0.543E+02 0.203E+02   -.439E+02 -.505E+02 -.210E+02   0.233E+01 -.589E+01 -.358E+01   -.404E-02 -.553E-03 0.965E-02
   0.459E+02 -.997E+00 -.235E+02   -.375E+02 0.190E+01 0.269E+02   -.815E+01 -.787E+00 -.109E+02   -.214E-02 0.119E-02 -.203E-02
   -.964E+00 -.112E+03 0.396E+02   0.141E+02 0.102E+03 -.411E+02   -.143E+02 0.137E+02 0.290E+01   0.397E-02 0.337E-02 -.405E-03
   0.629E+02 0.840E+02 -.640E+02   -.672E+02 -.796E+02 0.650E+02   0.275E+01 -.537E+01 -.212E+01   -.352E-04 -.251E-02 0.195E-02
   0.861E+02 -.193E+03 -.583E+02   -.835E+02 0.187E+03 0.445E+02   -.233E+00 0.844E+01 0.164E+02   -.370E-02 0.389E-02 0.335E-02
   -.327E+02 -.506E+02 0.465E+02   0.296E+02 0.308E+02 -.545E+02   0.990E+01 0.224E+02 0.571E+01   -.175E-02 -.427E-03 0.141E-02
   0.703E+02 0.415E+01 0.533E+02   -.639E+02 0.595E+01 -.565E+02   -.615E+01 -.739E+01 0.423E+01   -.184E-02 -.137E-02 0.461E-04
   -.864E+02 -.520E+02 -.117E+03   0.817E+02 0.413E+02 0.114E+03   0.396E+01 0.152E+02 0.314E+00   0.275E-04 0.191E-02 -.765E-03
   0.826E+02 0.967E+00 -.351E+02   -.973E+02 -.810E+01 0.355E+02   0.125E+02 0.744E+01 -.405E+01   -.295E-02 0.682E-03 -.130E-02
   -.856E+01 -.181E+01 -.126E+03   0.112E+02 0.276E+01 0.120E+03   -.124E+01 -.349E+01 0.756E+01   0.188E-02 -.264E-02 -.330E-02
   -.394E+02 0.863E+02 0.621E+02   0.320E+02 -.854E+02 -.532E+02   0.745E+01 -.305E+00 -.454E+01   0.160E-02 -.217E-02 0.298E-02
   0.427E+02 0.602E+02 0.107E+03   -.474E+02 -.587E+02 -.107E+03   0.336E+01 -.332E+01 0.279E+01   -.915E-04 -.252E-02 0.186E-02
   -.162E+02 -.828E+02 0.175E+02   0.221E+02 0.762E+02 -.169E+02   -.411E+01 0.128E+02 0.174E+01   0.126E-02 0.420E-03 0.167E-02
   0.568E+02 0.378E+02 -.727E+02   -.432E+02 -.422E+02 0.724E+02   -.180E+02 0.592E+01 0.226E+01   -.273E-02 -.296E-02 -.115E-02
   0.902E+02 -.689E+02 -.107E+02   -.848E+02 0.591E+02 0.121E+02   -.391E+01 0.375E+01 -.825E+01   0.608E-03 0.558E-04 -.247E-02
   -.215E+02 0.487E+02 -.822E+02   0.150E+02 -.441E+02 0.806E+02   0.229E+01 -.944E+01 -.133E+01   -.212E-02 0.582E-03 -.443E-02
   -.538E+02 0.761E+02 0.518E+02   0.454E+02 -.795E+02 -.359E+02   0.642E+01 0.459E+01 -.169E+02   0.512E-02 -.339E-02 -.124E-02
   0.299E+02 -.447E+01 0.177E+02   -.163E+02 0.352E+01 -.157E+02   -.135E+02 -.271E+01 -.573E+00   0.319E-02 0.686E-03 0.285E-02
   0.161E+03 -.101E+03 -.818E+02   -.162E+03 0.104E+03 0.850E+02   0.277E+01 -.520E+01 0.141E+01   -.184E-02 0.745E-03 0.262E-02
   -.194E+02 0.984E+02 -.926E+02   0.253E+02 -.961E+02 0.861E+02   -.711E+01 0.391E+01 0.488E+01   -.251E-02 0.208E-02 -.789E-03
   -.899E+02 -.109E+02 0.104E+03   0.897E+02 0.838E+01 -.106E+03   -.336E+01 0.487E+01 0.160E+00   0.716E-02 -.652E-02 0.180E-02
   0.113E+02 -.794E+02 0.157E+02   -.172E+02 0.773E+02 -.185E+02   0.113E+02 0.153E+01 0.172E+01   0.219E-02 0.403E-02 0.894E-03
   0.269E+01 0.853E+02 0.439E+02   -.320E+01 -.791E+02 -.356E+02   -.139E+01 -.636E+01 -.556E+01   -.265E-02 -.200E-02 0.208E-02
   -.489E+02 0.123E+03 0.155E+03   0.598E+02 -.110E+03 -.144E+03   -.194E+02 -.103E+02 -.967E+01   -.355E-02 0.281E-02 0.134E-02
   -.130E+02 -.117E+03 -.606E+02   0.186E+02 0.110E+03 0.790E+02   -.701E+01 0.989E+01 -.223E+02   0.213E-02 -.177E-02 -.444E-02
   0.550E+02 -.234E+03 0.135E+03   -.580E+02 0.258E+03 -.132E+03   0.225E+01 -.246E+02 -.363E+01   -.286E-02 -.174E-02 0.328E-03
   0.670E+01 -.448E+02 0.392E+02   -.219E+02 0.565E+02 -.417E+02   0.172E+02 -.139E+02 0.302E+01   -.127E-01 0.678E-02 0.420E-02
   0.156E+03 0.491E+01 -.164E+03   -.161E+03 -.203E+02 0.184E+03   0.219E+01 0.167E+02 -.183E+02   -.425E-02 -.212E-02 -.211E-04
   0.141E+02 -.842E+02 0.280E+03   -.357E+02 0.101E+03 -.299E+03   0.225E+02 -.180E+02 0.203E+02   0.225E-02 -.324E-02 -.846E-03
   -.213E+03 0.185E+03 -.154E+03   0.216E+03 -.196E+03 0.172E+03   0.166E+01 0.623E+01 -.230E+02   0.769E-03 0.104E-02 -.154E-02
[...]
   0.168E+03 0.199E+03 0.213E+03   -.163E+03 -.199E+03 -.227E+03   -.110E+02 -.144E+01 0.169E+02   -.663E-02 -.421E-03 -.326E-02
   -.315E+01 0.879E+02 -.885E+02   -.133E+02 -.930E+02 0.871E+02   0.210E+02 0.661E+01 0.242E+01   -.189E-02 -.319E-02 0.200E-02
   -.155E+03 0.218E+02 -.594E+02   0.178E+03 -.163E+02 0.780E+02   -.251E+02 -.385E+01 -.166E+02   0.459E-02 -.558E-03 0.113E-01
   -.216E+03 -.920E+02 0.143E+03   0.239E+03 0.851E+02 -.134E+03   -.226E+02 0.678E+01 -.636E+01   0.575E-02 0.574E-02 0.191E-02
   0.747E+02 0.983E+01 -.458E+01   -.898E+02 -.234E+02 0.246E+02   0.117E+02 0.886E+01 -.171E+02   0.263E-02 0.290E-02 0.263E-04
   0.212E+02 -.914E+02 0.333E+02   -.254E+01 0.827E+02 -.349E+02   -.180E+02 0.998E+01 0.602E+01   0.801E-03 0.967E-02 -.454E-03
   0.142E+01 -.192E+03 -.128E+03   0.216E+01 0.214E+03 0.139E+03   -.665E+00 -.185E+02 -.110E+02   -.316E-02 0.381E-02 0.891E-02
   0.584E+02 -.156E+02 -.447E+02   -.530E+02 0.809E+01 0.208E+02   -.697E+01 0.881E+01 0.258E+02   0.310E-02 -.978E-02 -.869E-02
   -.127E+03 -.111E+02 0.616E+02   0.154E+03 0.107E+02 -.498E+02   -.266E+02 0.186E+01 -.118E+02   0.477E-02 -.625E-02 0.358E-02
   -.857E+02 0.812E+02 0.961E+02   0.819E+02 -.779E+02 -.921E+02   0.633E+01 -.707E+01 -.594E+01   -.791E-02 0.634E-02 0.138E-03
   0.907E+02 -.654E+02 -.146E+03   -.876E+02 0.874E+02 0.165E+03   -.306E+01 -.212E+02 -.195E+02   -.252E-02 -.809E-03 -.361E-02
   0.103E+03 -.285E+03 -.858E+02   -.930E+02 0.298E+03 0.915E+02   -.117E+02 -.126E+02 -.583E+01   0.255E-02 0.766E-02 0.402E-02
   0.640E+02 -.205E+02 0.125E+02   -.582E+02 0.375E+01 -.334E+02   -.547E+01 0.148E+02 0.188E+02   0.350E-02 0.622E-02 0.480E-02
   -.134E+03 -.886E+02 0.241E+02   0.153E+03 0.796E+02 -.234E+02   -.168E+02 0.830E+01 -.227E+01   -.299E-03 -.214E-02 0.150E-02
   0.144E+03 -.811E+02 -.320E+01   -.114E-12 0.966E-12 0.668E-12   -.144E+03 0.811E+02 0.317E+01   0.157E-01 0.902E-02 0.197E-01

 POSITION                                       TOTAL-FORCE (eV/Angst)
      2.38474     11.00099     11.17374         0.117796     -0.524876      0.637912
      9.91871      1.43814      9.38630        -1.518734     -1.179143     -0.738926
     10.36006      3.81398     10.29357         1.122995      1.876981      1.185830
      7.02012      2.83010      1.81028         1.665833      2.892883      0.350204
      4.16700     12.15262      4.49336        -0.077526     -2.082538     -0.344374
      6.14770      6.19572      6.19906         2.251260      3.929249      3.536695
      6.37835     12.90194      1.48917        -1.335699     -2.175025     -0.145023
     13.51690      0.24299      8.02333         0.561957      0.083442     -0.228408
     12.43579     12.29488     11.69792        -0.102060      0.258073     -2.166655
      2.98036      3.04760      7.89003        -0.076135      0.530897     -0.527100
      8.73359     11.16532     10.51257        -1.118048      0.293382      0.864605
      3.62804     13.20987      8.65682         0.072575     -0.749335     -1.088227
     10.45811      3.54430      3.53708        -5.582837      6.127425      7.456256
     10.22543      7.79318      3.86235         0.153602     -0.986248     -0.013163
      9.68333      7.32719     10.28585         1.851177      1.900298     -0.420165
      9.13908     10.47028      6.97194        -0.453617      0.054827     -2.739038
      0.74781      0.31770     13.57287         1.373967      3.050966     -1.122822
      1.64352      9.11249      3.95008         2.273643      0.145265     -0.886204
     12.37022      9.90037      0.19824         0.190050     -2.954541      0.269596
      7.53203      1.09493      6.31994         2.291603     -2.872430     -5.017499
      8.40458      6.00461      0.00782         0.617046      3.772101      3.883953
     13.09335      6.59295     12.99748        -2.514617      2.387910     -0.891192
      8.46013      0.13469     13.71588         0.773467      1.187253     -1.591974
      3.58630      9.47188      1.16201         0.297760      0.094337      0.663182
      0.27875     13.30613      2.92555         1.328360     -0.867903      0.311576
      1.39193      7.39248      9.00572        -5.510351     -1.823915      1.056031
      4.17670      3.57725      1.41403        -2.068359      0.682762     -0.254348
      7.12627      5.93946      2.93829         4.299512     -2.068350     -3.188057
     13.27772      4.34474      8.79857        -3.384806     -0.807063     -0.728603
      6.35428      0.85525      3.39609       -13.942566     -4.186436     -7.582266
      6.95772     13.84306     10.11210         2.884345     -2.067515     -4.303963
      2.40014      6.23479      2.37186         0.183726      0.117738     -7.501214
      9.05444      3.95037      7.05154        -1.082852      3.513771      1.388493
      5.70433     12.26304     12.44558        -1.600970     -1.029777     -1.130723
      6.19206      2.47504      8.79450         2.291174      2.423171      2.640043
      3.95307      8.99739      7.87620         6.855345      2.662680     -2.263233
      1.78039     12.02078      6.07336         0.273436      2.711098      1.017239
     11.74537      2.81621      0.83754        -0.705107      4.552075     -2.510170
      2.78340      3.69831      4.64065        -2.251501      0.308450     -3.609689
      9.77029     11.11006      2.08674         1.368612     -2.544863      1.483438
      6.29690      9.23104      8.97775         0.035906      0.548105      4.347892
     12.79596     10.83107      7.09224        -1.287934     -1.810006      2.496680
     11.73235      1.02895     12.28423         1.749397      6.200652      2.347963
      1.01556     11.61717     13.56117        -4.431035      1.557949      1.914947
      5.61866      4.52466      4.58682         1.470191     -6.019633     -6.826223
     13.09971      7.58969      2.57788        -4.215811     -4.801359     -2.974745
      7.35547      9.72031     13.69030        -2.042101      1.184368     -0.980214
      9.51763      7.67567      6.67575         0.069328     -3.663146      1.428249
      4.64653      1.48699     10.99703         0.929761     -2.314928      4.611026
      0.83767      4.21902      0.40452        -1.204979      6.251160     -1.569316
     10.44645     12.61591      8.61010        -3.553462      2.334445     -1.959173
      8.66032      3.32170     12.91549         5.375003     -0.495124     -1.104163
      1.09285     10.74627      8.45933        -1.903563     -0.125205      2.665877
      1.66108      5.50009     11.48721        -8.431731      2.788673      2.092674
     10.16071     10.12537      3.56885        -1.398859      2.799887     -3.865568
      1.34330     13.55258      6.58846        -0.732016     -1.066178      0.066116
      0.54909      6.80367     10.89275         2.039436     -2.214855      0.543358
      4.44087      3.85121      5.43743        -2.753558      1.316131      2.129573
     11.70365     11.65120      6.27025         0.967061     -0.670862      1.010973
     11.41934      2.69232      2.39553         5.419527     -4.694275     -5.305887
[...]
      8.93252     12.47995      1.86129        -0.948461      0.123910     -0.029874
      7.47443     13.56062      8.31202        -5.515832     -1.500642      2.531209
      4.12052     11.65650     12.05160         4.530430      1.472982      1.064788
     10.36573      8.14149      7.97070        -2.316373      1.664971      2.031364
     10.15253      3.47988      8.09227         0.612656     -0.134263      2.909992
      7.93174      2.57743     13.99069        -3.330091     -4.747569      2.942922
      7.31909      1.74066      7.95399         0.592926      1.316065      4.416394
      6.45912      1.30641     10.50140         2.908636      3.799064      0.459707
     10.50808     10.64226      0.70830        -1.561321      1.283694      1.786442
     11.90503     12.82699      9.21301         0.289907      1.380524     -0.054026
      0.54811      5.34414     12.92670         2.521435     -3.796484     -1.922170
     13.64654      8.70055      3.52781         0.006406      0.726158      0.393619
      7.46964      3.84885      8.65544        -1.995579      0.425533     -0.121408
      9.13825      2.56834     11.63889         0.326127     -1.938543     -2.109137
     13.08526      0.20217     12.41097         2.540647     -0.758054     -1.507564
    total drift:                               -0.007581     -0.043433     -0.012067

  FREE ENERGIE OF THE ION-ELECTRON SYSTEM (eV)
  free  energy   TOTEN  =      -862.11322720 eV

  energy  without entropy=     -862.08292795  energy(sigma->0) =     -862.09807758