 vasp.5.4.4.18Apr17-6-g9f103f2a35 (build Mar 16 2023 09:39:13) complex

 executed on             LinuxIFC date 2024.04.30  03:40:20

 INCAR:
 POTCAR:    PAW_PBE Ca_sv 06Sep2000
 POTCAR:    PAW_PBE Si 05Jan2001
 POTCAR:    PAW_PBE O 08Apr2002
 POTCAR:    PAW_PBE Ca_sv 06Sep2000
   VRHFIN =Ca: 3s3p4s

   TITEL  = PAW_PBE Ca_sv 06Sep2000
   POMASS =   40.078; ZVAL   =   10.000    mass and valenz
   ENMAX  =  266.622; ENMIN  =  199.967 eV

   TITEL  = PAW_PBE Si 05Jan2001
   POMASS =   28.085; ZVAL   =    4.000    mass and valenz
   ENMAX  =  245.345; ENMIN  =  184.009 eV

   TITEL  = PAW_PBE O 08Apr2002
   POMASS =   16.000; ZVAL   =    6.000    mass and valenz
   ENMAX  =  400.000; ENMIN  =  300.000 eV

 Optimization of the real space projectors (new method)

 maximal supplied QI-value         = 16.25
 optimisation between [QCUT,QGAM] = [ 12.51, 25.03] = [ 43.85,175.40] Ry
 Optimized for a Real-space Cutoff    1.47 Angstroem

   l    n(q)    QCUT    max X(q) W(low)/X(q) W(high)/X(q)  e(spline)
   0     11    12.514    11.817    0.25E-04    0.32E-05    0.87E-07
   0     11    12.514     8.461    0.39E-04    0.59E-05    0.18E-06
   1     11    12.514     3.957    0.97E-05    0.57E-05    0.28E-07
   1     11    12.514     4.314    0.42E-04    0.14E-04    0.23E-06
   2     10    12.514    14.565    0.79E-04    0.50E-03    0.16E-05
   2     10    12.514    14.552    0.75E-04    0.48E-03    0.15E-05
 Optimization of the real space projectors (new method)

[...]

   l    n(q)    QCUT    max X(q) W(low)/X(q) W(high)/X(q)  e(spline)
   0      9    12.501   159.560    0.10E-03    0.83E-04    0.71E-07
   0      9    12.501   115.863    0.99E-04    0.81E-04    0.70E-07
   1      8    12.501    88.339    0.20E-03    0.25E-03    0.76E-07
   1      8    12.501    48.592    0.20E-03    0.24E-03    0.75E-07
 Optimization of the real space projectors (new method)

 maximal supplied QI-value         = 24.76
 optimisation between [QCUT,QGAM] = [ 12.38, 25.00] = [ 42.90,175.06] Ry
 Optimized for a Real-space Cutoff    1.16 Angstroem

   l    n(q)    QCUT    max X(q) W(low)/X(q) W(high)/X(q)  e(spline)
   0      9    12.378    20.381    0.16E-03    0.67E-05    0.31E-06
   0      9    12.378    15.268    0.17E-03    0.81E-05    0.33E-06
   1      8    12.378     5.964    0.20E-03    0.16E-03    0.30E-06
   1      8    12.378     5.382    0.18E-03    0.14E-03    0.26E-06
  PAW_PBE Ca_sv 06Sep2000               :
  PAW_PBE Si 05Jan2001                  :
  PAW_PBE O 08Apr2002                   :

 POSCAR: Ca Si  O
  positions in direct lattice
 exchange correlation table for  LEXCH =        8
   RHO(1)=    0.500       N(1)  =     2000
   RHO(2)=  100.500       N(2)  =     4000

 ion  position               nearest neighbor table
   1  0.771  0.924  0.900- 127 2.07  84 2.16 116 2.34 134 2.41 113 2.55  69 2.55  29 2.65   3 3.06

   2  0.503  0.545  0.521-  93 2.28 105 2.44  50 3.07
   3  0.662  0.718  0.974-  84 2.37  70 2.40  40 2.87   1 3.06
   4  0.616  0.057  0.735- 125 2.21 124 2.31  94 2.32 113 2.44  69 2.50 116 2.56  29 2.93  32 3.10

[...]

  35  0.021  0.608  0.535-  91 1.63  63 1.64  61 1.83 102 1.83  37 3.08
  36  0.878  0.521  0.160-  74 1.55  67 1.64 122 1.67 110 1.70  51 2.96  11 3.03
  37  0.926  0.702  0.329- 110 1.57  95 1.60  91 1.64  99 1.80  33 2.74  42 2.96  35 3.08
  38  0.403  0.795  0.020-  83 1.67  97 1.72  76 1.73  70 2.00  40 2.70
  39  0.079  0.504  0.784-  73 1.66  98 1.69 101 1.74  61 1.86  23 2.77
  40  0.577  0.869  0.123-  86 1.64  70 1.69  78 1.78  84 1.79  38 2.70   3 2.87  33 3.06
  41  0.353  0.738  0.625- 117 1.59  59 1.61  68 1.61 126 1.84  24 2.84   5 2.91
  42  0.162  0.697  0.328-  75 1.57 112 1.57  90 1.64  99 2.27  37 2.96  13 3.11   9 3.15
  43  0.068  0.300  0.311- 114 1.58  72 1.61 128 1.67  77 1.68  51 2.84  45 2.94  48 3.09
  44  0.033  0.981  0.946- 127 1.48 109 1.71  92 1.85 100 1.96  15 3.03
  45  0.909  0.376  0.467- 102 1.58 120 1.71 111 1.74  72 2.04  43 2.94  34 2.99
  46  0.370  0.334  0.637-  93 1.58 107 1.62 133 1.64  96 1.65  52 2.79  22 2.96
  47  0.537  0.441  0.039-  79 1.59 135 1.64  87 1.77 129 1.81  26 2.90  53 2.92
  48  0.064  0.081  0.197-  77 1.58 121 1.62  92 1.63 108 1.67  43 3.09   7 3.12
  49  0.453  0.337  0.325-  55 1.53 104 1.72  85 1.79  82 1.81  18 2.82  20 3.04  50 3.07
  50  0.525  0.566  0.278- 130 1.60 129 1.62 105 1.75  55 1.75  49 3.07   2 3.07
  51  0.090  0.424  0.122- 128 1.47  58 1.59  74 1.72  62 1.81  20 2.77  43 2.84  36 2.96
  52  0.337  0.141  0.743-  60 1.65 119 1.70 125 1.76  96 2.05 107 2.39  46 2.79  30 3.05
  53  0.545  0.214  0.093-  81 1.56  88 1.69  82 1.80  79 1.91  47 2.92
  54  0.837  0.049  0.330-  80 1.49  56 1.64 131 1.66 121 1.77  33 2.92  27 3.00
  55  0.529  0.433  0.320-  49 1.53  50 1.75  18 2.34
  56  0.760  0.155  0.338-  54 1.64  18 2.44
  57  0.728  0.779  0.591-  29 1.70  19 2.36
  58  0.035  0.326  0.062-  51 1.59  15 2.19  11 2.54
  59  0.464  0.728  0.689-  41 1.61  24 2.30   5 2.35
  60  0.238  0.081  0.679-  52 1.65  30 1.67
  61  0.087  0.528  0.638-  35 1.83  39 1.86  23 2.36  22 2.57
  62  0.194  0.501  0.059-  51 1.81   8 2.14  20 2.31
  63  0.989  0.708  0.613-  35 1.64  21 2.38
  64  0.834  0.359  0.714-  34 1.68  31 1.73
  65  0.711  0.295  0.864-  32 1.60  31 1.75  26 2.55
  66  0.577  0.933  0.430-  28 1.59  10 1.92  12 2.34
  67  0.856  0.392  0.150-  36 1.64
  68  0.270  0.803  0.700-  41 1.61  21 2.35  24 2.46
  69  0.791  0.966  0.701-  29 1.58  17 2.24   4 2.50   1 2.55
  70  0.527  0.745  0.107-  40 1.69  38 2.00   3 2.40
  71  0.791  0.525  0.816-  31 1.62  19 2.16  11 2.52
  72  0.945  0.336  0.313-  43 1.61  45 2.04
  73  0.054  0.379  0.822-  39 1.66  15 2.45  23 2.45
  74  0.002  0.522  0.158-  36 1.55  51 1.72
  75  0.167  0.586  0.387-  42 1.57  22 2.20
  76  0.346  0.706  0.932-  38 1.73   5 2.28
  77  0.108  0.187  0.250-  48 1.58  43 1.68   7 2.40
  78  0.501  0.945  0.216-  40 1.78  12 2.04  16 2.41
  79  0.611  0.352  0.092-  47 1.59  53 1.91  18 2.56
  80  0.865  0.005  0.436-  54 1.49  17 2.47
  81  0.467  0.201  0.997-  53 1.56  26 2.33  25 2.54
  82  0.489  0.244  0.222-  53 1.80  49 1.81
  83  0.431  0.912  0.961-  38 1.67  25 2.13  24 2.30
  84  0.629  0.903  0.994-  40 1.79   1 2.16   3 2.37
  85  0.316  0.300  0.305-  49 1.79   7 2.09  20 2.46
  86  0.680  0.818  0.186-  33 1.60  40 1.64
  87  0.401  0.407  0.022-  47 1.77   8 1.92
  88  0.649  0.157  0.157-  53 1.69  27 2.24  12 2.36
  89  0.385  0.013  0.423-  28 1.75  16 2.43   7 2.55
  90  0.207  0.795  0.402-  42 1.64  16 2.34   9 2.36
  91  0.936  0.661  0.452-  35 1.63  37 1.64
  92  0.038  0.059  0.071-  48 1.63  44 1.85
  93  0.446  0.374  0.545-  46 1.58   2 2.28  14 2.28
  94  0.717  0.190  0.652-  34 1.52   4 2.32  14 2.35
[...]
 121  0.959  0.089  0.272-  48 1.62  54 1.77
 122  0.837  0.572  0.044-  36 1.67   6 2.29  11 2.48
 123  0.855  0.786  0.111-  33 1.73   6 2.00
 124  0.510  0.947  0.632-  28 1.80  24 2.24   4 2.31
 125  0.450  0.074  0.791-  52 1.76   4 2.21  24 2.38
 126  0.393  0.812  0.504-  28 1.74  41 1.84  16 2.56
 127  0.917  0.997  0.925-  44 1.48   1 2.07
 128  0.128  0.383  0.225-  51 1.47  43 1.67  20 2.23
 129  0.541  0.523  0.157-  50 1.62  47 1.81
 130  0.405  0.598  0.308-  50 1.60  20 2.46
 131  0.773  0.975  0.241-  54 1.66  33 1.67
 132  0.047  0.155  0.696-  30 1.59  17 2.23  23 2.54
 133  0.369  0.442  0.711-  46 1.64   5 2.21
 134  0.824  0.765  0.805-  29 2.08  19 2.23   1 2.41
 135  0.551  0.520  0.935-  47 1.64

IMPORTANT INFORMATION: All symmetrisations will be switched off!
NOSYMM: (Re-)initialisation of all symmetry stuff for point group C_1.

Automatic generation of k-mesh.
 generate k-points for:    2    2    2
Space group operators:
 irot       det(A)        alpha          n_x          n_y          n_z        tau_x        tau_y        tau_z
    1     1.000000     0.000001     1.000000     0.000000     0.000000     0.000000     0.000000     0.000000

 Subroutine IBZKPT returns following result:

 Found      8 irreducible k-points:

 Following reciprocal coordinates:
            Coordinates               Weight
  0.000000  0.000000  0.000000      1.000000
  0.500000  0.000000  0.000000      1.000000
  0.000000  0.500000  0.000000      1.000000
  0.500000  0.500000  0.000000      1.000000
  0.000000  0.000000  0.500000      1.000000
  0.500000  0.000000  0.500000      1.000000
  0.000000  0.500000  0.500000      1.000000
  0.500000  0.500000  0.500000      1.000000

 Following cartesian coordinates:
            Coordinates               Weight
  0.000000  0.000000  0.000000      1.000000
  0.039917  0.000000  0.000000      1.000000
  0.000000  0.039917  0.000000      1.000000
  0.039917  0.039917  0.000000      1.000000
  0.000000  0.000000  0.039917      1.000000
  0.039917  0.000000  0.039917      1.000000
  0.000000  0.039917  0.039917      1.000000
  0.039917  0.039917  0.039917      1.000000

 SYSTEM =  unknown system
 POSCAR =  Ca Si  O

 Startparameter for this run:
   NWRITE =      2    write-flag & timer
   PREC   = a         normal or accurate (medium, high low for compatibility)
   ISTART =      0    job   : 0-new  1-cont  2-samecut
   ICHARG =      2    charge: 1-file 2-atom 10-const
   ISPIN  =      1    spin polarized calculation?
   LNONCOLLINEAR =      F non collinear calculations
   LSORBIT =      F    spin-orbit coupling
   INIWAV =      1    electr: 0-lowe 1-rand  2-diag
   LASPH  =      F    aspherical Exc in radial PAW
   METAGGA=      F    non-selfconsistent MetaGGA calc.

 Electronic Relaxation 1
   ENCUT  =  600.0 eV  44.10 Ry    6.64 a.u.  25.02 25.02 25.02*2*pi/ulx,y,z
   ENINI  =  600.0     initial cutoff
   ENAUG  =  605.4 eV  augmentation charge cutoff
   NELM   =     60;   NELMIN=  2; NELMDL= -5     # of ELM steps
   EDIFF  = 0.1E-05   stopping-criterion for ELM
   LREAL  =      T    real-space projection
   NLSPLINE    = F    spline interpolate recip. space projectors
   LCOMPAT=      F    compatible to vasp.4.4
   GGA_COMPAT  = T    GGA compatible to vasp.4.4-vasp.4.6
   LMAXPAW     = -100 max onsite density
   LMAXMIX     =    2 max onsite mixed and CHGCAR
   VOSKOWN=      0    Vosko Wilk Nusair interpolation
   ROPT   =   -0.00025  -0.00025  -0.00025
 Ionic relaxation
   EDIFFG = -.1E-01   stopping-criterion for IOM
   NSW    =      1    number of steps for IOM
   NBLOCK =      1;   KBLOCK =      1    inner block; outer block
   IBRION =     -1    ionic relax: 0-MD 1-quasi-New 2-CG
   NFREE  =      0    steps in history (QN), initial steepest desc. (CG)
   ISIF   =      2    stress and relaxation
   IWAVPR =     10    prediction:  0-non 1-charg 2-wave 3-comb
   ISYM   =      0    0-nonsym 1-usesym 2-fastsym
   LCORR  =      T    Harris-Foulkes like correction to forces

   POTIM  = 1.0000    time-step for ionic-motion
   TEIN   =    0.0    initial temperature
   TEBEG  =    0.0;   TEEND  =   0.0 temperature during run
   SMASS  =  -3.00    Nose mass-parameter (am)
   estimated Nose-frequenzy (Omega)   =  0.10E-29 period in steps =****** mass=  -0.359E-26a.u.
   SCALEE = 1.0000    scale energy and forces
   NPACO  =    256;   APACO  = 16.0  distance and # of slots for P.C.
   PSTRESS=    0.0 pullay stress

  Mass of Ions in am
[...]
     0.000000000  0.000000000 12.526070000     0.000000000  0.000000000  0.079833499

  length of vectors
    12.526070000 12.526070000 12.526070000     0.079833499  0.079833499  0.079833499

 FORCES acting on ions
    electron-ion (+dipol)            ewald-force                    non-local-force                 convergence-correction
   -.561E+02 0.844E+02 -.846E+02   0.553E+02 -.805E+02 0.836E+02   0.158E+00 -.315E+01 0.795E+00   -.395E-03 0.153E-03 -.537E-04
   -.199E+03 -.130E+03 -.713E+02   0.197E+03 0.130E+03 0.705E+02   0.223E+01 0.731E+00 0.118E+01   -.966E-03 -.640E-04 -.715E-03
   0.452E+02 0.227E+03 0.782E+02   -.466E+02 -.227E+03 -.765E+02   0.147E+01 -.159E+01 -.182E+01   0.538E-03 0.635E-03 0.551E-03
   0.535E+02 -.542E+02 0.108E+03   -.556E+02 0.501E+02 -.110E+03   0.187E+01 0.323E+01 0.887E+00   0.212E-03 -.553E-03 0.143E-03
   -.986E+02 -.491E+02 -.601E+02   0.967E+02 0.514E+02 0.605E+02   0.168E+01 -.172E+01 0.405E+00   -.953E-03 -.192E-04 0.218E-03
   -.155E+03 0.718E+01 0.508E+02   0.152E+03 -.116E+02 -.511E+02   0.395E+01 0.212E+01 -.227E+01   -.713E-03 -.731E-03 0.245E-03
   0.183E+02 0.129E+03 -.626E+02   -.189E+02 -.127E+03 0.663E+02   0.816E+00 -.321E+01 -.237E+01   -.629E-03 0.443E-03 0.412E-03
   0.409E+02 0.513E+02 0.536E+02   -.426E+02 -.452E+02 -.507E+02   -.147E+01 -.550E+01 -.534E+01   -.796E-03 0.381E-03 0.920E-03
   -.594E+02 -.145E+03 -.145E+03   0.614E+02 0.141E+03 0.143E+03   -.139E+01 0.371E+01 0.263E+01   0.274E-03 0.502E-03 -.589E-03
   -.884E+02 0.131E+03 -.106E+03   0.898E+02 -.133E+03 0.109E+03   0.212E+01 -.258E-01 -.198E+01   -.108E-03 0.779E-03 -.219E-03
   0.434E+02 -.135E+03 -.138E+02   -.423E+02 0.136E+03 0.176E+02   -.506E+00 -.839E-01 -.253E+01   0.766E-03 -.326E-03 0.868E-03
   0.572E+02 -.541E+01 -.120E+03   -.558E+02 0.412E+01 0.120E+03   -.598E-01 0.298E+01 0.206E+01   0.179E-03 -.159E-03 -.569E-04
   0.411E+02 0.694E+02 0.382E+02   -.352E+02 -.696E+02 -.364E+02   -.502E+01 -.800E+00 0.101E+01   0.531E-03 -.167E-03 0.841E-03
   -.115E+03 0.255E+02 -.781E+02   0.113E+03 -.244E+02 0.805E+02   0.352E+01 -.295E+00 0.283E+01   0.413E-03 -.334E-03 -.692E-03
   -.196E+03 0.660E+02 -.376E+02   0.190E+03 -.624E+02 0.365E+02   0.401E+01 -.320E+01 -.331E+00   -.722E-03 0.946E-03 0.611E-03
   0.348E+02 0.119E+02 0.715E+00   -.368E+02 -.126E+02 -.142E+00   0.132E+01 -.473E+00 -.944E+00   -.269E-03 0.276E-03 0.211E-04
   -.332E+02 0.169E+03 0.291E+03   0.321E+02 -.172E+03 -.288E+03   -.431E+00 0.192E+01 -.506E+01   -.917E-04 0.719E-03 -.237E-03
   -.211E+03 -.180E+03 -.303E+02   0.214E+03 0.178E+03 0.316E+02   -.183E+00 0.181E+01 -.185E+01   0.127E-02 -.771E-03 -.770E-04
   0.127E+03 0.627E+02 0.208E+03   -.125E+03 -.578E+02 -.202E+03   -.688E+00 -.424E+01 -.545E+01   0.107E-02 0.373E-03 0.560E-03
   -.964E+02 -.633E+02 0.161E+02   0.948E+02 0.672E+02 -.185E+02   0.230E+01 -.167E+01 0.172E+01   -.102E-02 -.352E-03 -.198E-03
   -.453E+02 -.118E+03 -.402E+02   0.462E+02 0.115E+03 0.364E+02   -.743E+00 0.263E+01 0.336E+01   -.210E-03 -.817E-03 -.135E-03
   -.485E+02 0.672E+02 0.620E+02   0.477E+02 -.597E+02 -.625E+02   0.867E+00 -.689E+01 0.277E+00   -.848E-03 -.462E-03 -.358E-03
   -.627E+02 0.906E+02 0.598E+02   0.609E+02 -.967E+02 -.596E+02   0.539E+00 0.290E+01 -.640E+00   -.409E-03 -.197E-03 -.696E-03
   0.168E+03 0.536E+02 -.398E+02   -.164E+03 -.537E+02 0.368E+02   -.318E+01 -.215E+00 0.268E+01   0.675E-03 0.244E-03 -.250E-03
   0.132E+03 -.327E+02 -.165E+03   -.125E+03 0.310E+02 0.159E+03   -.581E+01 0.206E+01 0.447E+01   0.282E-03 0.273E-03 0.400E-03
   0.141E+02 -.499E+02 -.236E+02   -.140E+02 0.495E+02 0.207E+02   0.435E-01 0.713E+00 0.199E+01   -.208E-03 -.310E-03 0.377E-03
   -.413E+02 0.413E+02 -.439E+02   0.386E+02 -.380E+02 0.407E+02   0.277E+01 -.246E+01 0.246E+01   0.480E-03 0.782E-03 0.426E-03
   0.549E+02 -.390E+02 -.527E+02   -.508E+02 0.396E+02 0.532E+02   -.634E+01 0.835E+00 0.499E+01   -.320E-04 0.144E-03 -.515E-04
   -.353E+02 0.958E+02 0.968E+02   0.297E+02 -.907E+02 -.970E+02   0.764E+01 -.978E+01 -.330E+01   -.950E-04 0.217E-03 0.701E-04
   -.710E+02 0.942E+02 0.467E+02   0.656E+02 -.878E+02 -.507E+02   0.801E+01 -.443E+01 0.396E+01   -.306E-03 0.440E-03 -.260E-03
   0.552E+02 -.627E+02 -.231E+01   -.562E+02 0.716E+02 -.561E+01   -.235E+00 -.755E+01 0.366E+01   0.343E-03 -.971E-04 0.234E-03
   -.233E+02 0.912E+01 0.286E+02   0.174E+02 -.142E+02 -.165E+02   0.120E+02 0.399E+01 -.966E+01   0.281E-03 -.111E-03 0.264E-03
   -.758E+02 -.350E+02 0.712E+01   0.702E+02 0.283E+02 -.945E+01   0.548E+01 0.662E+01 -.460E+01   0.846E-04 0.102E-03 -.127E-03
   0.305E+02 -.430E+02 0.135E+03   -.325E+02 0.414E+02 -.126E+03   0.463E+01 0.676E+01 -.750E+01   0.297E-03 -.134E-03 -.181E-03
   -.518E+02 -.182E+02 0.473E+02   0.411E+02 0.273E+02 -.394E+02   0.928E+01 -.116E+02 -.485E+01   0.127E-03 -.171E-03 -.154E-03
   0.116E+03 -.365E+02 -.761E+02   -.109E+03 0.308E+02 0.677E+02   -.994E+01 0.490E+01 0.718E+01   0.195E-03 -.482E-03 -.136E-03
   -.605E+02 0.175E+02 -.268E+02   0.522E+02 -.211E+02 0.258E+02   0.912E+01 0.344E+01 0.685E+00   0.175E-03 -.194E-03 -.116E-03
   0.669E+01 0.924E+02 -.123E+02   -.146E+02 -.875E+02 0.700E+01   0.473E+01 -.570E+01 0.505E+01   -.148E-04 0.650E-04 0.198E-03
   0.207E+01 -.256E+02 0.158E+02   0.128E+01 0.307E+02 -.477E+01   -.295E+01 0.316E+00 -.772E+01   -.256E-04 -.477E-04 0.245E-03
   0.494E+02 -.607E+02 0.163E+01   -.463E+02 0.550E+02 -.218E+01   -.306E+01 0.738E+01 -.342E+00   -.217E-04 0.254E-03 -.569E-04
   0.330E+02 -.343E+02 0.444E+02   -.328E+02 0.305E+02 -.385E+02   -.105E-01 0.609E+01 -.856E+01   -.842E-04 0.288E-04 -.845E-04
   0.802E+02 -.169E+02 -.369E+01   -.644E+02 0.147E+02 0.187E+01   -.133E+02 0.504E+01 0.168E+01   0.125E-03 -.316E-04 -.137E-03
   -.111E+02 0.774E+02 -.376E+02   0.585E+01 -.682E+02 0.458E+02   0.489E+01 -.738E+01 -.794E+01   -.149E-03 0.780E-04 0.137E-03
   -.106E+03 0.365E+02 0.927E+01   0.903E+02 -.417E+02 -.117E+02   0.218E+02 0.342E+01 0.357E+01   -.263E-03 0.192E-03 0.150E-03
   0.269E+02 0.142E+02 0.621E+02   -.357E+02 -.539E+01 -.603E+02   0.498E+01 -.967E+01 -.614E+01   0.307E-03 -.311E-03 -.429E-03
   0.558E+02 0.113E+02 0.139E+02   -.525E+02 -.116E+02 -.156E+02   -.249E+01 0.107E+00 0.321E+01   -.382E-03 -.130E-04 -.119E-03
   -.169E+02 -.627E+02 0.633E+01   0.159E+02 0.638E+02 -.991E+01   -.300E+01 0.401E+01 0.507E+01   -.204E-03 -.999E-04 -.116E-04
   -.323E+02 0.369E+02 0.617E+01   0.344E+02 -.395E+02 -.785E+00   -.141E+01 -.113E+01 -.464E+01   0.348E-04 0.292E-03 0.197E-03
   0.132E+03 -.905E+01 -.341E+02   -.124E+03 0.609E+01 0.330E+02   -.103E+02 -.566E+01 0.889E+00   -.414E-03 -.285E-03 -.186E-04
   -.920E+02 -.772E+02 0.224E+02   0.796E+02 0.783E+02 -.208E+02   0.117E+02 0.753E-01 -.575E+00   -.318E-03 0.222E-03 0.699E-04
   -.279E+02 -.591E+02 0.656E+02   0.264E+02 0.538E+02 -.623E+02   -.108E+01 0.118E+02 -.107E+02   -.925E-04 -.164E-03 -.590E-04
   -.755E+01 0.259E+02 0.737E+02   0.376E+01 -.302E+02 -.647E+02   0.540E+01 0.517E+01 -.761E+01   0.518E-04 0.364E-04 0.694E-04
   0.317E+02 0.522E+02 0.405E+02   -.333E+02 -.533E+02 -.420E+02   0.454E+01 0.412E+01 0.637E+01   0.153E-03 -.134E-03 0.122E-03
   -.386E+02 0.103E+02 -.249E+02   0.352E+02 -.877E+01 0.369E+02   0.259E+01 0.346E+01 -.143E+02   -.559E-04 0.376E-03 -.166E-04
   -.511E+02 -.121E+03 -.480E+02   0.719E+02 0.130E+03 0.519E+02   -.196E+02 -.487E+01 -.300E+01   -.293E-03 -.426E-03 -.584E-04
   -.331E+02 -.407E+02 -.138E+03   0.207E+02 0.615E+02 0.144E+03   0.125E+02 -.213E+02 -.676E+01   0.256E-03 0.427E-03 -.167E-03
   0.789E+01 0.680E+02 0.124E+03   -.851E+01 -.777E+02 -.145E+03   0.665E+00 0.101E+02 0.225E+02   0.718E-05 0.622E-03 -.186E-03
   -.517E+02 0.506E+02 -.352E+02   0.354E+02 -.716E+02 0.288E+02   0.171E+02 0.206E+02 0.475E+01   -.258E-03 0.301E-04 0.307E-03
   -.169E+03 0.804E+02 0.144E+02   0.199E+03 -.794E+02 -.455E+01   -.293E+02 -.302E+01 -.936E+01   -.276E-03 0.606E-03 -.101E-03
   -.501E+02 0.123E+03 0.195E+03   0.512E+02 -.127E+03 -.218E+03   0.279E+00 0.132E+01 0.232E+02   0.180E-04 0.427E-03 -.324E-03
[...]
   0.137E+03 -.304E+02 0.962E+01   -.147E+03 0.363E+02 -.297E+02   0.950E+01 -.540E+01 0.205E+02   0.446E-03 -.207E-03 0.274E-04
   -.358E+02 -.303E+02 -.218E+02   0.406E+02 0.197E+02 0.105E+02   -.534E+01 0.140E+02 0.141E+02   -.170E-03 -.264E-03 -.914E-05
   0.322E+02 -.302E+02 0.136E+03   -.249E+02 0.289E+02 -.121E+03   -.890E+01 0.218E+01 -.188E+02   0.838E-04 -.902E-04 -.120E-04
   0.511E+02 0.780E+00 -.249E+02   -.356E+02 -.700E+01 0.322E+02   -.193E+02 0.696E+01 -.705E+01   0.221E-03 -.157E-03 -.154E-04
   0.417E+02 0.116E+02 0.149E+02   -.520E+02 -.229E+02 -.262E+02   0.118E+02 0.124E+02 0.113E+02   -.838E-04 0.232E-03 -.238E-03
   -.372E+02 0.338E+02 -.768E+01   0.254E+01 -.236E+02 0.138E+01   0.320E+02 -.958E+01 0.512E+01   -.428E-03 0.467E-03 -.491E-04
   -.572E+02 0.170E+02 -.629E+02   0.753E+02 -.171E+02 0.819E+02   -.147E+02 -.234E+01 -.122E+02   -.423E-03 -.961E-04 0.649E-04
   -.541E+02 -.121E+03 0.568E+02   0.565E+02 0.121E+03 -.684E+02   -.177E+01 0.278E+00 0.100E+02   -.248E-03 -.794E-04 -.289E-04
   0.518E+02 -.992E+02 -.946E+01   -.791E+02 0.113E+03 0.171E+02   0.261E+02 -.146E+02 -.762E+01   -.515E-03 0.145E-03 -.130E-03
   -.112E+02 0.400E+01 0.248E+02   -.102E+02 0.652E+01 -.389E+02   0.230E+02 -.110E+02 0.139E+02   -.930E-04 0.211E-03 0.172E-03
   -.112E+03 -.341E+02 0.797E+02   0.971E+02 0.601E+02 -.806E+02   0.169E+02 -.255E+02 -.128E+00   -.289E-03 0.635E-03 -.206E-03
   0.153E+02 -.504E+02 -.383E+02   -.149E+02 0.701E+02 0.490E+02   -.150E+01 -.209E+02 -.100E+02   -.453E-03 0.113E-03 -.456E-05
   -.569E+02 0.408E+02 0.164E+02   0.659E+02 -.464E+02 -.131E+02   -.107E+02 0.722E+01 -.318E+01   0.163E-03 -.289E-04 0.424E-03
   -.500E+02 -.130E+03 0.496E+02   0.527E+02 0.147E+03 -.709E+02   -.186E+01 -.183E+02 0.219E+02   -.148E-03 -.974E-04 0.391E-03
   -.141E+03 0.491E+02 0.174E+03   -.512E-12 0.654E-12 -.256E-12   0.141E+03 -.491E+02 -.174E+03   -.164E-02 0.142E-02 0.229E-02

 POSITION                                       TOTAL-FORCE (eV/Angst)
      9.66127     11.56847     11.26777        -0.633007      0.821459     -0.218405
      6.29732      6.82897      6.53114        -0.119965      1.106954      0.401015
      8.29851      8.98806     12.20191         0.043234     -1.704523     -0.191563
      7.72071      0.71981      9.20654        -0.237752     -0.835451     -0.503230
      4.98112      7.41339     10.01940        -0.223771      0.506123      0.786214
     11.65610      8.99851     12.36953         0.922739     -2.323196     -2.494756
      3.59142      1.69711      3.68335         0.233069     -1.174299      1.300059
      3.42291      5.15220     11.74607        -3.182065      0.605329     -2.495443
      0.63725     11.19510      5.50070         0.581177     -0.074167      0.697257
      8.01244      9.97212      5.02318         3.532509     -2.425247      0.692550
     11.15511      5.11933     11.85597         0.616454      0.999240      1.263513
      7.09717      0.84990      3.77016         1.272536      1.691493      1.677787
      1.87671     10.35384      1.45919         0.834651     -1.036853      2.806369
      7.51851      3.46804      6.68284         1.781574      0.762338      5.265916
      0.94489      2.73271     11.65376        -1.077547      0.323385     -1.487457
      4.46069     10.75901      3.86961        -0.691394     -1.119352     -0.371352
     11.54832      0.68205      7.75233        -1.511488     -1.605067     -1.448075
      8.43111      4.01133      3.55310         2.812052     -0.056276     -0.478470
     10.10235      7.95820      8.57407         0.999139      0.650693     -0.121121
      3.52473      5.92530      2.75345         0.763202      2.269512     -0.659060
      1.24598      9.45754      9.52626         0.194401     -0.587922     -0.396261
      3.02797      6.09738      6.39100         0.067008      0.525169     -0.243850
      1.30014      4.26159      7.97262        -1.211027     -3.236583     -0.467919
      5.38780     11.08484      9.75961         0.606690     -0.302383     -0.280276
      4.16692      0.62238     12.29239         1.132551      0.364788     -1.008476
      6.37322      3.87050     10.65545         0.169327      0.321964     -0.934795
     10.31929      2.00692      1.47747         0.043921      0.905571     -0.778145
      5.86750     11.63114      6.21940        -2.244327      1.438970      5.465914
      9.14243     10.71602      8.81455         2.038325     -4.663048     -3.507485
      1.42127      0.60364      8.95230         2.611634      1.996179     -0.043341
      9.17151      5.16420      9.90525        -1.251952      1.360695     -4.264721
      9.87206      2.42666     10.64563         6.146430     -1.068111      2.389478
     10.01350     10.59475      2.78299        -0.104327     -0.076792     -6.936660
     10.34053      3.04714      8.09984         2.582468      5.149182      1.975140
      0.26536      7.61421      6.69927        -1.401130     -2.498794      3.076253
     10.99724      6.52475      2.00681        -2.705459     -0.750068     -1.164034
     11.59701      8.79825      4.11503         0.876562     -0.146768     -0.323759
      5.04438      9.96381      0.25457        -3.126976     -0.725827     -0.223241
      0.99506      6.30947      9.81757         0.397638      5.393634      3.361462
      7.22772     10.88821      1.54213        -0.007071      1.639625     -0.893477
      4.42017      9.24949      7.82754         0.129540      2.342889     -2.684904
      2.02624      8.73216      4.11352         2.501088      2.837273     -0.139232
      0.85015      3.75638      3.89689        -0.327925      1.796623      0.284482
      0.40817     12.28600     11.85179         5.750652     -1.755485      1.100759
     11.38888      4.70526      5.84477        -3.739183     -0.900210     -4.398233
      4.63580      4.17804      7.97900         0.860449     -0.142656      1.566000
      6.73064      5.52163      0.48438        -3.978726      5.155972      1.493395
      0.80105      1.01869      2.46722         0.708447     -3.714296      0.752714
      5.66832      4.22521      4.07706        -2.107942     -8.614921     -0.223346
      6.57093      7.09530      3.48085        -0.747802      1.174802      1.015571
      1.12467      5.30669      1.52776        -2.548926      6.546345     -7.399264
      4.22167      1.76022      9.30476         1.604084      0.782091      1.388838
      6.82345      2.68008      1.16350         2.898909      3.011122      4.793922
     10.48535      0.61592      4.13139        -0.850891      5.013910     -2.247243
      6.62004      5.42656      4.01356         1.212450      3.718394      0.990010
      9.51779      1.93632      4.23840         0.114430     -0.419401     -0.758070
      9.11659      9.76266      7.40885         0.045251      0.430145      1.582902
      0.44354      4.08052      0.77805         0.894446     -0.397329     -1.656087
      5.80599      9.12277      8.63045         0.288368     -1.956356      0.458239
      2.98184      1.02068      8.50967         1.473818     -1.891930      0.061872
[...]
     12.01500      1.11934      3.40756        -3.124318     -1.768591     -0.536238
     10.47927      7.16281      0.55558        -0.438053      0.491705      0.484072
     10.70699      9.84685      1.39104        -0.536104      3.443787      2.742344
      6.39255     11.86322      7.92057        -1.545335      0.906050     -4.572845
      5.63984      0.92247      9.91203        -3.853935      0.739546      0.260208
      4.92027     10.17025      6.31793         1.470380      1.110781     -0.033013
     11.49171     12.48658     11.58891        -2.648548      0.655037     -1.180383
      1.60162      4.79232      2.82265         3.327715     -2.447356      6.685711
      6.77322      6.54860      1.96889         0.647845      0.870961     -1.612518
      5.06988      7.49343      3.85404        -1.223308     -1.015747      0.020861
      9.68464     12.21334      3.01710         1.682165     -0.514570     -0.194520
      0.59105      1.94067      8.71583         2.189032      0.558755     -0.994000
      4.62114      5.53694      8.90535        -1.155652     -1.170134      0.676974
     10.32642      9.57641     10.08530        -1.719331      1.597544      0.168993
      6.89594      6.51213     11.71683         0.848197     -1.016264      0.529150
    total drift:                               -0.001464      0.007925      0.014072

  FREE ENERGIE OF THE ION-ELECTRON SYSTEM (eV)
  free  energy   TOTEN  =      -931.62984004 eV

  energy  without entropy=     -931.62984004  energy(sigma->0) =     -931.62984004