 vasp.5.4.4.18Apr17-6-g9f103f2a35 (build Oct 31 2019 15:01:46) complex

 executed on             LinuxIFC date 2024.04.29  20:35:23

 INCAR:
 POTCAR:    PAW_PBE Ca_sv 06Sep2000
 POTCAR:    PAW_PBE Si 05Jan2001
 POTCAR:    PAW_PBE O 08Apr2002
 POTCAR:    PAW_PBE Ca_sv 06Sep2000
   VRHFIN =Ca: 3s3p4s

   TITEL  = PAW_PBE Ca_sv 06Sep2000
   POMASS =   40.078; ZVAL   =   10.000    mass and valenz
   ENMAX  =  266.622; ENMIN  =  199.967 eV

   TITEL  = PAW_PBE Si 05Jan2001
   POMASS =   28.085; ZVAL   =    4.000    mass and valenz
   ENMAX  =  245.345; ENMIN  =  184.009 eV

   TITEL  = PAW_PBE O 08Apr2002
   POMASS =   16.000; ZVAL   =    6.000    mass and valenz
   ENMAX  =  400.000; ENMIN  =  300.000 eV

 Optimization of the real space projectors (new method)

 maximal supplied QI-value         = 16.25
 optimisation between [QCUT,QGAM] = [ 12.51, 25.03] = [ 43.85,175.40] Ry
 Optimized for a Real-space Cutoff    1.47 Angstroem

   l    n(q)    QCUT    max X(q) W(low)/X(q) W(high)/X(q)  e(spline)
   0     11    12.514    11.817    0.25E-04    0.32E-05    0.87E-07
   0     11    12.514     8.461    0.39E-04    0.59E-05    0.18E-06
   1     11    12.514     3.957    0.97E-05    0.57E-05    0.28E-07
   1     11    12.514     4.314    0.42E-04    0.14E-04    0.23E-06
   2     10    12.514    14.565    0.79E-04    0.50E-03    0.16E-05
   2     10    12.514    14.552    0.75E-04    0.48E-03    0.15E-05
 Optimization of the real space projectors (new method)

[...]

   l    n(q)    QCUT    max X(q) W(low)/X(q) W(high)/X(q)  e(spline)
   0      9    12.501   159.560    0.10E-03    0.83E-04    0.71E-07
   0      9    12.501   115.863    0.99E-04    0.81E-04    0.70E-07
   1      8    12.501    88.339    0.20E-03    0.25E-03    0.76E-07
   1      8    12.501    48.592    0.20E-03    0.24E-03    0.75E-07
 Optimization of the real space projectors (new method)

 maximal supplied QI-value         = 24.76
 optimisation between [QCUT,QGAM] = [ 12.38, 25.00] = [ 42.90,175.06] Ry
 Optimized for a Real-space Cutoff    1.16 Angstroem

   l    n(q)    QCUT    max X(q) W(low)/X(q) W(high)/X(q)  e(spline)
   0      9    12.378    20.381    0.16E-03    0.67E-05    0.31E-06
   0      9    12.378    15.268    0.17E-03    0.81E-05    0.33E-06
   1      8    12.378     5.964    0.20E-03    0.16E-03    0.30E-06
   1      8    12.378     5.382    0.18E-03    0.14E-03    0.26E-06
  PAW_PBE Ca_sv 06Sep2000               :
  PAW_PBE Si 05Jan2001                  :
  PAW_PBE O 08Apr2002                   :

 POSCAR: Ca Si  O
  positions in direct lattice
 exchange correlation table for  LEXCH =        8
   RHO(1)=    0.500       N(1)  =     2000
   RHO(2)=  100.500       N(2)  =     4000

 ion  position               nearest neighbor table
   1  0.948  0.566  0.683-  97 2.09  69 2.19  89 2.41  81 2.44  68 2.48  10 3.04
   2  0.475  0.605  0.388-  66 2.28 120 2.46 127 2.53
   3  0.098  0.716  0.468-  69 2.12  76 2.13  81 2.32  82 2.57  33 2.72
   4  0.185  0.023  0.233-  56 2.06 121 2.33 123 2.54  39 3.02
   5  0.673  0.033  0.517- 135 2.25 106 2.52 103 2.57  17 2.97
   6  0.627  0.413  0.244- 117 2.15 105 2.27 120 2.30  78 2.46  66 2.54  28 2.97  41 3.08
   7  0.589  0.129  0.822-  88 2.03 102 2.30  92 2.43  95 2.51  31 2.66  16 2.87  51 2.98
   8  0.951  0.293  0.678-  97 1.99
   9  0.978  0.711  0.167-  83 1.83 109 2.41  27 2.72
  10  0.991  0.800  0.731- 114 1.97  81 2.17  44 2.96   1 3.04
  11  0.016  0.953  0.029- 108 1.95 121 2.50
  12  0.512  0.671  0.915-  72 1.89 100 1.93 125 2.15 115 2.46  15 2.80  52 2.99  40 3.00
  13  0.336  0.904  0.466- 130 2.16
  14  0.806  0.572  0.908-  89 2.25 107 2.27  83 2.52  41 3.12
  15  0.523  0.886  0.855-  95 2.08  72 2.25  92 2.37 133 2.51  12 2.80  23 2.91  30 2.95
  16  0.613  0.183  0.043- 119 1.84 105 1.94 126 2.12   7 2.87  41 2.93
  17  0.592  0.045  0.294- 126 1.98  77 2.13  22 2.75  34 2.81   5 2.97  39 3.11
  18  0.169  0.239  0.434-  93 2.01  87 2.53  37 2.81  53 3.16
  19  0.617  0.433  0.532- 127 2.12  68 2.45 117 2.50  55 2.51  31 2.95
  20  0.675  0.734  0.124- 104 1.94  72 2.23  91 2.44  34 2.77  22 3.02
  21  0.308  0.418  0.651-  94 1.99  61 2.15  87 2.17
  22  0.501  0.896  0.162-  65 2.18 104 2.40 113 2.44  17 2.75  34 2.88  20 3.02
  23  0.745  0.821  0.878-  72 2.04  91 2.25  85 2.43  51 2.86  15 2.91
  24  0.360  0.367  0.061-  58 2.20  98 2.29 110 2.41 116 2.55  40 2.98  26 3.17
  25  0.125  0.023  0.762- 108 2.42 114 2.55  29 2.64
  26  0.134  0.261  0.017- 110 2.03  56 2.20  99 2.22  47 2.79  24 3.17
  27  0.125  0.623  0.033-  71 2.15  75 2.20 122 2.33   9 2.72  54 3.09  40 3.09
  28  0.770  0.584  0.324- 109 1.60 101 1.67 120 1.69 117 2.09  49 2.88   6 2.97  45 3.11
  29  0.269  0.876  0.805-  63 1.49  74 1.63 133 1.81 108 2.40  25 2.64  54 2.65  35 3.06  32 3.12

  30  0.378  0.029  0.973- 129 1.70 113 1.74  95 1.75 116 2.02  15 2.95  54 2.98
  31  0.527  0.283  0.690-  94 1.52 102 1.54  67 1.73  84 2.42   7 2.66  19 2.95
  32  0.378  0.059  0.676-  84 1.50 133 1.65 134 1.70 106 1.71  29 3.12
  33  0.133  0.502  0.476-  87 1.53  96 1.60  69 1.60  90 1.94   3 2.72  36 3.01
  34  0.723  0.950  0.139- 104 1.48  91 1.60 119 1.79 111 1.83  20 2.77  17 2.81  22 2.88
  35  0.216  0.640  0.765-  61 1.66 118 1.73  71 2.04  74 2.08  81 2.15  43 2.70  29 3.06
  36  0.176  0.442  0.247-  64 1.65  90 1.69  75 1.69 110 1.76  53 2.68  33 3.01
  37  0.965  0.149  0.411-  93 1.51  62 1.64  59 1.71  57 2.02  80 2.46  18 2.81  50 2.88  46 2.99

  38  0.691  0.645  0.656- 124 1.46  89 1.77  68 1.82  45 2.83
  39  0.386  0.156  0.214- 123 1.66  60 1.83 126 1.86 116 1.92   4 3.02  17 3.11
  40  0.365  0.603  0.091-  86 1.76  98 1.76 132 1.80 100 1.86  24 2.98  12 3.00  54 3.08  27 3.09
                            42 3.10
  41  0.758  0.367  0.041- 105 1.54 107 1.59  78 1.72  73 2.12  16 2.93   6 3.08  14 3.12
  42  0.265  0.772  0.242-  82 1.60  86 1.62  65 1.71 122 1.73  54 2.98  40 3.10
  43  0.392  0.668  0.644- 115 1.58  61 1.61 130 1.73 127 2.19  35 2.70
  44  0.939  0.925  0.538- 114 1.56 131 1.70 103 1.71  57 1.80  76 2.18  46 2.70  45 2.94  10 2.96

  45  0.769  0.773  0.487- 101 1.52 131 1.60 124 1.70 135 1.71  38 2.83  44 2.94  28 3.11
  46  0.927  0.930  0.322-  57 1.58 111 1.66 121 1.82  76 1.86  44 2.70  37 2.99
  47  0.097  0.415  0.860-  99 1.69  70 1.77 118 1.80  97 1.82  26 2.79
  48  0.840  0.144  0.904- 128 1.71  73 1.77  79 1.78  88 1.92  51 2.61
  49  0.900  0.398  0.361-  80 1.42 112 1.83 117 2.06  90 2.49 109 2.53  50 2.69  28 2.88
  50  0.757  0.238  0.373-  77 1.72  59 1.76  55 1.79  80 2.11 117 2.40  49 2.69  37 2.88
  51  0.784  0.009  0.755-  79 1.65  92 1.72  85 1.90 103 1.92  88 1.95  48 2.61  23 2.86   7 2.98

  52  0.559  0.437  0.902-  58 1.48  67 1.58 125 1.72 107 1.97  12 2.99
  53  0.356  0.384  0.348-  66 1.65  60 1.67  64 1.78  36 2.68  18 3.16
  54  0.276  0.817  0.008- 113 1.56 122 1.71  63 1.83 100 2.09  71 2.29 108 2.47  29 2.65  30 2.98
                            42 2.98  40 3.08  27 3.09
  55  0.624  0.274  0.411-  50 1.79  19 2.51
  56  0.196  0.121  0.102-   4 2.06  26 2.20
  57  0.900  0.001  0.423-  46 1.58  44 1.80  37 2.02
  58  0.524  0.402  0.009-  52 1.48  24 2.20
  59  0.851  0.198  0.470-  37 1.71  50 1.76
  60  0.411  0.274  0.296-  53 1.67  39 1.83
  61  0.317  0.581  0.702-  43 1.61  35 1.66  21 2.15
  62  0.029  0.157  0.298-  37 1.64
  63  0.330  0.799  0.874-  29 1.49  54 1.83
  64  0.299  0.486  0.267-  36 1.65  53 1.78
  65  0.380  0.839  0.273-  42 1.71  22 2.18
  66  0.478  0.423  0.381-  53 1.65   2 2.28   6 2.54
  67  0.539  0.355  0.808-  52 1.58  31 1.73
  68  0.763  0.521  0.629-  38 1.82  19 2.45   1 2.48
  69  0.045  0.571  0.538-  33 1.60   3 2.12   1 2.19
  70  0.181  0.309  0.818-  47 1.77
  71  0.168  0.720  0.898-  35 2.04  27 2.15  54 2.29
  72  0.613  0.773  0.962-  12 1.89  23 2.04  20 2.23  15 2.25
  73  0.756  0.258  0.911-  48 1.77  41 2.12
  74  0.241  0.794  0.707-  29 1.63  35 2.08
  75  0.114  0.548  0.191-  36 1.69  27 2.20
  76  0.029  0.858  0.404-  46 1.86   3 2.13  44 2.18
  77  0.746  0.112  0.320-  50 1.72  17 2.13
  78  0.782  0.464  0.135-  41 1.72   6 2.46
  79  0.833  0.131  0.762-  51 1.65  48 1.78
  80  0.898  0.300  0.305-  49 1.42  50 2.11  37 2.46
  81  0.097  0.689  0.651-  35 2.15  10 2.17   3 2.32   1 2.44
  82  0.182  0.830  0.319-  42 1.60   3 2.57
  83  0.890  0.680  0.055-   9 1.83  14 2.52
  84  0.373  0.170  0.721-  32 1.50  31 2.42
  85  0.890  0.945  0.842-  51 1.90  23 2.43
  86  0.338  0.670  0.211-  42 1.62  40 1.76
  87  0.172  0.408  0.544-  33 1.53  21 2.17  18 2.53
  88  0.717  0.054  0.888-  48 1.92  51 1.95   7 2.03
  89  0.795  0.660  0.751-  38 1.77  14 2.25   1 2.41
  90  0.097  0.415  0.353-  36 1.69  33 1.94  49 2.49
  91  0.775  0.880  0.044-  34 1.60  23 2.25  20 2.44
  92  0.655  0.964  0.744-  51 1.72  15 2.37   7 2.43
  93  0.042  0.168  0.502-  37 1.51  18 2.01
  94  0.440  0.334  0.623-  31 1.52  21 1.99
  95  0.517  0.009  0.966-  30 1.75  15 2.08   7 2.51
  96  0.243  0.541  0.424-  33 1.60
  97  0.992  0.424  0.760-  47 1.82   8 1.99   1 2.09
  98  0.302  0.525  0.992-  40 1.76  24 2.29
  99  0.042  0.408  0.983-  47 1.69  26 2.22
 100  0.413  0.724  0.020-  40 1.86  12 1.93  54 2.09
 101  0.744  0.678  0.415-  45 1.52  28 1.67
 102  0.644  0.248  0.694-  31 1.54   7 2.30
 103  0.837  0.965  0.619-  44 1.71  51 1.92   5 2.57
 104  0.683  0.863  0.209-  34 1.48 111 1.93  20 1.94  22 2.40
 105  0.684  0.301  0.114-  41 1.54  16 1.94   6 2.27
 106  0.493  0.032  0.606-  32 1.71   5 2.52
 107  0.711  0.420  0.936-  41 1.59  52 1.97  14 2.27
 108  0.132  0.925  0.929-  11 1.95  29 2.40  25 2.42  54 2.47
 109  0.889  0.581  0.276-  28 1.60   9 2.41  49 2.53
 110  0.186  0.349  0.143-  36 1.76  26 2.03  24 2.41
 111  0.822  0.921  0.242-  46 1.66  34 1.83 104 1.93
 112  0.950  0.405  0.499-  49 1.83
 113  0.347  0.914  0.044-  54 1.56  30 1.74  22 2.44
 114  0.028  0.909  0.623-  44 1.56  10 1.97  25 2.55
[...]
 121  0.034  0.916  0.225-  46 1.82   4 2.33  11 2.50
 122  0.208  0.768  0.116-  54 1.71  42 1.73  27 2.33
 123  0.364  0.073  0.315-  39 1.66   4 2.54
 124  0.691  0.743  0.594-  38 1.46  45 1.70
 125  0.609  0.549  0.841-  52 1.72  12 2.15
 126  0.523  0.119  0.172-  39 1.86  17 1.98  16 2.12
 127  0.500  0.546  0.580-  19 2.12  43 2.19   2 2.53
 128  0.972  0.136  0.938-  48 1.71
 129  0.293  0.090  0.887-  30 1.70
 130  0.375  0.751  0.534-  43 1.73  13 2.16
 131  0.892  0.803  0.504-  45 1.60  44 1.70
 132  0.495  0.587  0.148-  40 1.80
 133  0.376  0.938  0.730-  32 1.65  29 1.81  15 2.51
 134  0.291  0.077  0.573-  32 1.70
 135  0.673  0.865  0.454-  45 1.71   5 2.25

IMPORTANT INFORMATION: All symmetrisations will be switched off!
NOSYMM: (Re-)initialisation of all symmetry stuff for point group C_1.

Automatic generation of k-mesh.
 generate k-points for:    2    2    2
Space group operators:
 irot       det(A)        alpha          n_x          n_y          n_z        tau_x        tau_y        tau_z
    1     1.000000     0.000001     1.000000     0.000000     0.000000     0.000000     0.000000     0.000000

 Subroutine IBZKPT returns following result:

 Found      8 irreducible k-points:

 Following reciprocal coordinates:
[...]
     0.000000000  0.000000000 12.526070000     0.000000000  0.000000000  0.079833499

  length of vectors
    12.526070000 12.526070000 12.526070000     0.079833499  0.079833499  0.079833499

 FORCES acting on ions
    electron-ion (+dipol)            ewald-force                    non-local-force                 convergence-correction
   0.128E+03 0.753E+02 -.409E+02   -.126E+03 -.801E+02 0.364E+02   -.231E+01 0.435E+01 0.264E+01   -.381E-02 -.212E-02 0.443E-02
   0.200E+02 -.185E+03 -.984E+02   -.202E+02 0.181E+03 0.984E+02   -.472E+00 0.428E+01 -.364E+00   0.553E-03 0.748E-03 -.302E-03
   -.962E+02 -.870E+01 0.117E+03   0.946E+02 0.111E+02 -.116E+03   0.257E+01 -.685E+00 -.192E+01   0.965E-03 0.531E-02 -.513E-02
   0.360E+02 -.117E+03 -.151E+03   -.399E+02 0.119E+03 0.148E+03   0.264E+01 -.242E+01 0.409E+01   -.279E-03 0.209E-02 -.331E-02
   0.123E+03 -.147E+03 -.374E+02   -.123E+03 0.141E+03 0.406E+02   -.311E+00 0.549E+01 -.156E+01   -.732E-03 -.406E-03 -.591E-03
   0.638E+02 0.833E+02 0.411E+02   -.615E+02 -.811E+02 -.419E+02   -.381E+01 -.209E+01 -.647E+00   -.804E-03 -.327E-03 -.943E-03
   0.174E+03 -.208E+03 0.173E+03   -.168E+03 0.205E+03 -.176E+03   -.594E+01 0.304E+01 0.193E+01   -.106E-02 0.953E-03 0.688E-03
   0.176E+02 0.183E+03 -.179E+02   -.175E+02 -.179E+03 0.168E+02   -.856E+00 -.531E+01 -.108E+01   0.943E-03 -.215E-02 0.278E-02
   -.192E+02 -.282E+01 -.131E+03   0.143E+02 0.539E+00 0.134E+03   0.633E+01 0.292E+01 0.162E+01   0.180E-03 0.184E-02 -.554E-03
   0.821E+02 0.217E+02 -.188E+03   -.789E+02 -.194E+02 0.186E+03   -.374E+01 -.308E+01 0.484E+01   -.256E-02 0.342E-02 0.283E-02
   0.125E+03 -.130E+03 -.777E+02   -.125E+03 0.133E+03 0.770E+02   -.261E+01 -.141E+01 0.209E+01   0.137E-02 0.150E-02 0.193E-02
   0.141E+02 0.329E+03 0.159E+03   -.130E+02 -.331E+03 -.161E+03   -.259E+01 -.234E+01 -.189E+01   0.966E-04 -.580E-03 0.274E-03
   -.135E+02 -.145E+03 -.316E+02   0.145E+02 0.144E+03 0.331E+02   -.851E+00 0.200E+01 -.148E+01   0.464E-03 0.123E-02 -.116E-02
   -.207E+03 0.123E+03 -.473E+02   0.203E+03 -.125E+03 0.491E+02   0.329E+01 0.930E+00 -.474E+00   -.961E-04 -.692E-03 0.479E-03
   0.123E+02 -.236E+02 0.245E+03   -.119E+02 0.250E+02 -.247E+03   -.817E+00 -.229E+01 -.127E+01   -.476E-03 0.805E-03 0.603E-03
   0.791E+02 -.170E+03 0.908E+02   -.776E+02 0.170E+03 -.844E+02   -.572E+01 0.128E+01 -.982E+01   -.164E-02 0.496E-04 0.127E-03
   0.975E+02 0.761E+01 -.342E+03   -.928E+02 0.132E+01 0.339E+03   -.367E+01 -.802E+01 0.452E+01   -.116E-02 -.357E-03 -.814E-03
   -.213E+03 0.106E+03 -.331E+02   0.210E+03 -.104E+03 0.360E+02   0.535E+01 -.881E+00 -.297E+01   0.171E-02 -.187E-02 -.262E-03
   -.979E+02 0.108E+03 -.122E+03   0.973E+02 -.108E+03 0.121E+03   0.121E+01 -.181E+01 0.473E+00   -.127E-02 -.197E-03 0.616E-03
   -.972E+02 0.296E+03 -.123E+03   0.992E+02 -.297E+03 0.120E+03   -.767E+00 -.409E+01 0.110E+01   -.208E-03 0.627E-03 0.472E-03
   0.396E+02 0.183E+03 -.836E+02   -.413E+02 -.185E+03 0.807E+02   -.454E+00 0.130E+01 0.324E+01   0.136E-02 -.263E-02 0.168E-02
   0.321E+02 0.528E+01 -.180E+03   -.385E+02 -.861E+01 0.179E+03   0.389E+01 0.242E+01 -.936E+00   -.502E-03 0.913E-03 0.557E-03
   -.231E+03 0.104E+03 0.164E+03   0.234E+03 -.101E+03 -.159E+03   0.307E+00 -.246E+01 -.558E+01   0.225E-04 0.219E-03 0.780E-03
   0.544E+02 0.899E+02 0.792E+02   -.545E+02 -.877E+02 -.796E+02   -.377E+00 -.267E+01 0.776E+00   -.469E-03 -.262E-02 -.115E-02
   0.540E+02 -.306E+03 0.137E+03   -.540E+02 0.306E+03 -.135E+03   -.837E+00 0.199E+01 -.219E+01   0.112E-02 0.232E-02 0.969E-03
   0.184E+03 0.808E+02 0.997E+02   -.185E+03 -.826E+02 -.960E+02   0.580E-01 -.970E+00 -.461E+01   0.219E-02 -.321E-02 0.643E-03
   0.206E+03 0.179E+03 0.809E+02   -.203E+03 -.184E+03 -.820E+02   -.385E+01 0.196E+01 0.329E+00   -.215E-04 -.260E-03 -.140E-04
   -.616E+02 0.154E+02 -.203E+02   0.613E+02 -.114E+02 0.164E+02   -.269E+01 -.530E+01 0.458E+01   -.575E-03 0.352E-03 -.434E-03
   0.113E+03 -.151E+03 0.442E+02   -.106E+03 0.139E+03 -.479E+02   -.759E+01 0.145E+02 -.138E+01   0.214E-03 0.102E-02 0.639E-03
   0.673E+02 -.856E+02 0.119E+02   -.693E+02 0.897E+02 -.187E+02   0.748E+00 0.964E+00 0.765E+01   -.794E-03 0.124E-02 0.632E-03
   0.389E+02 0.388E+02 0.466E+02   -.347E+02 -.330E+02 -.520E+02   -.636E+01 -.512E+01 0.847E+01   -.523E-03 -.330E-04 0.420E-03
   0.450E+02 -.280E+02 0.553E+02   -.436E+02 0.380E+02 -.607E+02   -.180E+00 -.121E+02 -.211E+01   -.435E-03 0.673E-03 0.316E-03
   0.420E+02 -.110E+01 0.446E+02   -.323E+02 -.181E+01 -.366E+02   -.104E+02 0.617E+00 -.103E+02   0.181E-02 -.125E-02 -.101E-02
   -.638E+02 -.135E+03 0.380E+00   0.673E+02 0.124E+03 -.486E+01   0.508E+01 0.179E+02 -.110E+01   0.709E-04 -.762E-05 0.213E-03
   -.107E+01 0.255E+02 -.250E+02   -.348E+01 -.299E+02 0.243E+02   -.194E+01 0.770E+01 0.137E+01   0.128E-02 -.629E-03 0.146E-02
   0.611E+02 0.795E+02 0.399E+01   -.633E+02 -.742E+02 -.832E+01   -.110E+01 -.379E+01 0.323E-01   0.542E-03 -.702E-03 -.824E-03
   0.118E+02 0.230E+02 0.323E+02   0.603E+00 -.163E+02 -.293E+02   -.156E+02 -.694E+01 -.608E+01   0.527E-03 -.811E-03 -.293E-03
   0.109E+03 0.771E+02 -.185E+02   -.965E+02 -.721E+02 0.106E+02   -.873E+01 -.159E+02 0.133E+02   -.511E-03 0.790E-05 0.169E-03
   0.902E+02 -.575E+02 -.347E+02   -.857E+02 0.512E+02 0.406E+02   -.114E+01 0.611E+01 -.674E+01   -.715E-03 -.313E-03 -.121E-02
   0.376E+02 0.944E+02 0.218E+01   -.286E+02 -.934E+02 -.930E+00   -.378E+01 0.108E+01 0.276E+00   0.817E-04 -.178E-03 -.885E-04
   -.232E+03 0.210E+02 0.111E+02   0.217E+03 -.146E+02 -.476E+01   0.153E+02 -.364E+01 -.539E+01   -.127E-03 -.193E-03 -.369E-03
   0.458E+02 0.117E+02 -.800E+02   -.429E+02 -.844E+01 0.856E+02   -.561E+00 -.212E+01 -.466E+01   0.402E-04 0.752E-03 -.130E-03
   -.375E+02 0.328E+02 0.108E+03   0.434E+02 -.237E+02 -.102E+03   -.894E+00 -.608E+01 -.105E+02   0.758E-03 -.449E-04 -.206E-04
   -.453E+02 -.103E+03 0.218E+02   0.470E+02 0.977E+02 -.122E+02   -.350E+01 0.503E+01 -.114E+02   0.248E-03 0.511E-03 -.638E-03
   -.251E+01 -.428E+01 0.123E-01   -.249E+01 0.476E+01 -.507E+01   0.104E+00 0.513E+01 0.610E+01   -.570E-03 0.472E-03 -.349E-03
   -.159E+02 -.893E+01 0.438E+02   0.166E+02 0.960E+01 -.476E+02   0.427E+01 -.430E+01 -.271E+01   0.725E-03 -.233E-04 -.668E-03
   -.654E+01 0.465E+02 -.235E+02   0.426E+01 -.523E+02 0.254E+02   0.102E+01 0.490E+01 -.518E+01   0.325E-03 -.962E-03 0.554E-03
   -.123E+03 -.683E+02 -.750E+02   0.123E+03 0.725E+02 0.721E+02   -.167E+01 -.396E+01 0.139E+01   0.272E-03 0.178E-03 0.184E-03
   -.366E+02 -.114E+03 0.130E+02   0.361E+02 0.949E+02 -.109E+02   0.128E+01 0.296E+02 0.787E+01   -.569E-03 -.381E-03 -.124E-02
   -.958E+01 -.504E+02 0.423E+01   0.262E+01 0.389E+02 -.233E-01   0.526E+01 0.861E+01 -.321E+01   -.403E-03 -.401E-03 -.322E-03
   -.619E+02 -.257E+01 0.971E+02   0.613E+02 0.531E+01 -.917E+02   0.249E+01 -.466E+01 -.382E+01   0.140E-04 0.290E-03 0.259E-03
   0.468E+02 -.261E+02 0.655E+02   -.470E+02 0.214E+02 -.603E+02   0.785E+01 0.732E+01 -.105E+02   -.330E-03 -.429E-03 0.548E-04
   0.854E+02 0.796E+02 -.863E+02   -.790E+02 -.802E+02 0.864E+02   -.435E+01 0.224E+01 -.392E+00   -.113E-05 -.618E-03 -.196E-03
   0.112E+03 -.405E+01 0.367E+01   -.105E+03 0.660E+01 -.795E+00   -.756E+01 -.780E+01 -.640E+01   -.384E-04 0.703E-03 0.290E-03
   0.857E+02 0.105E+03 -.106E+03   -.108E+03 -.102E+03 0.110E+03   0.267E+02 -.545E+01 -.492E+01   -.605E-03 -.402E-03 -.992E-04
   0.950E+02 -.495E+02 0.197E+02   -.935E+02 0.518E+02 -.249E+02   -.186E+01 -.330E+01 0.591E+01   0.132E-02 -.192E-03 -.736E-03
   -.633E+01 -.107E+03 -.149E+02   -.133E+02 0.125E+03 0.245E+02   0.198E+02 -.146E+02 -.599E+01   0.620E-03 -.175E-03 -.650E-03
   0.474E+02 0.125E+02 -.290E+02   -.510E+02 -.216E+02 0.648E+02   0.306E+00 0.776E+01 -.312E+02   -.680E-03 -.817E-03 -.299E-03
   0.374E+02 -.479E+02 -.159E+03   -.409E+02 0.501E+02 0.185E+03   0.214E+01 -.163E+01 -.271E+02   -.199E-03 -.114E-02 -.184E-03
   0.327E+02 0.669E+02 -.869E+02   -.137E+02 -.728E+02 0.935E+02   -.207E+02 0.365E+01 -.102E+02   -.652E-03 -.681E-03 -.584E-03
[...]
   0.134E+03 -.423E+02 -.431E+02   -.152E+03 0.348E+02 0.457E+02   0.179E+02 0.951E+01 -.468E+01   0.265E-04 0.109E-02 0.512E-05
   0.456E+02 -.220E+02 -.204E+03   -.471E+02 0.873E+01 0.226E+03   0.579E+00 0.133E+02 -.246E+02   -.552E-03 0.575E-04 -.886E-03
   0.121E+03 -.444E+02 -.138E+02   -.137E+03 0.788E+02 0.807E+01   0.160E+02 -.294E+02 0.318E+01   -.708E-03 0.237E-03 -.253E-03
   -.244E+02 0.583E+02 0.151E+03   0.367E+02 -.464E+02 -.165E+03   -.136E+02 -.129E+02 0.145E+02   -.157E-03 -.623E-03 0.988E-04
   0.806E+02 -.871E+02 -.808E+02   -.706E+02 0.883E+02 0.715E+02   -.136E+02 -.127E+01 0.113E+02   -.127E-02 -.248E-04 -.707E-03
   0.802E+01 -.428E+02 -.561E+02   -.709E+01 0.362E+02 0.580E+02   -.233E+01 0.101E+02 -.123E+01   0.615E-04 -.109E-03 0.286E-03
   -.777E+02 -.119E+03 -.398E+02   0.101E+03 0.118E+03 0.444E+02   -.256E+02 0.315E+00 -.462E+01   0.114E-02 0.220E-03 0.358E-03
   0.121E+03 -.167E+03 0.801E+02   -.136E+03 0.185E+03 -.940E+02   0.164E+02 -.214E+02 0.155E+02   -.186E-03 0.118E-02 0.139E-02
   -.503E+02 -.127E+02 0.749E+02   0.495E+02 0.240E+02 -.890E+02   0.771E+00 -.143E+02 0.155E+02   0.117E-02 0.662E-03 -.643E-03
   0.127E+02 0.108E+03 0.143E+02   0.101E+02 -.123E+03 -.192E+02   -.241E+02 0.133E+02 0.662E+01   -.595E-03 0.130E-02 -.115E-02
   -.729E+02 0.802E+02 -.369E+02   0.911E+02 -.811E+02 0.473E+02   -.205E+02 -.559E+00 -.127E+02   0.639E-04 -.575E-04 -.108E-03
   0.151E+02 -.534E+02 0.146E+03   -.222E+01 0.350E+02 -.152E+03   -.147E+02 0.185E+02 0.743E+01   -.316E-03 0.107E-02 0.475E-03
   0.116E+03 -.937E+02 0.112E+03   -.128E+03 0.103E+03 -.129E+03   0.101E+02 -.110E+02 0.177E+02   -.355E-03 0.605E-03 0.104E-03
   0.158E+03 0.274E+01 0.353E+02   -.177E+03 0.443E+01 -.408E+02   0.213E+02 -.619E+01 0.500E+01   -.826E-03 0.703E-04 -.687E-03
   0.196E+03 -.501E+02 0.338E+02   -.102E-11 0.124E-12 0.682E-12   -.196E+03 0.501E+02 -.338E+02   -.160E-02 0.331E-02 0.210E-02

 POSITION                                       TOTAL-FORCE (eV/Angst)
     11.87991      7.08804      8.56071        -0.186403     -0.472381     -1.773758
      5.95435      7.57469      4.86562        -0.743566      0.586537     -0.397887
      1.23315      8.96993      5.86033         1.023730      1.748962     -0.220108
      2.32346      0.28476      2.92411        -1.252536     -0.597403      1.207519
      8.43346      0.41353      6.47376         0.078670     -0.774343      1.724326
      7.85529      5.17851      3.05939        -1.513155      0.035170     -1.482094
      7.38205      1.61626     10.29869        -0.352155     -0.061020     -1.006480
     11.91392      3.67452      8.49794        -0.772273     -1.573242     -2.151334
     12.25393      8.91051      2.09207         1.451544      0.638092      5.195366
     12.41475     10.02457      9.16078        -0.569693     -0.760349      2.472813
      0.20480     11.93163      0.36591        -3.000372      1.714314      1.384755
      6.41753      8.40123     11.45677        -1.469103     -4.507702     -4.029411
      4.21280     11.32607      5.83247         0.180136      0.944913      0.041169
     10.09465      7.16129     11.37187        -0.554131     -1.184431      1.311989
      6.54791     11.09478     10.71055        -0.477744     -0.921591     -2.877631
      7.67814      2.28868      0.54230        -4.276521      0.832419     -3.390861
      7.41636      0.56244      3.68472         1.072090      0.907741      2.362297
      2.12075      2.99073      5.44230         1.564524      1.219343     -0.009150
      7.73086      5.42738      6.66856         0.657287     -1.140213     -0.454851
      8.45642      9.19312      1.55789         1.148852     -5.100817     -1.818564
      3.86157      5.24029      8.15254        -2.142449     -1.018909      0.378261
      6.26967     11.21861      2.02941        -2.557806     -0.901888     -1.060118
      9.32722     10.28652     10.99766         2.826706      1.359307      0.175083
      4.50764      4.59616      0.76752        -0.395573     -0.442374      0.344810
      1.56589      0.28642      9.54286        -0.905383      1.891792      0.230260
      1.67971      3.27140      0.21333        -1.182768     -2.788760     -0.873741
      1.56845      7.80976      0.41660        -0.307368     -3.044899     -0.757474
      9.64320      7.32142      4.06234        -3.001815     -1.324388      0.659044
      3.37336     10.96943     10.08344        -0.576317      1.888481     -5.009594
      4.73510      0.36333     12.18888        -1.227411      5.026977      0.844599
      6.59513      3.55066      8.64374        -2.092334      0.716256      3.150115
      4.73707      0.73474      8.46677         1.215470     -2.190397     -7.510211
      1.66981      6.28995      5.96649        -0.668324     -2.299998     -2.254392
      9.05544     11.89448      1.73657         8.552887      6.982917     -5.573923
      2.70553      8.02242      9.57816        -6.490057      3.370702      0.711860
      2.20960      5.53897      3.09931        -3.346654      1.453747     -4.291717
     12.09000      1.86539      5.15159        -3.185480     -0.189460     -3.092256
      8.65713      8.07847      8.21786         4.233170    -10.860316      5.436349
      4.83065      1.95791      2.67522         3.401808     -0.150352     -0.850354
      4.56759      7.55560      1.13689         5.236932      2.092235      1.524193
      9.49681      4.59145      0.51701         0.402951      2.714916      0.909621
      3.32226      9.66931      3.03100         2.360763      1.177525      0.915885
      4.91437      8.36750      8.06433         5.049374      2.974335     -4.471554
     11.76615     11.58730      6.73410        -1.777927     -0.469039     -1.770003
      9.62795      9.67851      6.09605        -4.894370      5.607905      1.049425
     11.61593     11.65178      4.03899         4.945943     -3.633560     -6.461050
      1.21160      5.19640     10.77144        -1.268597     -0.958578     -3.276664
     10.51757      1.80787     11.32509        -1.462255      0.277002     -1.456660
     11.26985      4.98606      4.52498         0.779604     10.833664      9.935566
      9.48020      2.97906      4.67803        -1.692414     -2.927788      0.994376
      9.81649      0.11575      9.46002         1.815886     -1.909233      1.626242
      6.99901      5.47408     11.29702         7.637253      2.606851     -5.386309
      4.46101      4.81349      4.36411         2.041020      1.708346     -0.312900
      3.45759     10.23865      0.10414        -0.441780     -5.252796     -3.522165
      7.81791      3.43163      5.14838         4.024484     -1.589502     -0.760299
      2.45884      1.51517      1.28130        -0.323000     -0.983309      0.744718
     11.27716      0.01786      5.29390         0.169393      3.428039      3.567675
      6.56134      5.03838      0.11085        -3.310939     -1.401460      4.676056
     10.66535      2.47668      5.88497        -1.396247      0.629940     -0.897992
      5.14719      3.43652      3.70580        -1.717340     -2.215517     -3.646938
[...]
      0.42378     11.47203      2.81676        -2.553150      1.180901     -1.134985
      2.60523      9.62296      1.45419        -0.565349      1.976465     -2.080301
      4.56344      0.91722      3.93986        -0.971787      0.004272     -1.762525
      8.66084      9.31006      7.44073        -0.027704      5.033239     -2.560668
      7.63016      6.87903     10.53221        -1.328842     -0.894088      0.796091
      6.55384      1.49285      2.15991        -3.579266     -0.014410      1.929669
      6.26313      6.83886      7.27112        -1.392665      3.533421      0.639589
     12.17420      1.69778     11.74470        -2.686349      0.150226     -0.036504
      3.66918      1.12347     11.11095         1.664969     -3.469195      1.543025
      4.69217      9.40097      6.69095        -0.008797     -2.950489      1.455855
     11.17244     10.05352      6.31788        -1.298366     -1.233877      1.675960
      6.20438      7.35284      1.85808        -2.245214     -1.478809     -2.310025
      4.70536     11.75261      9.14580        -1.871485      0.090191      2.209578
      3.65060      0.96756      7.17415        -1.221162     -2.169126      0.616030
      8.43417     10.83536      5.68725         2.176974      0.976823     -0.448484
    total drift:                               -0.028867     -0.018386      0.033288

  FREE ENERGIE OF THE ION-ELECTRON SYSTEM (eV)
  free  energy   TOTEN  =      -875.72342559 eV

  energy  without entropy=     -875.66290967  energy(sigma->0) =     -875.69316763