 vasp.5.4.4.18Apr17-6-g9f103f2a35 (build Oct 31 2019 15:01:46) complex

 executed on             LinuxIFC date 2024.04.29  00:48:29

 INCAR:
 POTCAR:    PAW_PBE Ca_sv 06Sep2000
 POTCAR:    PAW_PBE Si 05Jan2001
 POTCAR:    PAW_PBE O 08Apr2002
 POTCAR:    PAW_PBE Ca_sv 06Sep2000
   VRHFIN =Ca: 3s3p4s

   TITEL  = PAW_PBE Ca_sv 06Sep2000
   POMASS =   40.078; ZVAL   =   10.000    mass and valenz
   ENMAX  =  266.622; ENMIN  =  199.967 eV

   TITEL  = PAW_PBE Si 05Jan2001
   POMASS =   28.085; ZVAL   =    4.000    mass and valenz
   ENMAX  =  245.345; ENMIN  =  184.009 eV

   TITEL  = PAW_PBE O 08Apr2002
   POMASS =   16.000; ZVAL   =    6.000    mass and valenz
   ENMAX  =  400.000; ENMIN  =  300.000 eV

 Optimization of the real space projectors (new method)

 maximal supplied QI-value         = 16.25
 optimisation between [QCUT,QGAM] = [ 12.51, 25.03] = [ 43.85,175.40] Ry
 Optimized for a Real-space Cutoff    1.47 Angstroem

   l    n(q)    QCUT    max X(q) W(low)/X(q) W(high)/X(q)  e(spline)
   0     11    12.514    11.817    0.25E-04    0.32E-05    0.87E-07
   0     11    12.514     8.461    0.39E-04    0.59E-05    0.18E-06
   1     11    12.514     3.957    0.97E-05    0.57E-05    0.28E-07
   1     11    12.514     4.314    0.42E-04    0.14E-04    0.23E-06
   2     10    12.514    14.565    0.79E-04    0.50E-03    0.16E-05
   2     10    12.514    14.552    0.75E-04    0.48E-03    0.15E-05
 Optimization of the real space projectors (new method)

[...]

   l    n(q)    QCUT    max X(q) W(low)/X(q) W(high)/X(q)  e(spline)
   0      9    12.501   159.560    0.10E-03    0.83E-04    0.71E-07
   0      9    12.501   115.863    0.99E-04    0.81E-04    0.70E-07
   1      8    12.501    88.339    0.20E-03    0.25E-03    0.76E-07
   1      8    12.501    48.592    0.20E-03    0.24E-03    0.75E-07
 Optimization of the real space projectors (new method)

 maximal supplied QI-value         = 24.76
 optimisation between [QCUT,QGAM] = [ 12.38, 25.00] = [ 42.90,175.06] Ry
 Optimized for a Real-space Cutoff    1.16 Angstroem

   l    n(q)    QCUT    max X(q) W(low)/X(q) W(high)/X(q)  e(spline)
   0      9    12.378    20.381    0.16E-03    0.67E-05    0.31E-06
   0      9    12.378    15.268    0.17E-03    0.81E-05    0.33E-06
   1      8    12.378     5.964    0.20E-03    0.16E-03    0.30E-06
   1      8    12.378     5.382    0.18E-03    0.14E-03    0.26E-06
  PAW_PBE Ca_sv 06Sep2000               :
  PAW_PBE Si 05Jan2001                  :
  PAW_PBE O 08Apr2002                   :

 POSCAR: Ca Si  O
  positions in direct lattice
 exchange correlation table for  LEXCH =        8
   RHO(1)=    0.500       N(1)  =     2000
   RHO(2)=  100.500       N(2)  =     4000

 ion  position               nearest neighbor table
   1  0.128  0.938  0.230-  66 1.87  49 2.77
   2  0.731  0.869  0.878- 122 2.36 106 2.44
   3  0.931  0.245  0.953- 129 2.08  91 2.09  33 2.78
   4  0.358  0.386  0.028- 110 2.02 113 2.37 135 2.42  61 2.53  46 3.09
   5  0.078  0.186  0.740- 111 2.02  91 2.28  42 3.14
   6  0.031  0.515  0.410-
   7  0.419  0.523  0.738-  92 2.03 109 2.18
   8  0.907  0.223  0.405- 105 1.88 124 2.13  22 2.69
   9  0.465  0.037  0.277-  90 2.14 114 2.44 107 2.46 133 2.51  49 2.68  52 3.05
  10  0.488  0.795  0.683-  69 1.92 122 2.20  44 2.69
  11  0.774  0.512  0.590-  74 2.22  36 2.82
  12  0.989  0.439  0.826-  91 2.03 123 2.08 118 2.32  54 2.82
  13  0.634  0.483  0.049- 126 2.35  81 2.36  16 3.06
  14  0.693  0.069  0.215-  90 2.20  73 2.24  62 2.53
  15  0.385  0.116  0.632-  89 2.16 119 2.35  51 2.67  30 2.85
  16  0.748  0.556  0.221- 126 2.13  71 2.15 100 2.40  43 2.66  40 3.05  13 3.06
  17  0.176  0.931  0.922-  63 2.16  37 2.78  53 2.96
  18  0.795  0.595  0.839- 128 2.11 103 2.28 118 2.40  54 2.77
  19  0.671  0.190  0.772- 101 2.19  85 2.23 125 2.35 102 2.45  70 2.51  34 2.70
  20  0.864  0.896  0.470- 108 2.32  94 2.41
  21  0.959  0.772  0.910- 103 2.16  77 2.27  99 2.38 134 2.39 121 2.42
  22  0.956  0.315  0.244-  65 1.91 105 2.12  96 2.24   8 2.69  40 2.78
  23  0.409  0.734  0.275-  68 1.69 104 1.88  29 2.70  50 2.94
  24  0.392  0.450  0.458-  75 2.34  78 2.41  58 2.46  26 2.65  36 3.08  48 3.14
  25  0.506  0.844  0.032- 116 2.00  87 2.33 127 2.33
  26  0.531  0.351  0.376-  98 2.10  55 2.15  24 2.65
  27  0.143  0.575  0.085- 131 2.46  31 2.92
  28  0.761  0.773  0.641-  72 1.60 108 1.62
  29  0.416  0.645  0.104-  61 1.55  68 1.69  23 2.70
  30  0.284  0.228  0.496-  75 1.66  86 1.66 119 1.69  89 1.73  48 2.55  15 2.85
  31  0.167  0.387  0.169- 110 1.64  56 1.70  96 1.73 131 1.92  33 2.87  27 2.92  48 3.09
  32  0.028  0.636  0.667- 132 1.52  79 1.62  88 1.81
  33  0.117  0.254  0.021- 129 1.43 115 1.49  96 1.97   3 2.78  31 2.87
  34  0.807  0.270  0.662-  70 1.41  64 1.69 102 1.73 125 2.21  19 2.70  47 2.74
  35  0.605  0.403  0.835- 101 1.66 109 1.67  81 1.76  46 2.80
  36  0.575  0.515  0.561-  74 1.59  59 1.60  92 1.66  11 2.82  24 3.08
  37  0.243  0.749  0.965- 127 1.81  99 1.87  17 2.78
  38  0.208  0.415  0.597-  57 1.47  58 1.64  76 1.89
  39  0.846  0.899  0.099-  73 1.50 121 1.53 106 1.59  43 2.92
  40  0.765  0.340  0.196-  62 1.83  65 1.85 126 1.94  97 2.13  22 2.78  16 3.05
  41  0.526  0.249  0.124- 113 1.53  97 1.60 133 1.74 135 2.44
  42  0.947  0.005  0.752- 130 1.69 111 1.75 134 1.77   5 3.14
  43  0.828  0.692  0.117- 100 1.42  60 1.58  77 1.98  16 2.66  39 2.92  54 3.07
  44  0.570  0.714  0.835- 122 1.54  87 1.72  69 1.73 128 1.85  10 2.69
  45  0.545  0.002  0.863- 116 1.65  85 1.72  95 1.75  83 2.40  53 2.89
  46  0.451  0.278  0.860- 135 1.69 120 1.76 101 1.99  83 2.10  35 2.80   4 3.09
  47  0.696  0.229  0.506- 124 1.60  98 1.61 125 1.69  34 2.74
  48  0.208  0.348  0.382-  56 1.59  86 1.59  78 1.75  57 1.79  30 2.55  31 3.09  24 3.14
  49  0.321  0.946  0.190- 107 1.41 114 1.53 117 1.84   9 2.68   1 2.77
  50  0.539  0.578  0.327-  55 1.51  71 1.65 104 1.65  59 1.85  23 2.94
  51  0.221  0.028  0.593-  82 1.47  80 2.00 119 2.35  15 2.67
  52  0.578  0.005  0.460-  93 1.50  67 1.64  90 1.93   9 3.05
  53  0.354  0.948  0.808-  63 1.62  95 1.67  80 1.78  45 2.89  17 2.96
  54  0.923  0.547  0.982- 123 1.43 118 1.49  77 1.73  18 2.77  12 2.82  43 3.07
  55  0.510  0.480  0.295-  50 1.51  26 2.15
  56  0.170  0.331  0.276-  48 1.59  31 1.70
  57  0.180  0.391  0.499-  38 1.47  48 1.79
  58  0.281  0.504  0.583-  38 1.64  24 2.46
  59  0.568  0.540  0.450-  36 1.60  50 1.85
  60  0.731  0.679  0.062-  43 1.58
  61  0.429  0.551  0.047-  29 1.55   4 2.53
  62  0.795  0.214  0.180-  40 1.83  14 2.53
  63  0.309  0.006  0.898-  53 1.62  17 2.16
  64  0.847  0.343  0.575-  34 1.69
  65  0.856  0.404  0.266-  40 1.85  22 1.91
  66  0.184  0.817  0.230-   1 1.87
[...]
  69  0.461  0.702  0.780-  44 1.73  10 1.92
  70  0.829  0.176  0.691-  34 1.41  19 2.51
  71  0.607  0.615  0.238-  50 1.65  16 2.15
  72  0.704  0.721  0.557-  28 1.60
  73  0.805  0.963  0.175-  39 1.50  14 2.24
  74  0.635  0.449  0.631-  36 1.59  11 2.22
  75  0.377  0.296  0.522-  30 1.66  24 2.34
  76  0.132  0.375  0.702-  38 1.89
  77  0.932  0.662  0.026-  54 1.73  43 1.98  21 2.27
  78  0.328  0.333  0.349-  48 1.75  24 2.41
  79  0.914  0.617  0.665-  32 1.62
  80  0.279  0.964  0.707-  53 1.78  51 2.00
  81  0.683  0.376  0.929-  35 1.76  13 2.36
  82  0.134  0.980  0.562-  51 1.47
  83  0.470  0.142  0.800-  46 2.10  45 2.40
  84  0.831  0.584  0.405-
  85  0.657  0.051  0.850-  45 1.72  19 2.23
  86  0.201  0.238  0.411-  48 1.59  30 1.66
  87  0.602  0.733  0.953-  44 1.72  25 2.33
  88  0.061  0.664  0.546-  32 1.81
  89  0.346  0.122  0.484-  30 1.73  15 2.16
  90  0.604  0.999  0.325-  52 1.93   9 2.14  14 2.20
  91  0.014  0.297  0.840-  12 2.03   3 2.09   5 2.28
  92  0.479  0.563  0.612-  36 1.66   7 2.03
  93  0.550  0.106  0.445-  52 1.50
  94  0.950  0.948  0.331- 112 1.58  20 2.41
  95  0.462  0.981  0.771-  53 1.67  45 1.75
  96  0.065  0.329  0.128-  31 1.73  33 1.97  22 2.24
  97  0.626  0.286  0.165-  41 1.60  40 2.13
  98  0.627  0.319  0.486-  47 1.61  26 2.10
  99  0.111  0.742  0.981-  37 1.87  21 2.38
 100  0.876  0.668  0.203-  43 1.42  16 2.40
 101  0.566  0.306  0.780-  35 1.66  46 1.99  19 2.19
 102  0.787  0.320  0.773-  34 1.73  19 2.45
 103  0.857  0.741  0.799-  21 2.16  18 2.28
 104  0.478  0.669  0.370-  50 1.65  23 1.88
 105  0.993  0.324  0.390-   8 1.88  22 2.12
 106  0.750  0.862  0.051-  39 1.59   2 2.44
 107  0.411  0.902  0.178-  49 1.41   9 2.46
 108  0.812  0.875  0.626-  28 1.62  20 2.32
 109  0.504  0.463  0.854-  35 1.67   7 2.18
 110  0.260  0.438  0.121-  31 1.64   4 2.02
 111  0.964  0.119  0.799-  42 1.75   5 2.02
 112  0.933  0.040  0.267-  94 1.58
 113  0.483  0.348  0.136-  41 1.53   4 2.37
 114  0.293  0.008  0.275-  49 1.53   9 2.44
 115  0.179  0.320  0.965-  33 1.49
 116  0.480  0.958  0.950-  45 1.65  25 2.00
 117  0.246  0.007  0.101-  49 1.84
 118  0.866  0.471  0.933-  54 1.49  12 2.32  18 2.40
 119  0.240  0.194  0.602-  30 1.69  51 2.35  15 2.35
 120  0.336  0.309  0.822-  46 1.76
 121  0.938  0.860  0.057-  39 1.53  21 2.42
 122  0.605  0.806  0.787-  44 1.54  10 2.20   2 2.36
 123  0.013  0.534  0.936-  54 1.43  12 2.08
 124  0.757  0.199  0.414-  47 1.60   8 2.13
 125  0.701  0.165  0.609-  47 1.69  34 2.21  19 2.35
 126  0.784  0.452  0.116-  40 1.94  16 2.13  13 2.35
 127  0.343  0.813  0.016-  37 1.81  25 2.33
 128  0.659  0.629  0.785-  44 1.85  18 2.11
 129  0.045  0.181  0.023-  33 1.43   3 2.08
 130  0.953  0.999  0.632-  42 1.69
 131  0.081  0.481  0.218-  31 1.92  27 2.46
 132  0.097  0.595  0.740-  32 1.52
 133  0.509  0.126  0.127-  41 1.74   9 2.51
 134  0.986  0.925  0.841-  42 1.77  21 2.39
 135  0.437  0.242  0.974-  46 1.69   4 2.42  41 2.44

IMPORTANT INFORMATION: All symmetrisations will be switched off!
NOSYMM: (Re-)initialisation of all symmetry stuff for point group C_1.

Automatic generation of k-mesh.
 generate k-points for:    2    2    2
Space group operators:
 irot       det(A)        alpha          n_x          n_y          n_z        tau_x        tau_y        tau_z
    1     1.000000     0.000000     1.000000     0.000000     0.000000     0.000000     0.000000     0.000000

 Subroutine IBZKPT returns following result:

 Found      8 irreducible k-points:

 Following reciprocal coordinates:
            Coordinates               Weight
  0.000000  0.000000  0.000000      1.000000
  0.500000  0.000000  0.000000      1.000000
  0.000000  0.500000  0.000000      1.000000
  0.500000  0.500000  0.000000      1.000000
  0.000000  0.000000  0.500000      1.000000
  0.500000  0.000000  0.500000      1.000000
  0.000000  0.500000  0.500000      1.000000
  0.500000  0.500000  0.500000      1.000000

 Following cartesian coordinates:
            Coordinates               Weight
  0.000000  0.000000  0.000000      1.000000
  0.035682  0.000000  0.000000      1.000000
  0.000000  0.035682  0.000000      1.000000
  0.035682  0.035682  0.000000      1.000000
  0.000000  0.000000  0.035682      1.000000
  0.035682  0.000000  0.035682      1.000000
  0.000000  0.035682  0.035682      1.000000
  0.035682  0.035682  0.035682      1.000000

 SYSTEM =  unknown system
 POSCAR =  Ca Si  O

 Startparameter for this run:
[...]
     0.000000000  0.000000000 14.012776000     0.000000000  0.000000000  0.071363447

  length of vectors
    14.012776000 14.012776000 14.012776000     0.071363447  0.071363447  0.071363447

 FORCES acting on ions
    electron-ion (+dipol)            ewald-force                    non-local-force                 convergence-correction
   0.189E+03 -.515E+02 -.193E+03   -.186E+03 0.493E+02 0.193E+03   -.495E+01 0.537E+01 0.545E+00   0.207E+00 -.118E+00 -.624E-01
   -.144E+03 -.261E+03 0.598E+02   0.142E+03 0.256E+03 -.584E+02   0.202E+01 0.337E+01 -.109E+01   0.896E-02 0.128E-02 0.262E-02
   0.222E+03 0.236E+03 -.148E+03   -.216E+03 -.237E+03 0.141E+03   -.799E+01 0.703E+00 0.509E+01   -.233E-01 0.215E-01 -.341E-01
   0.121E+03 0.112E+02 0.119E+03   -.118E+03 -.124E+02 -.116E+03   -.741E+00 0.461E+00 -.431E+01   -.951E-03 -.386E-01 0.452E-02
   -.226E+03 0.166E+03 0.182E+03   0.221E+03 -.160E+03 -.178E+03   0.605E+01 -.319E+01 -.425E+01   -.477E-01 0.137E-01 0.285E-02
   -.915E+02 -.369E+03 -.953E+02   0.876E+02 0.368E+03 0.945E+02   0.273E+01 0.111E+01 0.651E+00   -.332E+00 0.206E-01 -.992E-01
   0.401E+03 -.119E+03 -.421E+02   -.398E+03 0.120E+03 0.411E+02   -.503E+01 -.858E+00 0.204E+01   0.475E-01 -.156E-01 -.309E-01
   -.134E+03 0.369E+03 -.151E+03   0.131E+03 -.366E+03 0.155E+03   0.119E+01 -.552E+01 -.222E+01   -.377E-01 0.184E+00 0.767E-01
   0.142E+03 0.524E+02 -.120E+03   -.141E+03 -.524E+02 0.120E+03   -.240E+01 0.139E+01 0.739E+00   -.315E-02 0.327E-02 0.351E-02
   0.301E+03 -.159E+03 0.509E+03   -.299E+03 0.157E+03 -.504E+03   -.224E+01 0.364E+01 -.830E+01   0.500E-01 -.142E-01 -.335E-01
   -.197E+03 -.165E+03 0.149E+03   0.199E+03 0.163E+03 -.151E+03   0.291E+00 0.184E+01 0.124E+01   0.224E-01 0.691E-01 -.291E+00
   -.183E+03 -.693E+02 0.284E+03   0.188E+03 0.649E+02 -.284E+03   -.350E+01 0.408E+01 -.394E+01   -.496E-01 -.337E-01 -.295E-02
   0.154E+03 -.651E+02 0.134E+02   -.151E+03 0.610E+02 -.153E+02   -.313E+01 0.357E+01 0.132E+01   0.653E-01 -.130E-01 0.318E-01
   -.542E+02 0.953E+02 0.470E+02   0.570E+02 -.971E+02 -.449E+02   -.185E+01 0.237E+01 -.204E+01   -.611E-01 -.120E-01 -.305E-01
   -.625E+02 0.207E+03 -.259E+02   0.612E+02 -.203E+03 0.248E+02   0.311E+01 -.267E+01 0.268E+01   0.346E-01 0.158E-01 -.505E-02
   -.749E+02 -.183E+03 -.294E+03   0.760E+02 0.185E+03 0.297E+03   0.127E+00 -.719E+00 -.177E+00   0.133E+00 0.252E-01 0.278E+00
   0.160E+03 0.164E+02 0.674E+02   -.155E+03 -.134E+02 -.655E+02   -.526E+01 -.170E+01 -.834E+00   -.126E-01 0.324E-01 0.259E-01
   -.379E+02 0.102E+02 0.107E+03   0.335E+02 -.407E+01 -.111E+03   0.342E+01 -.493E+01 0.281E+01   -.213E-01 -.246E-01 -.149E-01
   -.391E+01 0.214E+03 -.876E+02   0.298E+01 -.214E+03 0.862E+02   0.841E+00 -.664E+00 0.148E+01   0.557E-01 0.233E-01 -.448E-01
   -.159E+03 0.122E+03 0.126E+03   0.160E+03 -.119E+03 -.123E+03   -.237E+00 -.191E+01 -.241E+01   -.123E+00 -.156E+00 0.106E+00
   -.258E+03 -.168E+03 0.138E+03   0.259E+03 0.171E+03 -.138E+03   0.576E+00 -.128E+01 -.214E+00   -.427E-01 -.290E-02 0.213E-01
   -.113E+03 0.234E+03 0.868E+02   0.117E+03 -.229E+03 -.851E+02   -.446E+00 -.697E+01 -.330E+01   -.399E-01 0.149E+00 0.404E-01
   0.245E+03 -.417E+03 -.268E+03   -.244E+03 0.422E+03 0.272E+03   -.246E+01 0.817E+01 -.172E+01   0.111E-01 0.551E-01 0.930E-01
   0.189E+03 -.314E+03 -.320E+02   -.197E+03 0.312E+03 0.348E+02   0.521E+01 0.281E+01 -.176E+01   0.536E-01 0.256E-03 0.527E-03
   -.356E+02 0.190E+02 -.211E+03   0.319E+02 -.202E+02 0.208E+03   0.338E+01 -.855E+00 0.481E+01   0.661E-01 0.708E-01 -.577E-02
   -.171E+02 0.216E+03 0.959E+02   0.206E+02 -.216E+03 -.979E+02   -.339E+01 -.198E+01 0.209E+00   0.727E-01 0.411E-01 0.223E-01
   -.116E+03 -.253E+03 -.550E+02   0.114E+03 0.251E+03 0.573E+02   0.137E+01 0.166E+01 -.189E+01   -.649E-01 -.165E-01 0.485E-01
   -.375E+02 -.398E+01 0.131E+02   0.362E+02 0.102E+02 -.273E+02   0.246E+01 -.544E+01 0.141E+02   -.118E-01 -.300E-01 -.307E-01
   0.680E+02 -.125E+03 0.516E+02   -.651E+02 0.119E+03 -.527E+02   -.272E+01 0.559E+01 0.283E+01   0.157E-02 -.159E-01 0.100E-01
   0.649E+02 0.683E+02 0.284E+02   -.611E+02 -.726E+02 -.254E+02   -.156E+01 0.701E+00 -.287E+01   0.350E-02 0.889E-02 -.353E-02
   -.592E+02 0.161E+02 0.983E+01   0.575E+02 -.107E+02 -.621E+01   -.219E+01 -.280E+01 0.673E+00   -.146E-01 0.573E-02 0.826E-02
   -.105E+03 -.147E+03 0.955E+02   0.108E+03 0.138E+03 -.930E+02   -.401E+01 0.961E+01 -.909E+01   -.496E-01 -.289E-01 0.448E-01
   -.118E+03 0.106E+03 -.502E+02   0.114E+03 -.105E+03 0.408E+02   0.694E+01 0.462E+01 0.124E+02   -.214E-02 0.549E-02 -.271E-02
   -.511E+02 -.609E+02 0.825E+02   0.593E+02 0.497E+02 -.744E+02   -.841E+01 0.229E+02 -.950E+01   -.383E-02 -.849E-02 0.116E-02
   -.424E+02 -.529E+02 0.332E+02   0.356E+02 0.477E+02 -.263E+02   0.732E+01 0.422E+01 -.405E+01   0.181E-01 -.319E-02 -.130E-01
   -.115E+02 -.826E+02 0.126E+02   0.800E+01 0.819E+02 -.813E+01   0.249E+00 0.239E+01 -.261E+01   0.527E-01 0.622E-02 -.286E-01
   -.589E+00 0.663E+02 0.826E+02   0.267E+01 -.688E+02 -.860E+02   -.161E+01 0.237E+01 0.499E+01   -.200E-01 0.704E-02 0.252E-02
   0.439E+02 -.525E+02 -.136E+03   -.435E+02 0.589E+02 0.131E+03   -.471E+00 -.415E+01 0.157E+02   -.276E-02 -.122E-01 -.847E-02
   -.800E+02 -.645E+02 -.618E+02   0.751E+02 0.647E+02 0.613E+02   0.306E+01 -.773E+00 -.837E+00   -.363E-01 -.213E-01 -.929E-02
   0.530E+02 0.556E+02 -.164E+02   -.440E+02 -.576E+02 0.159E+02   -.729E+01 0.657E+00 -.162E+01   0.340E-02 0.443E-01 0.255E-01
   0.420E+02 0.138E+03 0.372E+02   -.429E+02 -.128E+03 -.306E+02   0.310E+00 -.143E+02 -.823E+01   0.672E-02 0.181E-02 0.486E-02
   0.481E+01 0.797E+02 0.220E+02   0.115E+01 -.771E+02 -.266E+02   -.328E+01 -.188E+01 0.415E+01   -.150E-01 0.185E-01 0.299E-02
   -.399E+02 -.145E+03 -.617E+02   0.366E+02 0.135E+03 0.723E+02   0.143E+01 0.132E+02 -.210E+02   -.261E-02 -.241E-01 0.411E-01
   0.955E+02 0.739E+02 -.268E+02   -.904E+02 -.652E+02 0.256E+02   -.360E+01 -.138E+02 0.386E+01   0.185E-01 -.471E-02 -.177E-01
   -.519E+02 -.218E+02 -.168E+01   0.488E+02 0.221E+02 0.688E+01   0.118E+01 0.380E+01 -.583E+01   0.148E-01 0.573E-02 -.193E-02
   0.225E+02 0.143E+02 0.246E+02   -.355E+02 -.187E+02 -.203E+02   0.887E+01 -.326E+00 -.623E+01   0.130E-01 0.108E-02 -.242E-02
   -.151E+01 0.695E+02 -.638E+01   0.121E+01 -.686E+02 0.775E+00   -.709E+00 -.158E+01 0.569E+01   0.572E-02 0.256E-01 0.182E-01
   0.589E+02 -.122E+03 -.864E+01   -.506E+02 0.106E+03 0.109E+01   -.488E+01 0.137E+02 0.683E+01   -.108E-01 0.887E-02 -.471E-03
   0.112E+03 0.380E+02 -.117E+02   -.105E+03 -.323E+02 0.169E+02   -.205E+02 -.122E+01 -.983E+01   -.168E-01 0.136E-01 0.814E-03
   -.347E+02 -.127E+03 -.676E+02   0.301E+02 0.124E+03 0.581E+02   0.557E+01 0.820E+01 0.985E+01   0.689E-01 -.104E-01 0.327E-01
   -.146E+02 0.918E+02 0.496E+02   0.119E+01 -.100E+03 -.552E+02   0.169E+02 0.103E+02 0.707E+01   0.423E-02 0.781E-02 0.132E-02
   0.678E+02 0.172E+03 -.627E+02   -.603E+02 -.162E+03 0.617E+02   -.136E+01 -.136E+02 -.213E+01   0.157E-02 -.805E-03 0.434E-02
   0.882E+02 0.141E+03 0.673E+02   -.924E+02 -.136E+03 -.626E+02   0.270E+01 -.318E+01 -.505E+01   0.612E-02 0.823E-02 -.211E-02
   0.193E+01 -.455E+02 -.156E+03   0.885E+01 0.383E+02 0.139E+03   -.134E+02 0.122E+02 0.236E+02   -.133E-01 -.428E-02 0.181E-01
   0.825E+02 0.663E+01 0.960E+02   -.935E+02 -.342E+02 -.117E+03   0.889E+01 0.226E+02 0.211E+02   0.661E-01 -.408E-02 0.376E-01
   -.213E+02 0.112E+03 0.363E+02   0.113E+02 -.133E+03 -.412E+02   0.890E+01 0.220E+02 0.153E+01   -.154E-01 0.212E-01 0.542E-02
   0.153E+03 -.117E+03 -.182E+02   -.169E+03 0.112E+03 0.206E+01   0.128E+02 0.348E+01 0.674E+01   -.221E-01 -.247E-02 -.154E-01
   0.907E+02 -.302E+03 -.539E+02   -.770E+02 0.329E+03 0.520E+02   -.133E+02 -.275E+02 0.301E+01   0.262E-01 -.237E-01 -.112E-01
   -.854E+02 -.181E+03 -.208E+02   0.863E+02 0.188E+03 0.556E+01   0.267E+00 -.864E+01 0.158E+02   0.126E+00 0.758E-02 -.654E-02
   0.894E+02 -.844E+02 -.553E+02   -.122E+03 0.875E+02 0.368E+02   0.330E+02 -.511E+01 0.193E+02   0.309E-01 -.128E-01 0.371E-01
[...]
   -.278E+02 -.159E+03 0.154E+03   0.392E+02 0.184E+03 -.166E+03   -.941E+01 -.192E+02 0.962E+01   0.206E-01 -.491E-02 -.199E-01
   -.302E+03 -.824E+02 0.489E+01   0.342E+03 0.812E+02 -.233E+02   -.289E+02 0.171E+01 0.172E+02   -.262E-01 -.126E-01 0.209E-01
   -.397E+01 0.156E+03 0.665E+02   0.137E+02 -.165E+03 -.918E+02   -.106E+02 0.852E+01 0.260E+02   -.313E-01 0.723E-01 0.408E-01
   0.545E+02 0.221E+03 0.769E+02   -.531E+02 -.243E+03 -.606E+02   -.348E+01 0.247E+02 -.195E+02   0.383E-01 0.309E-01 0.182E-01
   -.102E+03 0.681E+02 0.507E+02   0.113E+03 -.618E+02 -.611E+02   -.130E+02 -.954E+01 0.103E+02   0.122E-01 0.286E-01 0.575E-01
   0.127E+03 0.599E+02 0.165E+02   -.117E+03 -.524E+02 -.103E+02   -.133E+02 -.975E+01 -.784E+01   -.228E-01 0.533E-01 0.399E-03
   0.656E+02 0.178E+02 0.123E+03   -.599E+02 -.262E+02 -.133E+03   -.788E+01 0.906E+01 0.112E+02   0.167E-01 -.137E-01 -.322E-01
   -.453E+02 0.320E+03 -.102E+03   0.182E+02 -.357E+03 0.108E+03   0.225E+02 0.295E+02 -.542E+01   0.325E-02 0.192E-01 -.239E-01
   -.977E+02 0.783E+02 0.156E+03   0.100E+03 -.787E+02 -.183E+03   -.297E+01 0.378E+00 0.300E+02   -.258E-01 0.256E-01 0.319E-01
   0.713E+00 -.241E+03 -.113E+03   -.128E+02 0.247E+03 0.121E+03   0.144E+02 -.642E+01 -.881E+01   -.616E-01 0.187E-01 0.359E-01
   -.237E+03 -.122E+03 0.324E+02   0.265E+03 0.107E+03 -.774E+01   -.267E+02 0.143E+02 -.228E+02   -.129E-01 -.355E-01 0.415E-01
   0.474E+02 0.953E+02 0.519E+02   -.541E+02 -.118E+03 -.600E+02   0.784E+01 0.261E+02 0.973E+01   0.793E-03 0.272E-02 0.440E-02
   -.979E+02 -.340E+02 0.487E+02   0.104E+03 0.241E+02 -.343E+02   -.717E+01 0.114E+02 -.165E+02   -.176E-01 0.136E-01 0.149E-02
   0.630E+02 0.164E+03 -.572E+02   -.701E+02 -.179E+03 0.753E+02   0.916E+01 0.174E+02 -.189E+02   0.934E-02 -.358E-02 0.472E-02
   0.376E+02 -.111E+03 -.461E+02   -.412E-12 0.682E-12 -.114E-12   -.375E+02 0.111E+03 0.456E+02   -.511E-01 0.362E+00 0.460E+00

 POSITION                                       TOTAL-FORCE (eV/Angst)
      1.79089     13.15051      3.22755        -1.993872      3.087514      0.300849
     10.24056     12.17817     12.30141        -0.042044     -0.964564      0.310062
     13.04177      3.43895     13.35640        -2.105627     -0.275551     -2.082001
      5.01257      5.40516      0.39627         2.075801     -0.785069     -1.549383
      1.09487      2.61270     10.37046         1.156500      2.879314     -0.581061
      0.43241      7.21081      5.74924        -1.553304     -0.004542     -0.305085
      5.87037      7.33539     10.34191        -1.710905      0.115322      1.026423
     12.70480      3.12204      5.66864        -1.165732     -2.915188      2.193913
      6.51188      0.52489      3.87881        -0.714058      1.355301     -0.051204
      6.83554     11.13858      9.56577         0.274675      2.145002     -2.849872
     10.84464      7.17377      8.26635         2.700765      0.208498     -1.150563
     13.85223      6.14745     11.57117         1.466518     -0.441950     -3.371047
      8.88084      6.77386      0.68696        -0.758057     -0.543688     -0.524706
      9.70522      0.97033      3.01563         0.939849      0.621584      0.073254
      5.39662      1.62640      8.86235         1.862441      1.573418      1.561822
     10.47932      7.79095      3.09587         1.339629      0.949094      3.651998
      2.47169     13.04214     12.92435        -0.483497      1.353921      1.135411
     11.14617      8.34356     11.75491        -0.978447      1.177959     -1.409095
      9.39610      2.66424     10.82336        -0.031931     -0.989448      0.040540
     12.10804     12.54936      6.58664         0.158885      0.678485      0.652681
     13.44462     10.81584     12.74940         1.377693      1.260535     -0.179315
     13.39243      4.41317      3.41246         4.306855     -1.536108     -1.567099
      5.72783     10.28115      3.85324        -1.563289     13.064356      3.154011
      5.49533      6.30504      6.41930        -2.276959      0.839879      1.036629
      7.09244     11.81993      0.45342        -0.181928     -2.004460      1.693228
      7.43687      4.91271      5.26544         0.202839     -1.871239     -1.756711
      2.00425      8.06204      1.18501        -0.713887      0.310448      0.449986
     10.66510     10.82506      8.98183         1.137049      0.706732     -0.092735
      5.82365      9.03323      1.46021         0.222299     -0.555072      1.677653
      3.98213      3.19651      6.94391         2.215522     -3.611784      0.081117
      2.34123      5.41605      2.36337        -3.915766      2.606877      4.304448
      0.39328      8.91725      9.35018        -0.972947      0.306602     -6.548628
      1.63810      3.55882      0.29041         2.534984      5.807601      3.036522
     11.31090      3.78303      9.27520        -0.210343     11.658153     -1.451500
      8.48011      5.64855     11.70007         0.616491     -0.985158      2.849663
      8.05167      7.21976      7.86424        -3.173734      1.678951      1.784175
      3.40818     10.48877     13.52229         0.450235     -0.025869      1.565008
      2.91109      5.80897      8.37117        -0.130888      2.178026     11.008771
     11.84955     12.60207      1.38188        -1.835900     -0.630524     -1.358006
     10.72027      4.76732      2.74218         1.641028     -1.308293     -2.178270
      7.37432      3.48482      1.73714        -0.628137     -4.360220     -1.559912
     13.27322      0.07285     10.53457         2.665166      0.812875     -0.463389
     11.60570      9.70090      1.63305        -1.826118      2.727045    -10.370785
      7.99096     10.00199     11.70736         1.480714     -5.091165      2.706307
      7.63260      0.02527     12.09077        -1.865862      4.123204     -0.637658
      6.32458      3.89654     12.04859        -4.068200     -4.679843     -1.863828
      9.75971      3.20739      7.09614        -1.008794     -0.667242      0.098913
      2.90881      4.87394      5.34768         3.417824     -2.422448     -0.714109
      4.50392     13.25623      2.65614       -13.606764      4.562360     -4.574840
      7.55796      8.10235      4.58093         1.042191      5.641572      0.368177
      3.09686      0.39370      8.31638         3.542615      1.783567      1.392650
      8.09684      0.06455      6.44271         6.229050     -4.050496     -3.043810
      4.95379     13.28245     11.32890        -1.527207      2.180554     -0.292517
     12.92693      7.66250     13.76406        -2.595434      4.995406      6.442074
      7.15036      6.72252      4.13668        -2.088174     -5.007429      0.193658
      2.37572      4.63817      3.86989        -1.182061      1.210398     -3.282174
      2.52205      5.48214      6.99050        -2.950729     -1.515113     -9.450260
      3.94157      7.06443      8.17404         0.377317     -1.414577      1.084879
      7.96595      7.56341      6.30528         1.303422     -1.470716      0.605793
     10.24196      9.52019      0.86538         0.797320     -1.993162      0.857533
[...]
     13.14965     12.05508      0.79679         2.185186     -0.598427     -0.427711
      8.47116     11.29215     11.02297         2.069530      5.256893     -2.609414
      0.18440      7.48377     13.12262        10.901011      0.462981     -1.184709
     10.60686      2.78587      5.80759        -0.898878     -0.417054      0.630489
      9.82971      2.31872      8.53693        -2.047723      2.883556     -3.247875
     10.98703      6.33358      1.62613        -2.613775     -3.196721     -0.067801
      4.81188     11.38891      0.22385        -3.670436     -2.203326     -1.578708
      9.23309      8.81822     11.00694        -2.127447      0.696677      1.089106
      0.63642      2.53777      0.31887        -4.515195     -7.110582      0.101357
     13.35495     13.99904      8.85058        -0.364691      0.009985      3.570187
      1.13255      6.73695      3.06127         2.278741      0.207959     -1.671577
      1.36123      8.33886     10.37197         0.794020     -0.294910      1.914317
      7.13193      1.76598      1.78564         1.106060      3.038433      1.642354
     13.82053     12.96770     11.78801        -0.996557      1.532344     -2.196588
      6.12999      3.39084     13.65441         2.032854      1.983186     -0.888213
    total drift:                               -0.008439      0.005235     -0.015605

  FREE ENERGIE OF THE ION-ELECTRON SYSTEM (eV)
  free  energy   TOTEN  =      -840.62414058 eV

  energy  without entropy=     -840.49522142  energy(sigma->0) =     -840.55968100