 vasp.5.4.4.18Apr17-6-g9f103f2a35 (build Oct 31 2019 15:01:46) complex

 executed on             LinuxIFC date 2024.04.30  05:02:45

 INCAR:
 POTCAR:    PAW_PBE Ca_sv 06Sep2000
 POTCAR:    PAW_PBE Si 05Jan2001
 POTCAR:    PAW_PBE O 08Apr2002
 POTCAR:    PAW_PBE Ca_sv 06Sep2000
   VRHFIN =Ca: 3s3p4s

   TITEL  = PAW_PBE Ca_sv 06Sep2000
   POMASS =   40.078; ZVAL   =   10.000    mass and valenz
   ENMAX  =  266.622; ENMIN  =  199.967 eV

   TITEL  = PAW_PBE Si 05Jan2001
   POMASS =   28.085; ZVAL   =    4.000    mass and valenz
   ENMAX  =  245.345; ENMIN  =  184.009 eV

   TITEL  = PAW_PBE O 08Apr2002
   POMASS =   16.000; ZVAL   =    6.000    mass and valenz
   ENMAX  =  400.000; ENMIN  =  300.000 eV

 Optimization of the real space projectors (new method)

 maximal supplied QI-value         = 16.25
 optimisation between [QCUT,QGAM] = [ 12.51, 25.03] = [ 43.85,175.40] Ry
 Optimized for a Real-space Cutoff    1.47 Angstroem

   l    n(q)    QCUT    max X(q) W(low)/X(q) W(high)/X(q)  e(spline)
   0     11    12.514    11.817    0.25E-04    0.32E-05    0.87E-07
   0     11    12.514     8.461    0.39E-04    0.59E-05    0.18E-06
   1     11    12.514     3.957    0.97E-05    0.57E-05    0.28E-07
   1     11    12.514     4.314    0.42E-04    0.14E-04    0.23E-06
   2     10    12.514    14.565    0.79E-04    0.50E-03    0.16E-05
   2     10    12.514    14.552    0.75E-04    0.48E-03    0.15E-05
 Optimization of the real space projectors (new method)

[...]

   l    n(q)    QCUT    max X(q) W(low)/X(q) W(high)/X(q)  e(spline)
   0      9    12.501   159.560    0.10E-03    0.83E-04    0.71E-07
   0      9    12.501   115.863    0.99E-04    0.81E-04    0.70E-07
   1      8    12.501    88.339    0.20E-03    0.25E-03    0.76E-07
   1      8    12.501    48.592    0.20E-03    0.24E-03    0.75E-07
 Optimization of the real space projectors (new method)

 maximal supplied QI-value         = 24.76
 optimisation between [QCUT,QGAM] = [ 12.38, 25.00] = [ 42.90,175.06] Ry
 Optimized for a Real-space Cutoff    1.16 Angstroem

   l    n(q)    QCUT    max X(q) W(low)/X(q) W(high)/X(q)  e(spline)
   0      9    12.378    20.381    0.16E-03    0.67E-05    0.31E-06
   0      9    12.378    15.268    0.17E-03    0.81E-05    0.33E-06
   1      8    12.378     5.964    0.20E-03    0.16E-03    0.30E-06
   1      8    12.378     5.382    0.18E-03    0.14E-03    0.26E-06
  PAW_PBE Ca_sv 06Sep2000               :
  PAW_PBE Si 05Jan2001                  :
  PAW_PBE O 08Apr2002                   :

 POSCAR: Ca Si  O
  positions in direct lattice
 exchange correlation table for  LEXCH =        8
   RHO(1)=    0.500       N(1)  =     2000
   RHO(2)=  100.500       N(2)  =     4000

 ion  position               nearest neighbor table
   1  0.406  0.486  0.266- 101 2.19  91 2.23 128 2.26  58 2.28  59 2.30  87 2.44   7 2.70  53 2.78
                            43 2.86   8 3.03  28 3.12
   2  0.768  0.429  0.323- 105 2.12  85 2.20 124 2.41  79 2.42 121 2.43 111 2.53  10 2.77  43 3.00
                            39 3.07  31 3.11
   3  0.936  0.697  0.068-  74 2.10  60 2.12 134 2.18  41 2.80  37 2.85  17 2.95  25 3.00  44 3.10

   4  0.437  0.052  0.752- 119 2.05 106 2.43  80 2.51  88 2.56  34 2.85
   5  0.697  0.700  0.233- 134 2.14  96 2.29  57 2.30  85 2.33 121 2.49
   6  0.170  0.023  0.478-  88 2.25  84 2.26  70 2.32  42 2.78  54 3.11
   7  0.264  0.304  0.237-  99 1.96  83 2.07  59 2.37 126 2.41  16 2.64   1 2.70  28 2.90  32 2.95

[...]

  11  0.913  0.280  0.049-  63 2.02  97 2.11  61 2.26  90 2.33 111 2.43  93 2.56  24 2.69  18 2.73
                            37 2.79  52 2.97  44 3.13
  12  0.578  0.993  0.128-  75 2.07  76 2.16 117 2.30 100 2.50 130 2.55  51 2.62  18 2.88  16 2.92

[...]

  19  0.894  0.085  0.563- 122 2.33  81 2.38 133 2.39  64 2.42  77 2.54  49 2.98
  20  0.213  0.983  0.011-  89 2.07  62 2.21 109 2.44 130 2.48  24 2.65  54 2.75  41 2.97
  21  0.295  0.533  0.958- 104 2.11  82 2.22 125 2.47  98 2.47  30 2.60  41 3.11   8 3.11
  22  0.564  0.339  0.763-  68 1.90  73 2.21  69 2.23 106 2.35  55 2.51  40 2.67  33 2.86  49 2.97
                            34 3.14
  23  0.742  0.855  0.611- 131 2.08  80 2.09 114 2.55  13 3.06  36 3.15
  24  0.112  0.185  0.980-  61 1.97  83 2.02 132 2.32  97 2.49  20 2.65  48 2.68  11 2.69  52 3.02
                            32 3.03
  25  0.136  0.757  0.220-  60 2.13  89 2.21  74 2.40   3 3.00  54 3.09
  26  0.267  0.648  0.632-  86 1.83  67 2.26 125 2.35  94 2.40 113 2.56  70 2.57  42 2.86
  27  0.904  0.344  0.769-  97 1.96  93 2.06  64 2.20 122 2.37  52 2.81  30 3.03  49 3.14
  28  0.248  0.401  0.466-  87 1.53 126 1.55  94 1.72  91 2.14  14 2.80  33 2.87   7 2.90  53 3.07
                             1 3.12
  29  0.579  0.725  0.804- 118 1.64 127 1.65 123 1.67 112 1.67 116 1.99  40 2.73  47 2.84  51 2.93
                            46 3.06
  30  0.088  0.475  0.900-  82 1.52 120 1.58 104 1.71  97 1.77  21 2.60  44 2.95  27 3.03
  31  0.975  0.592  0.368- 135 1.42 115 1.45 121 1.48  60 2.04  36 2.97  44 3.01   2 3.11  10 3.14

[...]

  40  0.686  0.519  0.837- 116 1.60 107 1.84 112 1.87  66 1.90  37 2.60  22 2.67  29 2.73
  41  0.137  0.748  0.946-  89 1.65  62 1.77 110 1.84 125 1.88  98 1.89  82 2.51   3 2.80  47 2.84
                            20 2.97  35 3.00  21 3.11
  42  0.338  0.871  0.554-  88 1.65  70 1.66 108 1.70  86 1.75  65 2.39  50 2.70   6 2.78  26 2.86

  43  0.597  0.412  0.130-  58 1.71 101 1.74  92 1.79 111 1.83  66 2.30  85 2.31   1 2.86  37 2.89
                            16 2.92   2 3.00
  44  0.063  0.478  0.153-  60 1.70  90 1.71  63 1.80  82 1.91  59 1.94  30 2.95  31 3.01   3 3.10
                            11 3.13
  45  0.398  0.223  0.966- 117 1.61  99 1.87 132 1.98  92 2.02  68 2.16  16 2.74
  46  0.537  0.681  0.548-  67 1.46 131 1.55 123 1.66 108 2.13  53 2.67  29 3.06  10 3.07  50 3.13

[...]

  48  0.110  0.113  0.761- 122 1.60  84 1.86  71 1.88  72 1.94 132 2.37  35 2.53  24 2.68  52 2.70

  49  0.727  0.279  0.575-  69 1.50  55 1.64 124 1.68  64 1.86  15 2.67  34 2.92  22 2.97  19 2.98
                            39 3.12  27 3.14
  50  0.396  0.789  0.345-  65 1.53 128 1.55 108 1.83  57 1.89  42 2.70  54 2.88   8 2.91  13 2.93
                            46 3.13
  51  0.686  0.845  0.998- 134 1.55 118 1.61  76 1.65  75 1.84  12 2.62  29 2.93
  52  0.897  0.118  0.853-  93 1.52  61 1.70  78 1.78 122 2.07  72 2.14  48 2.70  27 2.81  34 2.87
                            18 2.95  11 2.97  24 3.02  17 3.11
  53  0.504  0.464  0.483-  79 1.50  91 1.66  73 1.80  67 1.99  69 2.53  46 2.67   1 2.78  28 3.07
                            15 3.13
  54  0.280  0.980  0.238- 130 1.47 102 1.59 109 1.68  65 1.99  20 2.75  50 2.88  32 2.98  25 3.09
                             6 3.11
  55  0.665  0.182  0.657-  34 1.39  49 1.64  15 2.48  22 2.51
  56  0.957  0.057  0.198-  32 1.70  17 2.08  38 2.31
  57  0.538  0.810  0.268-  50 1.89   5 2.30  13 2.35   8 2.50
  58  0.562  0.368  0.266-  43 1.71   1 2.28  16 2.35
  59  0.215  0.501  0.218-  44 1.94   1 2.30   7 2.37
  60  0.027  0.611  0.201-  44 1.70  31 2.04   3 2.12  25 2.13
  61  0.963  0.104  0.982-  52 1.70  24 1.97  17 2.01  11 2.26
  62  0.200  0.861  0.866-  41 1.77  47 1.90  35 2.16  20 2.21
  63  0.026  0.329  0.172-  44 1.80  11 2.02  32 2.43
  64  0.886  0.292  0.588-  49 1.86  27 2.20  14 2.30  19 2.42
  65  0.284  0.857  0.356-  50 1.53  54 1.99  42 2.39
  66  0.698  0.412  0.960-  37 1.74  40 1.90  43 2.30
  67  0.434  0.610  0.540-  46 1.46  53 1.99  26 2.26
  68  0.408  0.313  0.803-  33 1.65  22 1.90  45 2.16
  69  0.665  0.388  0.607-  49 1.50  22 2.23  10 2.36  53 2.53
  70  0.202  0.833  0.530-  42 1.66   6 2.32  26 2.57
  71  0.183  0.217  0.661-  48 1.88  33 2.14
  72  0.038  0.999  0.859-  35 1.68  48 1.94  52 2.14
  73  0.511  0.471  0.638-  53 1.80  22 2.21
  74  0.934  0.802  0.215-  38 1.60   3 2.10  25 2.40  17 2.53
  75  0.741  0.980  0.059-  51 1.84  12 2.07  18 2.31  17 2.35
  76  0.566  0.818  0.068-  51 1.65   8 2.13  12 2.16
  77  0.706  0.060  0.455-  39 1.92  13 2.03  19 2.54
  78  0.772  0.036  0.819-  34 1.59  52 1.78
  79  0.598  0.512  0.410-  53 1.50  10 2.41   2 2.42
  80  0.627  0.966  0.692-  34 1.72  23 2.09   4 2.51
  81  0.987  0.920  0.640-  35 1.58  36 2.04  19 2.38
  82  0.112  0.543  0.009-  30 1.52  44 1.91  21 2.22  41 2.51
  83  0.172  0.183  0.143-  32 1.63  24 2.02   7 2.07
  84  0.166  0.994  0.670-  48 1.86  35 1.91   6 2.26
  85  0.759  0.524  0.160-  37 1.71   2 2.20  43 2.31   5 2.33
  86  0.342  0.780  0.675-  42 1.75  26 1.83  47 2.10
  87  0.239  0.509  0.391-  28 1.53   1 2.44
  88  0.347  0.012  0.555-  42 1.65   6 2.25   4 2.56
  89  0.114  0.840  0.051-  41 1.65  20 2.07  25 2.21  17 2.39
  90  0.929  0.475  0.092-  37 1.65  44 1.71  11 2.33
  91  0.422  0.368  0.416-  53 1.66  28 2.14   1 2.23  15 2.51
  92  0.526  0.323  0.027-  43 1.79  45 2.02  16 2.44
  93  0.817  0.221  0.861-  52 1.52  27 2.06  18 2.26  11 2.56
  94  0.296  0.447  0.598-  28 1.72  33 1.79  26 2.40
  95  0.390  0.219  0.612-  33 1.64  15 2.13
  96  0.748  0.884  0.279-  38 1.57   5 2.29  13 2.54
  97  0.999  0.352  0.907-  30 1.77  27 1.96  11 2.11  24 2.49
  98  0.275  0.733  0.030-  41 1.89   8 2.17  47 2.43  21 2.47
  99  0.337  0.312  0.084-  45 1.87   7 1.96  16 2.28
 100  0.569  0.103  0.313-  39 2.01  16 2.23  13 2.26  15 2.42  12 2.50
 101  0.501  0.525  0.108-  43 1.74   8 2.14   1 2.19
 102  0.347  0.059  0.327-  54 1.59
 103  0.081  0.188  0.356-  32 1.55  14 2.03
 104  0.211  0.423  0.841-  30 1.71  21 2.11  33 2.56
 105  0.833  0.260  0.344-  39 1.63   2 2.12
 106  0.598  0.155  0.838-  34 1.63  22 2.35  18 2.43   4 2.43
 107  0.801  0.584  0.924-  37 1.57  40 1.84
 108  0.459  0.834  0.483-  42 1.70  50 1.83  13 2.07  46 2.13
 109  0.139  0.993  0.207-  54 1.68  32 1.84  20 2.44
 110  0.004  0.802  0.878-  41 1.84  35 1.96   9 2.22
 111  0.728  0.325  0.136-  43 1.83  18 2.30  11 2.43  37 2.52   2 2.53
 112  0.687  0.651  0.745-  29 1.67  40 1.87
 113  0.069  0.739  0.667-  36 1.65  35 2.15   9 2.20  26 2.56
 114  0.878  0.685  0.585-  36 1.68   9 2.08  10 2.18  23 2.55
[...]
 121  0.851  0.617  0.358-  31 1.48  10 2.38   2 2.43   5 2.49
 122  0.994  0.170  0.714-  48 1.60  52 2.07  19 2.33  27 2.37
 123  0.529  0.751  0.672-  46 1.66  29 1.67
 124  0.668  0.293  0.444-  49 1.68  15 2.06  39 2.08   2 2.41
 125  0.201  0.666  0.822-  41 1.88  26 2.35  47 2.45  21 2.47
 126  0.244  0.271  0.440-  28 1.55   7 2.41
 127  0.441  0.716  0.835-  47 1.49  29 1.65
 128  0.357  0.672  0.295-  50 1.55   1 2.26   8 2.29
 129  0.775  0.117  0.208-  39 1.65  18 2.46
 130  0.366  0.942  0.154-  54 1.47  20 2.48  12 2.55
 131  0.654  0.734  0.514-  46 1.55  23 2.08  10 2.51
 132  0.277  0.145  0.875-  45 1.98  24 2.32  48 2.37
 133  0.931  0.940  0.423-  38 1.67  19 2.39
 134  0.760  0.761  0.072-  51 1.55   5 2.14   3 2.18
 135  0.029  0.684  0.426-  31 1.42  36 1.81

IMPORTANT INFORMATION: All symmetrisations will be switched off!
NOSYMM: (Re-)initialisation of all symmetry stuff for point group C_1.

Automatic generation of k-mesh.
 generate k-points for:    2    2    2
Space group operators:
[...]
     0.000000000  0.000000000 11.628173330     0.000000000  0.000000000  0.085998030

  length of vectors
    11.628173330 11.628173330 11.628173330     0.085998030  0.085998030  0.085998030

 FORCES acting on ions
    electron-ion (+dipol)            ewald-force                    non-local-force                 convergence-correction
   0.183E+02 -.124E+03 0.501E+01   -.181E+02 0.129E+03 -.543E+01   -.941E+00 -.251E+01 0.460E+00   0.306E-02 -.545E-03 0.885E-03
   -.115E+03 -.636E+02 -.996E+02   0.113E+03 0.587E+02 0.918E+02   0.160E+01 0.380E+01 0.557E+01   0.276E-03 -.243E-02 0.102E-02
   0.515E+02 0.358E+02 0.165E+03   -.569E+02 -.357E+02 -.160E+03   0.365E+01 -.920E+00 -.572E+01   -.732E-03 0.753E-03 0.359E-03
   0.351E+02 0.269E+02 0.697E+02   -.375E+02 -.281E+02 -.683E+02   0.126E+01 0.197E+01 -.275E+01   0.955E-03 0.587E-03 -.377E-03
   0.816E+02 0.851E+02 -.131E+03   -.799E+02 -.806E+02 0.128E+03   -.191E+01 -.402E+01 0.302E+01   0.433E-03 0.787E-03 0.562E-03
   0.148E+03 -.955E+02 0.588E+02   -.141E+03 0.948E+02 -.557E+02   -.581E+01 0.159E+01 -.346E+01   -.578E-03 0.908E-03 -.118E-02
   0.662E+02 -.936E+01 -.133E+03   -.752E+02 0.989E+01 0.130E+03   0.584E+01 0.228E+00 0.497E+01   0.583E-03 -.250E-02 0.730E-03
   -.137E+02 0.323E+02 0.104E+03   0.151E+02 -.285E+02 -.104E+03   -.111E+01 -.181E+01 -.379E+00   0.865E-03 0.868E-03 0.244E-03
   0.113E+03 0.628E+02 0.530E+02   -.109E+03 -.667E+02 -.503E+02   -.565E+01 0.308E+01 0.224E+00   0.392E-03 -.249E-03 -.792E-03
   -.166E+03 0.271E+02 -.148E+03   0.163E+03 -.205E+02 0.150E+03   0.202E+01 -.514E+01 -.417E+00   -.575E-03 -.103E-02 -.672E-03
   0.582E+02 -.168E+02 -.578E+02   -.573E+02 0.214E+02 0.633E+02   -.358E+01 -.439E+01 -.271E+01   -.139E-02 -.203E-02 0.241E-02
   0.875E+02 0.175E+02 0.191E+02   -.896E+02 -.230E+02 -.161E+02   -.575E+00 0.462E+01 0.174E+00   0.295E-02 0.185E-02 0.197E-02
   -.877E+01 0.360E+02 -.908E+02   0.107E+02 -.339E+02 0.834E+02   -.113E+01 -.195E+01 0.459E+01   0.126E-02 0.172E-02 -.160E-02
   -.406E+02 -.600E+02 -.276E+03   0.392E+02 0.572E+02 0.272E+03   0.545E+00 0.389E+00 0.560E+01   -.222E-02 -.521E-03 -.222E-03
   0.163E+03 0.130E+03 -.474E+02   -.169E+03 -.129E+03 0.435E+02   0.182E+01 -.243E+01 0.219E+01   0.134E-02 0.765E-03 -.954E-03
   0.334E+02 0.544E+02 -.881E+02   -.281E+02 -.556E+02 0.883E+02   -.398E+01 0.111E+01 0.204E+01   0.241E-02 -.137E-02 0.139E-02
   0.117E+03 0.136E+03 0.416E+02   -.119E+03 -.133E+03 -.379E+02   0.392E+00 -.509E+01 -.321E+01   -.165E-02 0.156E-02 0.262E-02
   0.127E+03 0.397E+02 0.514E+02   -.131E+03 -.383E+02 -.506E+02   0.136E+01 -.855E+00 -.502E+00   0.119E-02 -.176E-02 0.395E-02
   -.481E+02 0.292E+02 0.731E+02   0.484E+02 -.305E+02 -.769E+02   -.204E+00 0.724E+00 0.174E+01   -.118E-02 0.714E-03 -.197E-02
   -.198E+03 -.909E+02 0.303E+02   0.205E+03 0.836E+02 -.320E+02   -.371E+01 0.715E+01 0.940E+00   -.153E-03 -.128E-03 0.124E-02
   -.219E+03 0.930E+02 0.668E+02   0.218E+03 -.926E+02 -.699E+02   0.458E+01 -.485E-01 0.326E+01   0.430E-03 -.243E-04 -.162E-02
   -.255E+02 -.995E+02 -.108E+03   0.237E+02 0.101E+03 0.107E+03   0.518E+01 -.988E+00 0.132E+01   -.165E-02 0.120E-02 -.381E-02
   -.166E+03 -.505E+02 -.182E+02   0.160E+03 0.474E+02 0.194E+02   0.628E+01 0.219E+01 -.456E+00   0.212E-03 0.193E-03 -.935E-03
   -.209E+03 -.189E+03 0.177E+03   0.214E+03 0.195E+03 -.176E+03   -.100E+01 -.189E+01 -.207E+01   -.106E-02 0.192E-04 0.157E-02
   -.136E+03 0.782E+01 -.256E+03   0.135E+03 -.884E+01 0.255E+03   0.238E+01 0.133E+01 0.259E+01   -.100E-02 0.155E-02 -.206E-04
   0.219E+03 0.278E+03 0.751E+02   -.222E+03 -.278E+03 -.730E+02   -.206E+01 -.438E+01 -.278E+01   0.594E-03 -.244E-02 -.113E-03
   -.481E+02 -.277E+03 0.285E+03   0.497E+02 0.277E+03 -.284E+03   -.186E+01 0.284E+01 -.318E+01   0.589E-03 -.165E-03 -.117E-02
   0.102E+03 -.223E+02 -.119E+03   -.101E+03 0.224E+02 0.110E+03   0.373E+01 -.290E+00 0.111E+02   0.229E-03 -.691E-03 0.110E-02
   0.862E+01 -.334E+02 -.721E+02   -.663E+01 0.299E+02 0.642E+02   -.252E+01 -.736E+00 0.521E+01   0.296E-04 0.192E-04 -.238E-05
   -.361E+02 0.506E+02 0.920E+02   0.354E+02 -.462E+02 -.976E+02   -.951E-01 -.962E+01 -.262E+01   -.200E-03 -.272E-04 -.644E-03
   -.459E+02 0.639E+01 -.575E+02   0.415E+02 -.783E+01 0.641E+02   0.319E+01 0.538E+00 -.145E+02   -.645E-03 -.106E-03 0.462E-03
   0.376E+02 0.326E+01 -.770E+02   -.364E+02 -.279E+01 0.824E+02   -.336E+01 -.344E+01 -.636E+01   -.138E-02 -.316E-03 0.164E-03
   0.130E+03 -.669E+02 -.301E+02   -.121E+03 0.568E+02 0.258E+02   -.115E+02 0.783E+01 0.299E+01   0.760E-03 0.788E-03 -.414E-03
   -.276E+02 0.834E+02 0.125E+02   0.199E+02 -.829E+02 -.933E+01   0.427E+01 -.130E+02 0.787E+01   0.401E-04 0.155E-03 -.173E-03
   -.165E+01 0.457E+02 0.336E+02   -.622E+00 -.396E+02 -.389E+02   0.860E+01 -.108E+02 0.658E+01   -.359E-03 -.339E-03 -.249E-03
   -.119E+02 -.423E+02 0.103E+03   0.125E+02 0.297E+02 -.902E+02   0.140E+01 0.115E+02 -.136E+02   -.457E-03 -.353E-03 -.105E-03
   0.239E+02 -.541E+01 0.574E+02   -.267E+02 0.119E+02 -.558E+02   0.244E+00 -.795E+01 0.384E+01   0.346E-03 0.815E-04 0.476E-03
   -.491E+02 -.498E+02 -.965E+02   0.395E+02 0.405E+02 0.967E+02   0.906E+01 0.110E+02 0.873E+00   -.504E-03 0.110E-02 -.362E-03
   -.877E+00 0.361E+02 -.401E+02   0.110E+02 -.371E+02 0.315E+02   -.118E+02 -.159E+01 0.842E+01   0.939E-03 -.500E-03 -.172E-02
   -.517E+02 0.459E+02 0.548E+02   0.433E+02 -.442E+02 -.571E+02   0.988E+01 0.158E+01 0.270E+01   -.332E-03 0.171E-03 -.385E-03
   0.146E+02 0.130E+03 0.281E+02   -.749E+01 -.120E+03 -.309E+02   -.135E+01 -.885E+01 -.247E+01   -.189E-03 0.364E-04 0.423E-04
   -.160E+02 -.562E+01 -.198E+02   0.963E+01 0.116E+02 0.223E+02   0.394E+01 -.488E+01 0.528E+00   0.435E-03 0.226E-03 -.329E-03
   -.487E+01 -.794E+02 0.554E+02   -.167E+01 0.738E+02 -.500E+02   0.633E+01 0.374E+01 -.690E+01   0.361E-03 -.462E-03 0.668E-03
   -.841E+02 0.399E+02 -.362E+02   0.836E+02 -.381E+02 0.384E+02   0.312E+01 -.246E+01 -.652E+00   -.124E-02 -.360E-03 -.608E-04
   0.466E+02 -.557E+02 0.119E+03   -.445E+02 0.489E+02 -.106E+03   -.303E+01 0.104E+02 -.120E+02   0.342E-03 -.678E-04 0.441E-04
   -.285E+02 0.253E+02 0.377E+02   0.257E+02 -.235E+02 -.325E+02   0.620E+01 0.497E+01 -.133E+01   0.186E-04 -.118E-02 -.132E-03
   0.225E+01 -.138E+02 -.969E+01   0.892E+01 0.167E+02 0.883E+01   -.182E+02 0.373E+01 0.597E+00   0.723E-04 -.296E-04 0.276E-03
   -.866E+02 -.498E+02 0.135E+02   0.862E+02 0.539E+02 -.240E+02   0.812E+01 -.392E+01 0.448E+01   -.143E-03 0.818E-04 -.352E-03
   -.139E+03 0.364E+02 -.148E+02   0.130E+03 -.213E+02 0.131E+02   0.142E+02 -.155E+02 -.256E+01   -.181E-03 0.229E-03 -.693E-03
   -.385E+02 0.151E+02 -.270E+02   0.299E+02 -.202E+02 0.194E+02   0.156E+02 0.460E+01 0.573E+01   0.562E-03 0.148E-03 -.420E-04
   0.135E+02 -.445E+02 0.121E+03   -.151E+02 0.345E+02 -.111E+03   0.721E+00 0.111E+02 -.661E+01   0.225E-03 0.526E-03 0.480E-03
   -.331E+02 0.886E+02 0.111E+03   0.228E+02 -.788E+02 -.106E+03   0.118E+02 -.146E+02 -.663E+01   -.648E-03 0.377E-04 0.353E-03
   0.575E+02 -.122E+02 -.595E+02   -.512E+02 0.120E+02 0.557E+02   -.106E+02 -.165E+01 0.113E+02   0.532E-03 -.124E-03 0.181E-02
   0.507E+02 0.488E+01 -.561E+02   -.359E+02 -.607E+00 0.528E+02   -.159E+02 -.282E+01 0.101E+02   0.516E-04 0.275E-03 0.301E-04
   -.224E+02 0.302E+02 0.391E+02   0.478E+01 -.156E+02 -.537E+02   0.186E+02 -.500E+01 0.348E+01   -.645E-04 0.640E-03 -.951E-03
   0.391E+02 -.173E+02 -.188E+03   -.591E+02 0.145E+02 0.185E+03   0.210E+02 0.385E+01 0.466E+01   -.304E-02 0.149E-02 0.707E-03
   0.146E+02 0.331E+02 -.380E+02   -.198E+01 -.299E+02 0.274E+02   -.166E+02 -.348E+01 0.138E+02   0.646E-03 0.684E-03 0.122E-03
   -.169E+02 0.793E+01 -.294E+02   0.157E+02 -.152E+02 0.541E+02   0.132E+01 0.752E+01 -.283E+02   0.108E-02 -.101E-02 0.758E-03
   0.264E+02 -.591E+02 0.360E+02   -.190E+02 0.685E+02 -.272E+02   -.103E+02 -.114E+02 -.138E+02   0.294E-03 0.186E-03 -.152E-02
   -.416E+02 0.300E+02 -.115E+03   0.378E+02 -.159E+02 0.117E+03   0.358E+01 -.154E+02 0.824E+00   -.146E-02 0.633E-03 0.293E-03
[...]
   -.508E+02 -.641E+02 0.111E+03   0.395E+02 0.826E+02 -.129E+03   0.721E+01 -.200E+02 0.204E+02   -.102E-02 0.330E-03 -.848E-03
   -.726E+01 -.634E+02 -.270E+02   -.670E+01 0.801E+02 0.271E+02   0.162E+02 -.159E+02 -.394E+00   0.418E-03 -.940E-03 -.551E-03
   -.463E+02 -.148E+02 0.145E+02   0.379E+02 0.275E+02 -.331E+02   0.970E+01 -.145E+02 0.184E+02   0.767E-03 -.475E-03 -.580E-03
   -.160E+02 0.123E+03 0.966E+02   0.164E+02 -.128E+03 -.112E+03   -.257E+00 0.528E+01 0.185E+02   -.231E-03 -.475E-03 -.315E-03
   0.453E+02 0.886E+02 -.113E+03   -.423E+02 -.125E+03 0.111E+03   -.490E+01 0.364E+02 0.233E+01   0.131E-03 -.476E-03 0.309E-03
   -.621E+00 0.836E+02 -.814E+02   0.823E+00 -.116E+03 0.762E+02   0.250E+01 0.291E+02 0.901E+01   0.149E-03 -.373E-03 0.257E-04
   0.668E+02 0.249E+02 -.689E+02   -.820E+02 -.513E+02 0.619E+02   0.154E+02 0.246E+02 0.643E+01   0.106E-02 0.846E-03 0.336E-03
   -.327E+02 0.347E+02 -.618E+02   0.453E+02 -.451E+02 0.419E+02   -.153E+02 0.110E+02 0.200E+02   0.726E-03 0.915E-03 0.133E-02
   -.629E+02 0.529E+02 0.543E+02   0.936E+02 -.646E+02 -.788E+02   -.284E+02 0.910E+01 0.187E+02   0.355E-03 0.352E-03 0.400E-03
   -.794E+02 0.111E+02 0.940E+02   0.104E+03 -.751E+00 -.104E+03   -.227E+02 -.116E+02 0.703E+01   0.219E-03 -.409E-03 -.446E-03
   -.282E+02 -.645E+02 0.981E+02   0.280E+02 0.601E+02 -.109E+03   0.152E+00 0.469E+01 0.130E+02   0.758E-03 0.472E-04 0.268E-03
   -.501E+02 0.218E+02 -.421E+02   0.576E+02 -.137E+02 0.609E+02   -.685E+01 -.942E+01 -.189E+02   -.810E-03 0.800E-03 -.943E-03
   0.251E+02 0.427E+02 0.849E+02   -.144E+02 -.590E+02 -.708E+02   -.680E+01 0.147E+02 -.145E+02   0.103E-03 0.734E-03 0.488E-03
   -.122E+03 -.553E+02 -.115E+03   0.147E+03 0.772E+02 0.121E+03   -.186E+02 -.110E+02 0.832E+00   -.844E-03 -.427E-04 0.341E-03
   -.757E+02 0.745E+02 0.388E+01   0.125E-11 0.938E-12 -.881E-12   0.757E+02 -.744E+02 -.390E+01   0.162E-02 -.188E-02 0.607E-02

 POSITION                                       TOTAL-FORCE (eV/Angst)
      4.72136      5.65330      3.09379        -0.705856      1.749954      0.032343
      8.92756      4.98273      3.75600        -0.794441     -1.031983     -2.260606
     10.88204      8.10142      0.79553        -1.782890     -0.802695     -1.523502
      5.08706      0.60382      8.74362        -1.155724      0.772860     -1.324584
      8.11053      8.13663      2.71517        -0.268345      0.415755      0.764085
      1.98042      0.27308      5.56330         1.205308      0.967834     -0.359499
      3.07490      3.53995      2.75153        -3.198444      0.755327      2.789438
      5.07995      8.10348      1.35399         0.294127      1.983747     -0.226334
     10.62785      7.92764      8.83368        -1.459364     -0.781469      2.865866
      8.87286      6.37006      6.15576        -1.158745      1.455893      1.212159
     10.61483      3.25209      0.57404        -2.724001      0.178913      2.788088
      6.71983     11.54724      1.49093        -2.649309     -0.847376      3.203245
      6.81594     10.91746      4.83770         0.831174      0.085882     -2.713601
      0.24815      3.76330      5.20937        -0.865939     -2.361112      1.312210
      6.14412      2.27885      5.74352        -3.762183     -2.175583     -1.672833
      5.40102      2.41445      2.21993         1.325165     -0.171021      2.225409
     10.93677     11.04551      0.65734        -1.355123     -2.875991      0.424777
      8.23414      1.98508      0.16462        -2.365119      0.588038      0.337243
     10.39142      0.99227      6.54472         0.124349     -0.561843     -2.004256
      2.47525     11.42655      0.12581         3.919657     -0.146051     -0.794869
      3.43336      6.20194     11.14523         3.335915      0.357111      0.171545
      6.55648      3.94732      8.87341         3.437001      0.642930      0.625761
      8.62746      9.94494      7.10763         0.483184     -0.850631      0.743989
      1.30591      2.15067     11.39902         3.909467      4.872507     -1.106431
      1.57616      8.80097      2.56104         2.219506      0.303201      1.709156
      3.10383      7.53864      7.34991        -4.706626     -4.910261     -0.707014
     10.51291      4.00411      8.93785        -0.277113      3.229454     -2.868497
      2.88642      4.66823      5.41662         4.645923     -0.225256      2.643303
      6.73503      8.43430      9.35022        -0.540981     -4.197654     -2.677495
      1.01747      5.52734     10.46672        -0.805939     -5.173577     -8.223701
     11.33790      6.87959      4.27957        -1.229747     -0.897936     -7.918575
      0.88172      1.57419      2.71120        -2.112874     -2.967977     -1.000424
      3.84781      3.77319      7.96324        -2.800356     -2.219344     -1.380239
      7.88688      1.11596      8.60173        -3.505974    -12.396899     11.040602
      0.67803     10.48584      8.76823         6.334512     -4.710824      1.342218
     11.53247      8.92826      6.42335         1.997957     -1.085351     -0.809834
      9.37804      5.73253      0.27264        -2.477056     -1.413710      5.394350
     10.24504     10.47728      3.42103        -0.462771      1.702033      1.143011
      8.46580      1.95132      3.85324        -1.679361     -2.582051     -0.174214
      7.97981      6.03177      9.73221         1.425611      3.308367      0.485017
      1.58752      8.69743     11.00295         5.749804      1.306523     -5.206965
      3.92564     10.12794      6.44741        -2.381733      1.124005      2.995644
      6.94211      4.79144      1.51655        -0.208253     -1.900318     -1.461387
      0.72953      5.55673      1.77587         2.575758     -0.720056      1.514136
      4.63288      2.59017     11.22813        -0.935924      3.584791      0.933677
      6.24008      7.92459      6.37086         3.361600      6.748376      3.885174
      4.11892      9.39930      9.91171        -7.041460      6.609326     -0.262295
      1.28442      1.31299      8.85467         7.755241      0.142113     -6.044032
      8.45139      3.24414      6.69126         5.446988     -0.319017     -4.321905
      4.60595      9.17825      4.01688         6.986593     -0.562666     -1.905091
      7.98256      9.82133     11.60542        -0.910061      1.024594      2.775315
     10.42771      1.36798      9.91569         1.503417     -4.832607     -0.745303
      5.85973      5.39466      5.61755        -4.273725     -1.855078      7.434305
      3.25014     11.39292      2.76484        -0.981616      1.457809      6.817101
      7.73836      2.11294      7.63874         0.916325      9.595923    -11.153574
     11.12799      0.66634      2.30660         0.964546      1.042201      1.505612
      6.25168      9.42184      3.11918        -4.054701     -0.264484      3.196154
      6.53431      4.27382      3.09380         0.200195      0.235713     -3.563953
      2.49543      5.82787      2.53832        -2.903583     -2.040154     -5.021822
      0.31535      7.10349      2.34118        -0.206695     -1.326343      2.606363
[...]
      9.89735      7.17611      4.16207        -7.866798     -0.377445     -0.016803
     11.56203      1.97421      8.29747        -4.106913     -1.424532      3.055164
      6.15357      8.73681      7.81570         2.220402      0.710931     -0.340780
      7.76711      3.40400      5.16373         1.260228     -1.794765     -0.222581
      2.33551      7.74869      9.56370         0.165156     -0.422108      3.612559
      2.83162      3.14872      5.11469        -1.901920      0.101245      0.197009
      5.13138      8.32803      9.70441         2.703472     -3.060961      3.747091
      4.14994      7.81864      3.42867         0.181307     -1.845351     -0.633401
      9.01677      1.36203      2.41634        -2.693265      0.516097      0.029411
      4.25721     10.95394      1.78800         2.204292     -2.609654     -5.715133
      7.60935      8.53168      5.97412         2.350887     -1.246909     -3.409884
      3.22113      1.68534     10.17083        -0.009733      0.325314      2.114763
     10.82100     10.92596      4.92042         0.596314     -1.275326      0.003835
      8.83267      8.84651      0.83504         3.897262     -1.644387     -0.346386
      0.33516      7.95781      4.95287         6.382492     10.905292      7.454129
    total drift:                               -0.005076      0.019145     -0.018751

  FREE ENERGIE OF THE ION-ELECTRON SYSTEM (eV)
  free  energy   TOTEN  =      -878.17851700 eV

  energy  without entropy=     -878.14691880  energy(sigma->0) =     -878.16271790