 vasp.5.4.4.18Apr17-6-g9f103f2a35 (build Mar 16 2023 09:39:13) complex

 executed on             LinuxIFC date 2024.04.30  08:20:10

 INCAR:
 POTCAR:    PAW_PBE Ca_sv 06Sep2000
 POTCAR:    PAW_PBE Si 05Jan2001
 POTCAR:    PAW_PBE O 08Apr2002
 POTCAR:    PAW_PBE Ca_sv 06Sep2000
   VRHFIN =Ca: 3s3p4s

   TITEL  = PAW_PBE Ca_sv 06Sep2000
   POMASS =   40.078; ZVAL   =   10.000    mass and valenz
   ENMAX  =  266.622; ENMIN  =  199.967 eV

   TITEL  = PAW_PBE Si 05Jan2001
   POMASS =   28.085; ZVAL   =    4.000    mass and valenz
   ENMAX  =  245.345; ENMIN  =  184.009 eV

   TITEL  = PAW_PBE O 08Apr2002
   POMASS =   16.000; ZVAL   =    6.000    mass and valenz
   ENMAX  =  400.000; ENMIN  =  300.000 eV

 Optimization of the real space projectors (new method)

 maximal supplied QI-value         = 16.25
 optimisation between [QCUT,QGAM] = [ 12.51, 25.03] = [ 43.85,175.40] Ry
 Optimized for a Real-space Cutoff    1.47 Angstroem

   l    n(q)    QCUT    max X(q) W(low)/X(q) W(high)/X(q)  e(spline)
   0     11    12.514    11.817    0.25E-04    0.32E-05    0.87E-07
   0     11    12.514     8.461    0.39E-04    0.59E-05    0.18E-06
   1     11    12.514     3.957    0.97E-05    0.57E-05    0.28E-07
   1     11    12.514     4.314    0.42E-04    0.14E-04    0.23E-06
   2     10    12.514    14.565    0.79E-04    0.50E-03    0.16E-05
   2     10    12.514    14.552    0.75E-04    0.48E-03    0.15E-05
 Optimization of the real space projectors (new method)

[...]

   l    n(q)    QCUT    max X(q) W(low)/X(q) W(high)/X(q)  e(spline)
   0      9    12.501   159.560    0.10E-03    0.83E-04    0.71E-07
   0      9    12.501   115.863    0.99E-04    0.81E-04    0.70E-07
   1      8    12.501    88.339    0.20E-03    0.25E-03    0.76E-07
   1      8    12.501    48.592    0.20E-03    0.24E-03    0.75E-07
 Optimization of the real space projectors (new method)

 maximal supplied QI-value         = 24.76
 optimisation between [QCUT,QGAM] = [ 12.38, 25.00] = [ 42.90,175.06] Ry
 Optimized for a Real-space Cutoff    1.16 Angstroem

   l    n(q)    QCUT    max X(q) W(low)/X(q) W(high)/X(q)  e(spline)
   0      9    12.378    20.381    0.16E-03    0.67E-05    0.31E-06
   0      9    12.378    15.268    0.17E-03    0.81E-05    0.33E-06
   1      8    12.378     5.964    0.20E-03    0.16E-03    0.30E-06
   1      8    12.378     5.382    0.18E-03    0.14E-03    0.26E-06
  PAW_PBE Ca_sv 06Sep2000               :
  PAW_PBE Si 05Jan2001                  :
  PAW_PBE O 08Apr2002                   :

 POSCAR: Ca Si  O
  positions in direct lattice
 exchange correlation table for  LEXCH =        8
   RHO(1)=    0.500       N(1)  =     2000
   RHO(2)=  100.500       N(2)  =     4000

 ion  position               nearest neighbor table
   1  0.482  0.274  0.620-  66 2.04  73 2.29  85 2.31 106 2.37 107 2.48
   2  0.646  0.197  0.332- 122 2.30  63 2.33  76 2.37  98 2.45
   3  0.682  0.076  0.580- 127 2.26  63 2.38  66 2.50 121 2.51  10 2.96
   4  0.911  0.737  0.457- 120 2.05 119 2.46 126 2.46  51 2.95  16 3.13
   5  0.492  0.998  0.830-  67 1.91  94 2.12  79 2.38  84 2.46  35 2.67  47 3.16
   6  0.204  0.627  0.921-  65 2.06  82 2.18  92 2.23  61 2.39  47 2.69  11 3.00  39 3.09  28 3.15

   7  0.213  0.534  0.572- 112 2.12 133 2.20 118 2.21 111 2.23 102 2.26  52 2.46  17 2.95  21 3.07

[...]

  11  0.302  0.456  0.071-  62 2.11 100 2.12  92 2.27  90 2.41  41 2.60   6 3.00
  12  0.322  0.100  0.115-  81 2.16  84 2.27  43 2.92  35 3.10
  13  0.544  0.504  0.177-  98 2.19 113 2.20  55 2.22  91 2.38  31 2.91  54 3.09
  14  0.493  0.924  0.307-  63 2.21 123 2.24 125 2.25 104 2.47  42 2.62
  15  0.972  0.287  0.922- 115 2.36 130 2.40 109 2.41  95 2.48 134 2.55  48 3.09  20 3.13
  16  0.031  0.963  0.491-  87 1.94  71 2.13  74 2.21 126 2.31 121 2.46  29 2.98   4 3.13
  17  0.181  0.672  0.374-  78 2.10 112 2.35 133 2.38  75 2.47  74 2.54  45 2.61   7 2.95
  18  0.956  0.697  0.717- 116 2.30 102 2.40 119 2.48
  19  0.340  0.264  0.883-  67 2.19  90 2.42 107 2.51  60 2.55  92 2.56  39 2.98
  20  0.806  0.457  0.818-  80 2.16  64 2.31  86 2.41  96 2.51  30 2.82  15 3.13
  21  0.269  0.326  0.437-  77 2.16  85 2.33  73 2.52   7 3.07
  22  0.087  0.969  0.857-  59 2.04 135 2.12  68 2.17
  23  0.605  0.735  0.954-  94 2.14  91 2.29  86 2.41  79 2.42  35 2.88
  24  0.620  0.691  0.364- 108 2.07 123 2.14 114 2.33 124 2.36 131 2.37  55 2.51  45 2.76  49 2.98
                            46 3.07  31 3.13
  25  0.724  0.041  0.058- 129 2.29  57 2.35 104 2.38 109 2.45  35 3.07
  26  0.438  0.767  0.655-  99 2.00 132 2.40  38 3.02
  27  0.962  0.160  0.329-  71 2.15  70 2.18  83 2.57  32 2.97
  28  0.978  0.544  0.020-  61 1.54  64 1.67  93 1.82 130 1.93  95 2.23  50 2.51   6 3.15
  29  0.025  0.882  0.259-  74 1.54 128 1.72 103 1.87 126 1.97  50 2.53  16 2.98
  30  0.581  0.459  0.880-  86 1.60  80 1.64 101 1.70 113 1.82 107 1.85  39 2.54  20 2.82  53 3.12

[...]

  50  0.003  0.705  0.149-  61 1.59  75 1.62 128 1.77  89 1.80  93 2.45  28 2.51  29 2.53  46 2.99
                            37 3.04
  51  0.730  0.788  0.612- 132 1.59 108 1.69 119 1.73  97 2.26 127 2.29  49 2.76   4 2.95  10 3.05

  52  0.038  0.434  0.551- 102 1.60  72 1.60 110 1.67 111 1.73   7 2.46  36 2.89  34 3.08
  53  0.664  0.218  0.841-  80 1.66  66 1.69  57 1.72  60 1.90  54 3.05  30 3.12
  54  0.577  0.275  0.071-  56 1.46  69 1.48  60 1.85 113 1.88  53 3.05  13 3.09
  55  0.457  0.570  0.324-  31 1.72  45 1.84  13 2.22  24 2.51
  56  0.477  0.262  0.138-  54 1.46
  57  0.724  0.093  0.871-  53 1.72  25 2.35  10 2.46
  58  0.443  0.040  0.588-  42 1.66   8 2.24
  59  0.005  0.830  0.908-  37 1.47  22 2.04
  60  0.538  0.214  0.936-  54 1.85  53 1.90  19 2.55
  61  0.063  0.630  0.059-  28 1.54  50 1.59   6 2.39
  62  0.369  0.613  0.108-  44 1.64  11 2.11
  63  0.570  0.044  0.421-  42 1.65  14 2.21   2 2.33   3 2.38
  64  0.963  0.545  0.882-  28 1.67  20 2.31
  65  0.266  0.763  0.003-  47 1.73  44 1.92   6 2.06
  66  0.614  0.221  0.711-  53 1.69   1 2.04   3 2.50
  67  0.373  0.100  0.813-   5 1.91   8 2.03  19 2.19
  68  0.072  0.092  0.987-  32 1.57  22 2.17
  69  0.688  0.278  0.121-  54 1.48  48 1.78
  70  0.843  0.282  0.272-  48 1.63  27 2.18
  71  0.100  0.113  0.431-  43 1.86  16 2.13  27 2.15
  72  0.121  0.340  0.593-  52 1.60  34 1.61
  73  0.443  0.418  0.504-  31 1.44   1 2.29  21 2.52
  74  0.107  0.868  0.355-  29 1.54  16 2.21  17 2.54
  75  0.003  0.659  0.275-  50 1.62   9 2.31  17 2.47
  76  0.771  0.059  0.271-  33 1.74   2 2.37
  77  0.265  0.209  0.301-  43 1.58  21 2.16
  78  0.316  0.730  0.282-  45 1.77  44 1.88  17 2.10
  79  0.435  0.820  0.892-  47 1.54  35 2.34   5 2.38  23 2.42
  80  0.663  0.355  0.854-  30 1.64  53 1.66  20 2.16
  81  0.179  0.037  0.201-  43 1.77  12 2.16  32 2.52
  82  0.248  0.742  0.789-  47 1.61  38 2.04   6 2.18
  83  0.069  0.233  0.161-  41 1.52  32 2.03  27 2.57
  84  0.384  0.966  0.998-  35 1.52  12 2.27   5 2.46  47 2.48
  85  0.420  0.208  0.451-  42 1.65   1 2.31  21 2.33
  86  0.667  0.547  0.928-  30 1.60  23 2.41  20 2.41
  87  0.087  0.900  0.627-  38 1.62  16 1.94
  88  0.468  0.801  0.105-  44 1.54  35 1.78
  89  0.879  0.770  0.098-  50 1.80  37 1.85  46 2.15
  90  0.220  0.277  0.042-  41 1.68  11 2.41  19 2.42
  91  0.635  0.672  0.131-  46 1.60  23 2.29  13 2.38
  92  0.294  0.470  0.884-  39 1.51   6 2.23  11 2.27  19 2.56
  93  0.861  0.565  0.112-  46 1.68  28 1.82  50 2.45
  94  0.589  0.910  0.948-  35 1.59   5 2.12  23 2.14
  95  0.880  0.396  0.069-  48 1.64  28 2.23  15 2.48
  96  0.761  0.423  0.619-  36 1.54  49 2.00  20 2.51
  97  0.735  0.610  0.670-  49 1.55  51 2.26
  98  0.568  0.382  0.308-  31 1.81  13 2.19   2 2.45
  99  0.305  0.862  0.630-  38 1.42  26 2.00   8 2.45
 100  0.196  0.428  0.208-  41 1.61  11 2.12
 101  0.499  0.569  0.848-  30 1.70  39 1.72
 102  0.038  0.535  0.635-  52 1.60   7 2.26  18 2.40
 103  0.975  0.001  0.174-  32 1.46  29 1.87
 104  0.543  0.014  0.130-  35 1.61  25 2.38  14 2.47
 105  0.891  0.274  0.627-  36 1.62  40 1.69
 106  0.291  0.243  0.650-  34 1.74   8 2.28   1 2.37
 107  0.481  0.386  0.791-  39 1.71  30 1.85   1 2.48  19 2.51
 108  0.677  0.693  0.526-  49 1.64  51 1.69  24 2.07
 109  0.878  0.172  0.055-  48 1.80  32 1.90  15 2.41  25 2.45
 110  0.943  0.386  0.463-  52 1.67  36 1.85   9 2.19
 111  0.110  0.470  0.433-  52 1.73   7 2.23
[...]
 121  0.889  0.074  0.585-  40 1.59  10 2.36  16 2.46   3 2.51
 122  0.742  0.259  0.483-  36 1.51   2 2.30
 123  0.486  0.786  0.429-  45 1.66  24 2.14  14 2.24
 124  0.694  0.854  0.285-  33 1.56  24 2.36
 125  0.338  0.013  0.360-  43 1.80  42 1.84  14 2.25
 126  0.901  0.915  0.359-  33 1.69  29 1.97  16 2.31   4 2.46
 127  0.704  0.920  0.479-  33 1.72   3 2.26  51 2.29
 128  0.111  0.798  0.181-  29 1.72  50 1.77
 129  0.831  0.943  0.936-  37 1.76  25 2.29  10 2.35
 130  0.074  0.417  0.031-  41 1.74  28 1.93  15 2.40
 131  0.757  0.588  0.269-  46 1.54   9 2.23  24 2.37
 132  0.619  0.847  0.650-  51 1.59  26 2.40
 133  0.138  0.700  0.563-  38 1.99   7 2.20  17 2.38
 134  0.916  0.127  0.796-  40 1.73  10 2.16  15 2.55
 135  0.255  0.935  0.821-  47 1.69  22 2.12   8 2.30  38 2.54

IMPORTANT INFORMATION: All symmetrisations will be switched off!
NOSYMM: (Re-)initialisation of all symmetry stuff for point group C_1.

Automatic generation of k-mesh.
 generate k-points for:    2    2    2
Space group operators:
 irot       det(A)        alpha          n_x          n_y          n_z        tau_x        tau_y        tau_z
    1     1.000000     0.000000     1.000000     0.000000     0.000000     0.000000     0.000000     0.000000

 Subroutine IBZKPT returns following result:

 Found      8 irreducible k-points:

 Following reciprocal coordinates:
            Coordinates               Weight
  0.000000  0.000000  0.000000      1.000000
  0.500000  0.000000  0.000000      1.000000
  0.000000  0.500000  0.000000      1.000000
  0.500000  0.500000  0.000000      1.000000
  0.000000  0.000000  0.500000      1.000000
  0.500000  0.000000  0.500000      1.000000
  0.000000  0.500000  0.500000      1.000000
  0.500000  0.500000  0.500000      1.000000

 Following cartesian coordinates:
            Coordinates               Weight
  0.000000  0.000000  0.000000      1.000000
  0.041344  0.000000  0.000000      1.000000
  0.000000  0.041344  0.000000      1.000000
  0.041344  0.041344  0.000000      1.000000
  0.000000  0.000000  0.041344      1.000000
  0.041344  0.000000  0.041344      1.000000
  0.000000  0.041344  0.041344      1.000000
  0.041344  0.041344  0.041344      1.000000

 SYSTEM =  unknown system
 POSCAR =  Ca Si  O

 Startparameter for this run:
   NWRITE =      2    write-flag & timer
   PREC   = a         normal or accurate (medium, high low for compatibility)
   ISTART =      0    job   : 0-new  1-cont  2-samecut
   ICHARG =      2    charge: 1-file 2-atom 10-const
   ISPIN  =      1    spin polarized calculation?
   LNONCOLLINEAR =      F non collinear calculations
   LSORBIT =      F    spin-orbit coupling
   INIWAV =      1    electr: 0-lowe 1-rand  2-diag
   LASPH  =      F    aspherical Exc in radial PAW
   METAGGA=      F    non-selfconsistent MetaGGA calc.

[...]
     0.000000000  0.000000000 12.093787620     0.000000000  0.000000000  0.082687081

  length of vectors
    12.093787620 12.093787620 12.093787620     0.082687081  0.082687081  0.082687081

 FORCES acting on ions
    electron-ion (+dipol)            ewald-force                    non-local-force                 convergence-correction
   -.655E+02 -.108E+03 0.418E+02   0.631E+02 0.108E+03 -.412E+02   0.574E+00 0.509E+00 -.624E+00   -.646E-03 0.876E-03 -.790E-03
   0.851E+02 -.732E+02 0.637E+02   -.836E+02 0.756E+02 -.625E+02   -.175E+01 -.743E+00 -.189E+01   0.241E-02 0.802E-03 0.169E-02
   0.256E+02 -.652E+02 -.947E+02   -.273E+02 0.653E+02 0.899E+02   0.911E+00 0.311E+00 0.407E+01   0.167E-02 -.178E-02 -.628E-03
   -.586E+02 -.283E+02 0.318E+02   0.575E+02 0.257E+02 -.322E+02   0.196E+01 0.335E+01 -.419E+00   0.145E-03 -.198E-02 0.672E-03
   -.211E+03 -.818E+01 0.153E+03   0.208E+03 0.102E+02 -.150E+03   0.502E+01 -.205E+01 -.417E+01   -.796E-03 -.220E-02 -.887E-03
   0.152E+03 0.913E+02 0.569E+02   -.150E+03 -.911E+02 -.590E+02   -.317E+01 -.251E+01 0.112E+01   -.262E-02 0.904E-03 -.747E-03
   -.972E+02 0.120E+03 -.109E+03   0.998E+02 -.112E+03 0.114E+03   -.235E+00 -.653E+01 -.185E+01   -.259E-02 0.126E-02 -.994E-03
   0.107E+03 -.190E+01 0.162E+03   -.983E+02 0.310E+01 -.158E+03   -.808E+01 -.181E+01 -.422E+01   -.157E-02 -.179E-02 0.401E-03
   -.614E+02 0.161E+03 0.148E+03   0.595E+02 -.159E+03 -.146E+03   0.214E+01 -.249E+01 -.386E+01   0.619E-03 0.130E-02 0.161E-02
   0.943E+02 0.101E+03 -.760E+02   -.926E+02 -.985E+02 0.821E+02   -.254E+01 -.279E+01 -.322E+01   0.158E-02 -.272E-02 -.539E-03
   -.483E+02 0.244E+02 -.942E+02   0.481E+02 -.263E+02 0.953E+02   0.167E+01 0.170E+00 -.140E+01   -.302E-02 0.157E-02 0.826E-03
   -.235E+02 -.253E+02 -.205E+02   0.215E+02 0.266E+02 0.197E+02   0.247E+01 0.643E+00 0.154E+00   -.280E-02 -.126E-02 -.693E-03
   -.993E+01 0.468E+02 0.374E+02   0.108E+02 -.492E+02 -.389E+02   -.123E+00 0.227E+01 0.356E-01   0.924E-03 0.294E-02 0.229E-02
   0.990E+02 -.300E+01 0.118E+03   -.945E+02 0.387E+01 -.118E+03   -.272E+01 -.168E+01 -.247E+01   0.387E-03 -.306E-02 0.138E-02
   0.468E+02 -.475E+02 0.132E+03   -.398E+02 0.439E+02 -.129E+03   -.487E+01 0.231E+01 -.244E+01   0.881E-03 0.141E-02 -.510E-03
   -.475E+02 -.367E+02 0.193E+02   0.489E+02 0.389E+02 -.194E+02   -.304E+01 -.862E+00 -.618E+00   -.327E-03 -.207E-02 0.882E-03
   0.126E+02 0.539E+02 0.125E+03   -.167E+02 -.516E+02 -.123E+03   0.118E+00 -.235E+01 -.102E+01   -.117E-02 -.121E-02 0.852E-03
   -.597E+02 0.478E+02 -.826E+02   0.570E+02 -.508E+02 0.855E+02   0.271E+01 0.178E+01 -.191E+01   -.192E-04 -.107E-02 -.525E-03
   0.687E+02 -.172E+02 -.604E+02   -.693E+02 0.129E+02 0.587E+02   0.259E+00 0.352E+01 0.151E+01   -.270E-02 -.840E-04 -.904E-03
   -.112E+03 0.186E+02 0.390E+02   0.107E+03 -.107E+02 -.389E+02   0.466E+01 -.479E+01 -.953E+00   0.258E-02 0.303E-02 -.171E-02
   0.213E+02 -.661E+02 0.111E+03   -.185E+02 0.603E+02 -.114E+03   -.232E+01 0.491E+01 0.274E+01   -.269E-02 0.290E-02 0.393E-03
   0.334E+02 -.334E+02 -.652E+02   -.312E+02 0.345E+02 0.701E+02   -.216E+01 0.135E+01 -.502E+01   -.594E-03 -.195E-02 -.257E-03
   -.151E+03 0.688E+02 0.117E+03   0.150E+03 -.718E+02 -.118E+03   0.828E+00 0.402E+00 -.418E+00   0.202E-02 -.270E-03 -.409E-03
   0.378E+01 -.147E+02 0.110E+03   0.116E+00 0.161E+02 -.108E+03   -.207E+01 -.137E+01 -.395E+01   0.127E-02 -.907E-03 0.121E-02
   -.259E+02 0.371E+02 -.954E+02   0.262E+02 -.393E+02 0.914E+02   -.224E+00 0.147E+01 0.358E+01   0.241E-02 -.247E-02 -.263E-03
   -.184E+03 0.134E+03 -.231E+02   0.184E+03 -.134E+03 0.221E+02   0.261E+01 -.260E+01 0.115E+01   -.133E-03 -.768E-03 -.124E-02
   -.753E+01 -.797E+02 -.399E+02   0.614E+01 0.828E+02 0.389E+02   0.372E-02 -.236E+01 0.735E+00   0.274E-03 0.927E-03 0.512E-03
   0.348E+02 0.318E+02 0.142E+02   -.306E+02 -.288E+02 -.221E+02   -.853E+01 -.120E+02 0.455E+01   0.917E-04 0.580E-03 -.238E-03
   0.579E+02 -.220E+02 0.975E+02   -.420E+02 0.177E+02 -.874E+02   -.157E+02 0.749E+01 -.118E+02   -.384E-03 -.911E-03 0.416E-04
   -.378E+00 -.148E+02 0.466E+02   0.481E+01 0.237E+02 -.389E+02   -.744E+01 -.815E+01 -.439E+01   0.720E-03 0.110E-02 -.446E-03
   0.285E+02 0.317E+02 0.233E+02   -.278E+02 -.402E+02 -.142E+02   0.848E+01 0.850E+01 -.165E+02   0.440E-03 0.143E-02 0.707E-04
   -.633E+01 -.361E+01 0.581E+01   0.112E+02 -.452E+01 -.146E+02   -.181E+01 0.166E+02 0.306E+01   0.374E-04 -.285E-03 -.197E-03
   -.228E+02 -.395E+02 0.200E+02   0.159E+02 0.347E+02 -.245E+02   0.575E+01 0.721E+01 0.445E+01   0.364E-03 -.101E-02 0.290E-03
   0.150E+02 -.329E+02 -.205E+02   -.115E+02 0.367E+02 0.269E+02   0.147E+01 -.188E+01 -.400E+01   -.728E-03 0.455E-03 -.248E-03
   -.263E+02 0.552E+01 -.865E+02   0.235E+02 0.459E+01 0.819E+02   0.411E+01 -.108E+02 0.688E+01   -.109E-03 -.952E-03 -.329E-03
   -.187E+01 -.306E+02 0.449E+02   -.743E+01 0.241E+02 -.388E+02   0.132E+02 0.596E+01 -.660E+01   0.886E-03 0.121E-02 0.334E-04
   0.733E+02 0.352E+02 -.596E+02   -.666E+02 -.289E+02 0.470E+02   -.162E+02 -.612E+01 0.111E+02   0.383E-03 -.517E-03 -.355E-03
   0.766E+02 0.713E+02 -.143E+02   -.672E+02 -.623E+02 0.466E+01   -.185E+02 -.160E+02 0.104E+02   -.504E-03 -.584E-03 -.761E-04
   -.153E+00 -.139E+02 0.597E+02   -.245E+01 0.180E+02 -.602E+02   0.784E+01 -.667E+00 -.514E+01   -.502E-03 0.702E-03 -.489E-03
   -.158E+02 -.724E+02 -.116E+02   0.835E+01 0.655E+02 0.127E+02   0.230E+01 0.764E+01 0.180E+01   0.189E-03 0.120E-03 -.100E-03
   0.202E+02 -.269E+02 -.788E+02   -.149E+02 0.246E+02 0.759E+02   -.225E+01 0.401E+01 -.654E+00   -.556E-03 0.725E-03 0.211E-03
   0.654E+02 0.243E+02 0.387E+02   -.601E+02 -.158E+02 -.310E+02   -.646E+01 -.549E+01 -.478E+01   -.264E-03 -.750E-03 0.456E-03
   0.123E+02 0.551E+02 -.458E+02   -.876E+01 -.433E+02 0.364E+02   -.467E+01 -.127E+02 0.778E+01   -.694E-03 -.302E-03 0.881E-04
   0.106E+03 -.568E+02 -.622E+02   -.928E+02 0.459E+02 0.545E+02   -.169E+02 0.558E+01 0.636E+01   -.306E-03 -.296E-03 0.335E-03
   0.798E+01 0.229E+01 0.212E+02   -.826E+01 -.751E-02 -.125E+02   0.230E+01 -.171E+01 -.105E+02   -.110E-03 -.290E-03 0.189E-03
   -.318E+02 -.917E+02 0.800E+02   0.220E+02 0.787E+02 -.709E+02   0.102E+02 0.126E+02 -.110E+02   0.623E-03 -.679E-04 0.403E-03
   0.423E+02 0.590E+01 -.418E+02   -.353E+02 -.484E+01 0.370E+02   -.819E+01 0.360E+01 0.622E+01   -.798E-03 -.227E-03 -.612E-03
   0.132E+02 -.133E+02 0.216E+01   -.913E+01 0.188E+02 0.146E+01   -.448E+01 -.493E+01 -.444E+01   0.106E-02 0.578E-03 0.291E-03
   0.345E+02 0.114E+03 -.157E+02   -.326E+02 -.104E+03 0.245E+02   -.136E+01 -.145E+02 -.116E+02   0.639E-03 0.547E-03 -.144E-03
   0.180E+02 -.407E+02 0.360E+02   -.111E+02 0.389E+02 -.295E+02   -.619E+01 0.437E+01 -.430E+01   -.278E-03 -.145E-03 0.647E-04
   -.142E+02 0.193E+02 -.921E+02   0.390E+01 -.150E+02 0.918E+02   0.834E+01 -.421E+01 -.495E+00   0.477E-03 -.759E-03 -.955E-04
   0.641E+02 0.305E+02 -.479E+02   -.599E+02 -.251E+02 0.461E+02   -.610E+01 -.409E+01 -.188E+01   -.175E-03 0.955E-03 -.246E-03
   -.812E+02 0.155E+02 -.164E+02   0.751E+02 -.193E+02 0.112E+02   0.123E+01 0.949E+00 0.415E+01   0.610E-03 0.948E-04 -.373E-03
   -.295E+02 0.326E+02 0.275E+02   0.177E+02 -.322E+02 -.171E+02   0.652E+01 0.225E+01 -.199E+02   0.632E-03 0.520E-03 0.304E-04
   0.124E+03 0.447E+02 0.231E+02   -.128E+03 -.431E+02 -.449E+02   0.322E+01 0.461E+00 0.248E+02   0.474E-03 0.613E-03 0.393E-03
   0.120E+03 0.425E+02 -.130E+03   -.154E+03 -.443E+02 0.154E+03   0.285E+02 -.474E+00 -.197E+02   0.878E-03 0.112E-02 -.692E-03
   0.409E+01 -.192E+02 0.188E+02   0.728E+01 -.143E+01 -.140E+02   -.134E+02 0.246E+02 -.575E+01   0.136E-02 -.128E-02 -.110E-03
   -.464E+02 0.663E+02 -.378E+01   0.500E+02 -.735E+02 0.264E+02   -.354E+01 0.705E+01 -.237E+02   -.691E-03 -.901E-03 0.977E-04
   -.653E+02 0.719E+02 -.426E+02   0.974E+02 -.701E+02 0.321E+02   -.256E+02 -.331E+01 0.895E+01   -.854E-03 -.367E-03 -.401E-03
   0.764E+01 0.595E+02 -.368E+02   -.259E+02 -.660E+02 0.309E+02   0.219E+02 0.588E+01 0.712E+01   -.927E-04 -.131E-03 -.103E-02
[...]
   0.550E+02 -.899E+01 0.276E+02   -.740E+02 -.108E+02 -.404E+02   0.162E+02 0.165E+02 0.101E+02   0.159E-02 0.142E-02 0.273E-03
   0.696E+02 -.717E+02 -.871E+02   -.544E+02 0.922E+02 0.100E+03   -.175E+02 -.219E+02 -.132E+02   0.625E-03 -.140E-02 0.114E-03
   -.233E+02 0.207E+02 0.160E+03   0.845E+01 -.378E+02 -.178E+03   0.139E+02 0.146E+02 0.167E+02   0.748E-03 -.115E-02 0.109E-02
   0.723E+02 0.611E+02 0.482E+01   -.733E+02 -.773E+02 -.124E+02   0.138E+01 0.169E+02 0.927E+01   -.430E-03 -.162E-02 0.237E-03
   0.239E+02 -.113E+01 0.755E+02   -.143E+02 0.286E+01 -.685E+02   -.795E+01 -.353E+01 -.823E+01   0.881E-03 -.156E-02 0.238E-03
   0.825E+01 0.173E+02 -.241E+02   -.246E+02 -.215E+02 0.382E+02   0.198E+02 0.415E+01 -.147E+02   0.548E-03 -.146E-02 0.372E-03
   -.121E+03 -.541E+02 0.118E+03   0.151E+03 0.557E+02 -.123E+03   -.345E+02 -.145E+01 0.247E+01   -.200E-02 -.508E-03 0.912E-03
   -.355E+01 0.470E+02 -.554E+02   -.448E+01 -.277E+02 0.524E+02   0.950E+01 -.232E+02 0.442E+01   0.104E-02 -.151E-02 -.600E-03
   -.483E+01 -.495E+02 0.336E+02   0.780E+01 0.486E+02 -.487E+02   -.406E+01 0.354E+01 0.154E+02   -.353E-03 0.616E-03 -.202E-03
   0.160E+02 0.704E+02 -.844E+01   -.194E+02 -.888E+02 0.344E+02   0.294E+01 0.185E+02 -.225E+02   0.833E-03 0.499E-03 0.741E-03
   0.567E+02 -.164E+02 -.126E+03   -.813E+02 0.304E+02 0.130E+03   0.248E+02 -.132E+02 -.123E+01   0.991E-03 -.174E-02 -.763E-03
   0.484E+02 -.612E+02 -.367E+02   -.539E+02 0.537E+02 0.328E+02   0.528E+01 0.112E+02 0.551E+01   -.592E-03 -.108E-02 -.674E-04
   -.197E+01 -.860E+02 -.930E+02   -.626E+01 0.842E+02 0.117E+03   0.105E+02 0.318E+01 -.262E+02   0.661E-03 -.772E-03 -.624E-03
   0.490E+02 -.286E+02 -.732E+02   -.493E+02 0.485E+02 0.674E+02   -.421E+00 -.214E+02 0.677E+01   -.112E-02 -.896E-03 -.689E-03
   0.995E+02 0.550E+02 0.705E+02   -.142E-12 -.234E-12 0.114E-12   -.995E+02 -.549E+02 -.705E+02   -.329E-02 -.689E-02 -.580E-02

 POSITION                                       TOTAL-FORCE (eV/Angst)
      5.82957      3.30910      7.49274        -1.784184      0.583604     -0.086026
      7.81030      2.38040      4.01534        -0.219794      1.640361     -0.758029
      8.24240      0.91406      7.01129        -0.794523      0.481053     -0.764437
     11.01424      8.90829      5.52092         0.947463      0.748197     -0.787838
      5.95526     12.06566     10.03345         1.481508     -0.062266     -1.649071
      2.46769      7.58558     11.13403        -1.790806     -2.300909     -0.977808
      2.57950      6.45825      6.91349         2.299669      0.756673      2.990920
      3.41275      0.69642      8.20556         0.686956     -0.614638     -0.721137
     10.99887      6.05386      3.94721         0.252251     -1.119791     -1.251255
     10.07296     11.81781      9.00365        -0.812130      0.149166      2.831455
      3.65202      5.51590      0.86230         1.460229     -1.680582     -0.231842
      3.89429      1.21227      1.38799         0.472449      1.954953     -0.600643
      6.57550      6.10061      2.13778         0.726702     -0.159967     -1.386047
      5.95739     11.17913      3.70813         1.714946     -0.813778     -2.017702
     11.75352      3.47181     11.14668         2.179935     -1.281005      0.126230
      0.37233     11.64671      5.93738        -1.582610      1.356316     -0.729743
      2.18876      8.13042      4.51848        -3.895097     -0.060494      0.169931
     11.56059      8.42378      8.66894        -0.053679     -1.249754      1.014269
      4.11563      3.18784     10.67322        -0.329151     -0.739047     -0.138693
      9.74917      5.52082      9.89594        -0.236642      3.133358     -0.842892
      3.24746      3.93975      5.28425         0.464418     -0.905673     -0.538621
      1.04768     11.71922     10.36317        -0.023821      2.445505     -0.111258
      7.31695      8.88384     11.54299         0.086849     -2.628318     -1.695091
      7.50183      8.35530      4.40590         1.825973      0.062888     -2.300166
      8.75377      0.49437      0.70243         0.065248     -0.758899     -0.414391
      5.29884      9.27553      7.91747         2.281778     -2.181922      0.110666
     11.63205      1.93135      3.98350        -1.387141      0.679895     -0.207405
     11.82944      6.58175      0.24107        -4.379387     -8.928117     -3.335748
      0.30192     10.66370      3.12635         0.179000      3.215428     -1.753189
      7.02818      5.55675     10.64786        -3.005243      0.795277      3.325487
      6.03738      5.64235      4.96519         9.121905      0.019309     -7.426026
      0.06387      1.09156      1.18808         3.026040      8.483384     -5.755774
      9.23570     11.36945      4.24807        -1.157549      2.381717     -0.093962
      1.83269      3.03140      8.30007         4.967332      2.011769      2.416385
      6.00901     11.23433      0.47258         1.246240     -0.703528      2.267808
      9.88303      4.13629      6.51002         3.886613     -0.497612     -0.498438
     10.79683      9.82252     11.50126        -9.491692      0.170561     -1.459171
      2.36525      9.98514      7.88734        -9.085635     -6.993539      0.790080
      4.68690      5.95413      9.73403         5.239499      3.338487     -5.687241
     11.57836      1.89210      8.00030        -5.129985      0.752406      2.870905
      1.62894      4.06805      1.62241         3.091221      1.752494     -3.552368
      5.33076      0.88266      5.50327        -1.102586      3.055836      2.962995
      2.60422      1.11782      4.00620        -1.116280     -0.913177     -1.694488
      4.30825      9.02153      1.59507        -3.516970     -5.280527     -1.397554
      4.77140      8.32464      4.81382         2.024206      0.574052     -1.782613
      9.21938      7.87300      1.90944         0.334850     -0.444956     -1.966738
      3.72494      9.90665     10.61931        -1.130920      4.660513      1.456055
     10.08736      3.48708      1.66086        -0.457649      0.497682     -0.814890
      8.79934      6.88328      6.64265         0.589557     -4.690525     -2.747855
      0.03846      8.52009      1.80296         0.714046      2.558690      2.207746
      8.83272      9.53340      7.40220        -1.942522      0.090012     -0.822713
      0.45642      5.24429      6.65851        -1.895682      1.343415     -3.660635
      8.02468      2.63930     10.17218        -4.855476     -2.756609     -1.027838
      6.97711      3.32224      0.85720        -5.267512      2.577851     -9.516005
      5.52279      6.89923      3.91591        -1.382600      2.059974      2.938192
      5.77040      3.17445      1.66592        -5.697973     -2.218131      4.397919
      8.75309      1.12464     10.53137        -2.017390      3.919321     -0.943029
      5.36267      0.48448      7.11717         0.003638     -0.123650     -1.030903
      0.06599     10.03770     10.98285         6.492320     -1.496195     -1.572630
      6.51076      2.58750     11.31528         3.707485     -0.558528      1.251675
[...]
     10.75144      0.89392      7.07558        -0.161085     -1.630383     -1.103239
      8.97924      3.13103      5.84275        -2.846350     -3.285246     -2.636121
      5.87648      9.50335      5.18748        -2.333333     -1.494102     -0.373022
      8.38731     10.32606      3.45002        -0.948105     -2.434899     -1.775765
      4.08587      0.15284      4.35871         0.296932      0.707518      1.662088
     10.89973     11.06339      4.33903         1.702103     -1.800357     -1.207617
      8.51707     11.12613      5.78738         3.400530     -0.023704     -0.717136
      1.33702      9.65128      2.19501        -4.051119      0.132390     -2.975621
     10.05214     11.40904     11.31713         1.478082     -3.924512      1.400524
      0.90072      5.04542      0.37371        -1.084461      2.655213      0.278570
      9.15652      7.10898      3.25031        -0.461426      0.143637      3.443952
      7.48721     10.24867      7.85831         0.217304      0.793368      2.611251
      1.67236      8.45993      6.81426        -0.208523      3.697526      1.604027
     11.07729      1.53932      9.62122         2.237088      1.362372     -2.435958
      3.08096     11.31007      9.93191        -0.660274     -1.507196      0.992955
    total drift:                               -0.018830      0.004376     -0.006743

  FREE ENERGIE OF THE ION-ELECTRON SYSTEM (eV)
  free  energy   TOTEN  =      -923.95191475 eV

  energy  without entropy=     -923.94901955  energy(sigma->0) =     -923.95046715