 vasp.5.4.4.18Apr17-6-g9f103f2a35 (build Oct 31 2019 15:01:46) complex

 executed on             LinuxIFC date 2024.04.29  21:25:01

 INCAR:
 POTCAR:    PAW_PBE Ca_sv 06Sep2000
 POTCAR:    PAW_PBE Si 05Jan2001
 POTCAR:    PAW_PBE O 08Apr2002
 POTCAR:    PAW_PBE Ca_sv 06Sep2000
   VRHFIN =Ca: 3s3p4s

   TITEL  = PAW_PBE Ca_sv 06Sep2000
   POMASS =   40.078; ZVAL   =   10.000    mass and valenz
   ENMAX  =  266.622; ENMIN  =  199.967 eV

   TITEL  = PAW_PBE Si 05Jan2001
   POMASS =   28.085; ZVAL   =    4.000    mass and valenz
   ENMAX  =  245.345; ENMIN  =  184.009 eV

   TITEL  = PAW_PBE O 08Apr2002
   POMASS =   16.000; ZVAL   =    6.000    mass and valenz
   ENMAX  =  400.000; ENMIN  =  300.000 eV

 Optimization of the real space projectors (new method)

 maximal supplied QI-value         = 16.25
 optimisation between [QCUT,QGAM] = [ 12.51, 25.03] = [ 43.85,175.40] Ry
 Optimized for a Real-space Cutoff    1.47 Angstroem

   l    n(q)    QCUT    max X(q) W(low)/X(q) W(high)/X(q)  e(spline)
   0     11    12.514    11.817    0.25E-04    0.32E-05    0.87E-07
   0     11    12.514     8.461    0.39E-04    0.59E-05    0.18E-06
   1     11    12.514     3.957    0.97E-05    0.57E-05    0.28E-07
   1     11    12.514     4.314    0.42E-04    0.14E-04    0.23E-06
   2     10    12.514    14.565    0.79E-04    0.50E-03    0.16E-05
   2     10    12.514    14.552    0.75E-04    0.48E-03    0.15E-05
 Optimization of the real space projectors (new method)

[...]

   l    n(q)    QCUT    max X(q) W(low)/X(q) W(high)/X(q)  e(spline)
   0      9    12.501   159.560    0.10E-03    0.83E-04    0.71E-07
   0      9    12.501   115.863    0.99E-04    0.81E-04    0.70E-07
   1      8    12.501    88.339    0.20E-03    0.25E-03    0.76E-07
   1      8    12.501    48.592    0.20E-03    0.24E-03    0.75E-07
 Optimization of the real space projectors (new method)

 maximal supplied QI-value         = 24.76
 optimisation between [QCUT,QGAM] = [ 12.38, 25.00] = [ 42.90,175.06] Ry
 Optimized for a Real-space Cutoff    1.16 Angstroem

   l    n(q)    QCUT    max X(q) W(low)/X(q) W(high)/X(q)  e(spline)
   0      9    12.378    20.381    0.16E-03    0.67E-05    0.31E-06
   0      9    12.378    15.268    0.17E-03    0.81E-05    0.33E-06
   1      8    12.378     5.964    0.20E-03    0.16E-03    0.30E-06
   1      8    12.378     5.382    0.18E-03    0.14E-03    0.26E-06
  PAW_PBE Ca_sv 06Sep2000               :
  PAW_PBE Si 05Jan2001                  :
  PAW_PBE O 08Apr2002                   :

 POSCAR: Ca Si  O
  positions in direct lattice
 exchange correlation table for  LEXCH =        8
   RHO(1)=    0.500       N(1)  =     2000
   RHO(2)=  100.500       N(2)  =     4000

 ion  position               nearest neighbor table
   1  0.024  0.435  0.605- 128 1.97 131 2.36  78 2.41 129 2.41  70 2.47  42 2.57  13 2.94
   2  0.784  0.424  0.764-  67 2.05  85 2.11  57 2.24 129 2.26  62 2.26  40 2.92  19 2.98
   3  0.734  0.523  0.511-  67 1.90  68 2.29  64 2.30  88 2.46  41 2.57  50 2.87  42 3.09
   4  0.266  0.004  0.330-  84 2.23  74 2.24  94 2.25   7 2.83  49 2.87  36 3.06
   5  0.046  0.819  0.703-  92 2.04 105 2.20 125 2.30 123 2.31 131 2.51  48 2.66  41 3.13
   6  0.464  0.645  0.682- 108 2.04  64 2.05  97 2.42 101 2.48  12 2.86  48 3.08  50 3.11  53 3.13

   7  0.259  0.793  0.228- 116 1.89  56 1.99  86 2.34  74 2.54   4 2.83
   8  0.383  0.605  0.037- 122 2.05  76 2.26 106 2.35 104 2.49  86 2.56  25 2.79  53 2.86  28 2.94

[...]

  35  0.275  0.275  0.067- 132 1.56  80 1.70  69 1.74  79 2.04  37 2.87  25 2.95  38 3.02
  36  0.222  0.983  0.579-  75 1.51  94 1.57 133 1.67  92 1.70  48 2.60  49 2.89   4 3.06
  37  0.224  0.332  0.842-  70 1.58  98 1.66  58 1.68 121 1.77  69 1.80  14 2.63  29 2.76  35 2.87
                            13 3.05
  38  0.379  0.277  0.294-  81 1.48  79 1.50  84 1.72 115 1.87  33 2.95  35 3.02  27 3.15
  39  0.982  0.091  0.425-  90 1.58  60 1.66 102 1.67  96 1.69  94 2.32  49 2.55  44 2.81  42 3.09
                            33 3.12
  40  0.947  0.362  0.931-  57 1.56  62 1.72 121 1.81 110 1.86 118 1.95  32 2.43   2 2.92  34 3.02

  41  0.870  0.663  0.594- 123 1.70  67 1.77 131 1.82  68 1.82  19 2.23   3 2.57  17 2.72   9 3.10
                             5 3.13
  42  0.884  0.317  0.496- 128 1.53 129 1.69  90 1.83  73 1.91   1 2.57  39 3.09   3 3.09  15 3.14

[...]

  49  0.070  0.900  0.415-  99 1.54  61 1.56  96 1.75 116 2.01  94 2.04  39 2.55   4 2.87  36 2.89
                             9 2.95
  50  0.511  0.445  0.526-  64 1.57  91 1.60 113 1.70  88 1.88   3 2.87  27 3.01  45 3.10   6 3.11

  51  0.406  0.047  0.071- 109 1.55 132 1.63  74 1.66 119 1.92  95 2.53  21 2.98
  52  0.700  0.917  0.820- 124 1.62 120 1.63 112 1.79  72 2.25  22 2.76  43 2.83
  53  0.565  0.544  0.898-  85 1.58 106 1.60  76 1.70  82 1.90  29 2.43   8 2.86   6 3.13
  54  0.563  0.829  0.155-  95 1.64  71 1.67  86 1.68 100 1.84  31 2.85  21 2.86
  55  0.681  0.560  0.241-  46 1.60
  56  0.166  0.813  0.094-  30 1.75  28 1.81   7 1.99
  57  0.955  0.443  0.831-  40 1.56  13 2.20   2 2.24
  58  0.308  0.437  0.809-  37 1.68  29 1.74
  59  0.670  0.205  0.722-  47 1.50  15 2.08
  60  0.060  0.153  0.331-  39 1.66  33 1.80
  61  0.069  0.916  0.286-  49 1.56
  62  0.811  0.323  0.918-  40 1.72  32 1.94   2 2.26
  63  0.199  0.574  0.491-  45 1.60  12 2.16
  64  0.566  0.538  0.598-  50 1.57   6 2.05   3 2.30
  65  0.483  0.265  0.830-  47 1.56  29 1.65
  66  0.062  0.645  0.182-  30 1.69  18 2.09   9 2.44
  67  0.797  0.551  0.652-  41 1.77  19 1.87   3 1.90   2 2.05
  68  0.830  0.674  0.450-  41 1.82   9 2.21   3 2.29
  69  0.247  0.385  0.979-  35 1.74  37 1.80  25 2.49
  70  0.145  0.339  0.739-  37 1.58  14 2.21   1 2.47
  71  0.625  0.752  0.060-  54 1.67  16 2.05
  72  0.771  0.856  0.980-  43 1.61  16 2.05  52 2.25
  73  0.760  0.246  0.428-  44 1.86  42 1.91  23 2.45
  74  0.358  0.970  0.173-  51 1.66   4 2.24   7 2.54
  75  0.344  0.976  0.554-  36 1.51  10 2.45
  76  0.475  0.459  0.966-  53 1.70  29 1.78   8 2.26
  77  0.747  0.545  0.059-  32 1.68  16 1.86  18 2.33
  78  0.187  0.349  0.530-  45 1.80   1 2.41  33 2.46
  79  0.382  0.333  0.183-  38 1.50  35 2.04
  80  0.144  0.234  0.097-  35 1.70  11 2.40
  81  0.485  0.249  0.349-  38 1.48  23 2.40
  82  0.532  0.461  0.769-  29 1.57  53 1.90
  83  0.905  0.149  0.808-  34 1.58  15 2.35
  84  0.271  0.188  0.318-  38 1.72  33 1.94   4 2.23
  85  0.690  0.533  0.863-  53 1.58   2 2.11  19 2.35
  86  0.438  0.770  0.158-  54 1.68   7 2.34   8 2.56
  87  0.997  0.886  0.030-  43 1.60  30 1.86  24 2.29
  88  0.587  0.451  0.391-  46 1.66  50 1.88  23 2.16   3 2.46
  89  0.461  0.657  0.362-  31 1.75  46 2.09  12 2.41
  90  0.968  0.191  0.509-  39 1.58  42 1.83
  91  0.380  0.466  0.526-  45 1.60  50 1.60
  92  0.182  0.852  0.610-  48 1.51  36 1.70   5 2.04
  93  0.995  0.693  0.980-  30 1.69  28 2.48
  94  0.156  0.030  0.478-  36 1.57  49 2.04   4 2.25  39 2.32
  95  0.589  0.953  0.107-  54 1.64  21 2.29  51 2.53
  96  0.963  0.967  0.486-  39 1.69  49 1.75  17 2.04
  97  0.382  0.823  0.721-  48 1.49  22 2.35   6 2.42
  98  0.268  0.204  0.867-  37 1.66  26 2.26  14 2.30
  99  0.033  0.795  0.476-  49 1.54   9 2.01
 100  0.623  0.829  0.295-  31 1.70  54 1.84
 101  0.531  0.751  0.520-  31 1.71   6 2.48  10 2.52
 102  0.893  0.108  0.321-  44 1.64  39 1.67
 103  0.478  0.489  0.203-  46 1.52
 104  0.336  0.791  0.962-  28 1.83  22 2.23   8 2.49
 105  0.948  0.905  0.831-  43 1.70   5 2.20
 106  0.505  0.662  0.898-  53 1.60  22 2.22   8 2.35
 107  0.471  0.128  0.675-  47 1.49  27 2.12  26 2.14
 108  0.298  0.669  0.699-  48 1.67   6 2.04  12 2.46
 109  0.353  0.003  0.963-  51 1.55  26 2.19
 110  0.948  0.482  0.028-  40 1.86  32 2.06  18 2.31
[...]
 121  0.094  0.351  0.908-  37 1.77  40 1.81
 122  0.217  0.630  0.008-  28 1.46   8 2.05  25 2.34
 123  0.862  0.785  0.663-  41 1.70  17 1.97  19 2.08   5 2.31
 124  0.671  0.796  0.768-  52 1.62  19 1.94
 125  0.156  0.753  0.843-  28 1.56   5 2.30  48 2.37
 126  0.123  0.398  0.286-  33 1.64  25 2.31  11 2.47
 127  0.938  0.776  0.205-  30 1.75  18 2.25   9 2.46
 128  0.930  0.432  0.472-  42 1.53   1 1.97
 129  0.866  0.316  0.635-  42 1.69   2 2.26   1 2.41  15 2.49
 130  0.065  0.044  0.929-  34 1.66  24 2.11  14 2.51
 131  0.013  0.628  0.627-  41 1.82   1 2.36   5 2.51
 132  0.346  0.167  0.064-  35 1.56  51 1.63
 133  0.183  0.021  0.706-  36 1.67  14 2.02  26 2.39
 134  0.450  0.884  0.375-  31 1.47  21 2.51
 135  0.683  0.153  0.262-  44 1.53  23 2.17  21 2.17

IMPORTANT INFORMATION: All symmetrisations will be switched off!
NOSYMM: (Re-)initialisation of all symmetry stuff for point group C_1.

Automatic generation of k-mesh.
 generate k-points for:    2    2    2
Space group operators:
 irot       det(A)        alpha          n_x          n_y          n_z        tau_x        tau_y        tau_z
    1     1.000000     0.000000     1.000000     0.000000     0.000000     0.000000     0.000000     0.000000

 Subroutine IBZKPT returns following result:

 Found      8 irreducible k-points:

 Following reciprocal coordinates:
            Coordinates               Weight
  0.000000  0.000000  0.000000      1.000000
  0.500000  0.000000  0.000000      1.000000
  0.000000  0.500000  0.000000      1.000000
  0.500000  0.500000  0.000000      1.000000
  0.000000  0.000000  0.500000      1.000000
  0.500000  0.000000  0.500000      1.000000
  0.000000  0.500000  0.500000      1.000000
  0.500000  0.500000  0.500000      1.000000

 Following cartesian coordinates:
            Coordinates               Weight
  0.000000  0.000000  0.000000      1.000000
  0.041344  0.000000  0.000000      1.000000
  0.000000  0.041344  0.000000      1.000000
  0.041344  0.041344  0.000000      1.000000
  0.000000  0.000000  0.041344      1.000000
  0.041344  0.000000  0.041344      1.000000
  0.000000  0.041344  0.041344      1.000000
  0.041344  0.041344  0.041344      1.000000

 SYSTEM =  unknown system
 POSCAR =  Ca Si  O

 Startparameter for this run:
   NWRITE =      2    write-flag & timer
   PREC   = a         normal or accurate (medium, high low for compatibility)
   ISTART =      0    job   : 0-new  1-cont  2-samecut
   ICHARG =      2    charge: 1-file 2-atom 10-const
   ISPIN  =      1    spin polarized calculation?
   LNONCOLLINEAR =      F non collinear calculations
   LSORBIT =      F    spin-orbit coupling
   INIWAV =      1    electr: 0-lowe 1-rand  2-diag
   LASPH  =      F    aspherical Exc in radial PAW
   METAGGA=      F    non-selfconsistent MetaGGA calc.

 Electronic Relaxation 1
   ENCUT  =  600.0 eV  44.10 Ry    6.64 a.u.  24.15 24.15 24.15*2*pi/ulx,y,z
   ENINI  =  600.0     initial cutoff
   ENAUG  =  605.4 eV  augmentation charge cutoff
   NELM   =     60;   NELMIN=  2; NELMDL= -5     # of ELM steps
   EDIFF  = 0.1E-05   stopping-criterion for ELM
   LREAL  =      T    real-space projection
   NLSPLINE    = F    spline interpolate recip. space projectors
   LCOMPAT=      F    compatible to vasp.4.4
   GGA_COMPAT  = T    GGA compatible to vasp.4.4-vasp.4.6
   LMAXPAW     = -100 max onsite density
   LMAXMIX     =    2 max onsite mixed and CHGCAR
[...]
     0.000000000  0.000000000 12.093787620     0.000000000  0.000000000  0.082687081

  length of vectors
    12.093787620 12.093787620 12.093787620     0.082687081  0.082687081  0.082687081

 FORCES acting on ions
    electron-ion (+dipol)            ewald-force                    non-local-force                 convergence-correction
   -.142E+03 0.513E+02 0.760E+02   0.145E+03 -.517E+02 -.747E+02   0.381E+00 0.655E+00 0.231E+01   0.177E-02 -.202E-02 -.994E-02
   0.139E+03 0.216E+03 -.156E+02   -.137E+03 -.219E+03 0.187E+02   -.332E+01 -.802E+00 -.229E+01   -.137E-02 -.170E-02 -.593E-02
   0.564E+02 0.723E+02 0.322E+03   -.609E+02 -.709E+02 -.326E+03   0.993E+00 -.316E+01 -.273E+01   0.171E-02 -.289E-02 -.360E-03
   -.999E+02 -.115E+03 -.279E+02   0.102E+03 0.117E+03 0.256E+02   -.497E+00 -.216E+01 0.168E+01   -.393E-02 0.433E-02 0.178E-02
   0.479E+02 -.660E+02 -.739E+02   -.543E+02 0.654E+02 0.800E+02   0.206E+01 0.263E+00 -.327E+01   0.533E-02 -.438E-03 -.654E-03
   -.642E+02 0.124E+02 -.149E+02   0.652E+02 -.130E+02 0.164E+02   0.720E+00 0.131E+01 0.538E+00   -.507E-02 0.141E-02 0.155E-03
   -.169E+03 0.128E+03 -.379E+02   0.172E+03 -.128E+03 0.344E+02   0.249E+01 -.151E+00 0.101E+01   -.674E-02 0.194E-03 -.431E-02
   -.128E+03 0.933E+02 -.148E+03   0.133E+03 -.859E+02 0.145E+03   -.119E+01 -.485E+01 0.350E+01   -.168E-01 0.888E-02 -.971E-02
   0.827E+02 0.251E+03 0.574E+02   -.785E+02 -.243E+03 -.579E+02   -.178E+01 -.777E+01 -.105E+01   0.318E-02 -.255E-02 0.167E-02
   -.112E+03 -.956E+02 0.854E+02   0.111E+03 0.914E+02 -.860E+02   0.136E+01 0.300E+01 0.542E+00   -.184E-02 0.192E-02 -.966E-03
   0.139E+03 -.363E+02 -.143E+03   -.136E+03 0.333E+02 0.136E+03   -.277E+01 0.203E+01 0.481E+01   0.436E-02 -.284E-03 0.125E-01
   -.110E+02 0.868E+01 0.124E+03   0.779E+01 -.125E+02 -.130E+03   0.262E+01 0.380E+01 0.322E+01   -.178E-02 -.103E-02 0.177E-02
   -.849E+02 -.817E+02 0.167E+02   0.826E+02 0.811E+02 -.130E+02   0.283E+01 0.112E+01 -.220E+01   0.517E-02 0.838E-02 -.312E-02
   0.105E+03 0.237E+02 0.163E+03   -.106E+03 -.242E+02 -.158E+03   -.221E+01 0.131E+01 -.279E+01   0.197E-02 -.603E-02 -.589E-02
   0.420E+01 0.299E+02 0.562E+02   -.573E+01 -.279E+02 -.498E+02   0.282E+01 -.165E+01 -.589E+01   -.121E-03 0.157E-02 -.533E-02
   -.782E+01 -.856E+02 -.453E+02   0.366E+00 0.920E+02 0.441E+02   0.772E+01 -.243E+01 -.398E+00   0.262E-01 -.131E-01 -.577E-02
   0.242E+03 -.643E+02 0.255E+03   -.242E+03 0.662E+02 -.255E+03   -.288E+01 -.830E+00 -.267E+01   0.139E-02 0.188E-02 -.138E-02
   0.155E+03 0.161E+03 -.267E+03   -.152E+03 -.159E+03 0.265E+03   -.424E+01 -.237E+01 0.273E+01   0.869E-02 -.449E-02 0.661E-02
   0.253E+02 -.543E+02 -.152E+03   -.330E+02 0.596E+02 0.162E+03   0.422E+01 -.271E+01 -.360E+00   0.143E-02 -.163E-02 -.759E-02
   -.108E+03 -.562E+02 0.633E+02   0.104E+03 0.513E+02 -.592E+02   0.504E+01 0.338E+01 -.415E+01   0.561E-03 0.409E-02 -.118E-02
   -.862E+02 -.249E+02 -.160E+03   0.877E+02 0.243E+02 0.152E+03   -.234E+01 0.194E+00 0.643E+01   -.273E-02 0.600E-02 0.996E-02
   -.648E+02 -.102E+03 -.245E+02   0.602E+02 0.990E+02 0.305E+02   0.272E+01 0.185E+01 -.327E+01   -.306E-01 -.100E-02 -.430E-02
   -.450E+02 -.324E+02 0.618E+02   0.446E+02 0.297E+02 -.615E+02   -.820E+00 0.217E+01 -.250E+00   0.184E-02 -.170E-02 0.498E-02
   0.102E+02 -.119E+03 -.128E+03   -.127E+02 0.117E+03 0.121E+03   0.281E+01 0.173E+01 0.655E+01   0.451E-02 -.250E-02 0.242E-02
   0.494E+01 0.286E+02 -.152E+03   -.108E+02 -.292E+02 0.151E+03   0.436E+01 0.396E+00 0.662E+00   -.103E-02 0.111E-02 0.597E-02
   -.542E+02 0.953E+01 0.125E+02   0.500E+02 -.871E+01 -.480E+01   0.243E+01 -.195E+01 -.474E+01   -.198E-02 -.545E-02 0.116E-02
   0.104E+03 0.428E+02 0.873E+02   -.999E+02 -.399E+02 -.874E+02   -.505E+01 -.160E+01 -.156E+01   -.229E-02 0.618E-03 -.277E-02
   0.270E+02 -.819E+02 0.296E+02   -.168E+02 0.733E+02 -.318E+02   -.547E+01 0.181E+02 0.238E+01   0.104E-01 0.389E-02 -.132E-02
   0.273E+02 0.710E+02 -.270E+02   -.206E+02 -.627E+02 0.219E+02   -.965E+01 -.729E+01 0.718E+01   -.417E-03 0.193E-03 -.146E-02
   0.331E+02 -.360E+02 -.798E+01   -.377E+02 0.327E+02 0.840E+01   0.177E+01 0.628E+01 0.273E+00   0.411E-02 0.128E-03 0.186E-03
   -.128E+03 0.481E+02 0.175E+02   0.121E+03 -.413E+02 -.172E+02   0.111E+02 -.144E+02 -.378E+00   -.114E-02 0.182E-03 0.375E-02
   0.654E+02 0.527E+02 -.184E+02   -.673E+02 -.483E+02 0.252E+02   0.215E+01 -.208E+01 -.743E+01   0.810E-03 -.171E-02 0.139E-02
   0.980E+01 -.287E+01 -.709E+02   -.123E+02 0.853E+01 0.699E+02   0.538E+01 -.713E+01 0.240E+01   -.172E-02 0.390E-03 0.231E-02
   0.504E+02 -.109E+02 -.246E+02   -.481E+02 0.986E+01 0.202E+02   -.150E+01 0.105E+01 0.670E+01   0.103E-02 -.615E-03 -.323E-03
   -.401E+02 -.386E+02 -.332E+02   0.359E+02 0.294E+02 0.332E+02   0.278E+01 0.869E+01 0.624E+00   0.338E-03 -.897E-03 0.268E-02
   0.791E+01 -.866E+02 -.165E+01   -.715E+00 0.899E+02 0.164E+01   -.958E+01 -.229E+01 0.439E+01   0.964E-04 0.364E-03 -.195E-03
   -.791E+02 0.131E+02 0.262E+02   0.739E+02 -.160E+02 -.305E+02   0.341E+01 0.332E+01 0.855E+01   0.445E-02 -.586E-03 -.195E-02
   0.195E+02 0.412E+02 -.328E+02   -.106E+02 -.376E+02 0.261E+02   -.149E+02 -.877E+00 0.738E+01   -.263E-02 -.127E-03 0.208E-02
   0.103E+02 0.173E+02 -.563E+01   -.163E+02 -.861E+01 0.363E+01   0.598E+01 -.845E+01 -.385E+00   0.209E-02 0.298E-02 -.126E-02
   0.822E+01 0.713E+02 -.727E+02   -.598E+01 -.633E+02 0.647E+02   0.316E+01 -.995E+01 0.101E+02   -.302E-02 -.226E-03 0.106E-02
   -.132E+02 0.100E+02 0.870E+02   0.183E+02 -.666E+01 -.873E+02   0.287E+01 -.347E+01 -.381E+01   0.749E-03 -.485E-03 -.116E-02
   0.407E+02 0.509E+02 0.118E+03   -.399E+02 -.435E+02 -.110E+03   -.499E+01 -.152E+02 -.599E+01   0.212E-02 -.318E-03 -.202E-02
   0.575E+02 0.575E+00 -.571E+01   -.551E+02 0.580E+00 0.857E+01   0.115E+01 -.350E+01 -.508E+01   0.446E-02 0.142E-02 -.116E-02
   0.583E+00 0.748E+02 0.233E+02   -.314E+01 -.719E+02 -.269E+02   0.428E+01 -.164E+01 0.809E+01   0.133E-02 0.125E-02 0.194E-02
   0.562E+02 0.269E+02 0.366E+02   -.557E+02 -.237E+02 -.345E+02   -.237E+01 -.630E+01 -.314E+01   -.217E-02 -.238E-02 -.453E-03
   -.531E+01 -.935E+02 -.152E+02   0.695E+01 0.868E+02 0.533E+00   -.187E+01 0.112E+02 0.148E+02   -.125E-02 -.261E-02 0.315E-02
   -.450E+02 0.107E+01 -.372E+02   0.512E+02 -.258E+01 0.328E+02   -.307E+01 0.519E+01 0.463E+01   -.329E-03 0.829E-04 -.183E-02
   0.437E+02 -.256E+02 -.529E+02   -.300E+02 0.195E+02 0.519E+02   -.125E+02 -.122E+01 0.834E+01   0.655E-03 -.313E-03 0.313E-02
   0.637E+01 -.742E+02 0.272E+01   -.124E+02 0.614E+02 -.122E+02   0.773E+01 0.102E+02 0.764E+01   0.308E-03 0.125E-02 -.308E-03
   -.110E+01 0.605E+02 0.757E+02   0.295E+01 -.563E+02 -.647E+02   0.343E+00 -.605E+01 -.112E+02   -.640E-03 -.992E-03 0.171E-03
   -.926E+02 -.169E+01 -.147E+02   0.811E+02 0.146E+01 0.864E+01   0.136E+02 0.251E+01 0.788E+01   -.450E-02 -.161E-02 -.226E-02
   -.397E+02 -.101E+03 -.924E+02   0.334E+02 0.968E+02 0.801E+02   0.570E+01 0.465E+01 0.132E+02   -.574E-03 0.194E-02 -.428E-02
   -.251E+02 0.479E+02 -.864E+02   0.256E+02 -.414E+02 0.815E+02   -.615E+00 -.643E+01 0.331E+01   -.298E-02 -.219E-02 -.347E-02
   -.713E+02 0.119E+02 -.661E+02   0.696E+02 -.134E+02 0.556E+02   0.180E+01 -.183E+01 0.810E+01   -.668E-02 0.711E-02 0.853E-02
   -.743E+02 -.685E+02 -.349E+02   0.991E+02 0.761E+02 0.188E+02   -.241E+02 -.757E+01 0.183E+02   0.234E-02 -.625E-02 0.677E-02
   -.163E+02 -.868E+02 0.429E+02   0.290E+02 0.103E+03 -.357E+02   -.150E+02 -.168E+02 -.108E+02   0.761E-02 -.636E-03 -.635E-02
   0.193E+02 -.444E+02 0.340E+02   -.147E+02 0.601E+02 -.518E+02   -.668E+01 -.124E+02 0.128E+02   -.265E-02 0.237E-02 -.345E-02
   -.433E+02 -.688E+02 0.108E+03   0.358E+02 0.945E+02 -.119E+03   0.114E+02 -.267E+02 0.956E+01   0.183E-02 0.274E-02 -.206E-02
   -.158E+02 -.679E+01 -.463E+02   0.500E+02 0.127E+02 0.431E+02   -.319E+02 -.562E+01 0.433E+01   -.595E-03 0.409E-03 -.313E-02
   -.134E+02 -.408E+02 0.631E+02   0.167E+02 0.338E+02 -.832E+02   0.949E+00 0.100E+02 0.192E+02   0.239E-02 0.735E-02 0.530E-02
[...]
   0.465E+02 0.117E+03 0.125E+02   -.452E+02 -.148E+03 -.332E+01   -.191E+01 0.217E+02 -.649E+01   0.560E-02 0.985E-02 -.319E-02
   -.175E+00 -.792E+02 -.451E+02   -.813E+00 0.102E+03 0.633E+02   0.187E+01 -.262E+02 -.185E+02   0.150E-02 -.165E-04 -.252E-02
   0.102E+03 -.418E+02 0.207E+02   -.109E+03 0.251E+02 -.329E+02   0.272E+01 0.167E+02 0.145E+02   -.160E-02 0.815E-03 -.605E-02
   0.572E+01 -.401E+02 0.272E+02   -.159E+02 0.416E+02 -.475E+02   0.894E+01 -.516E+00 0.153E+02   0.104E-01 0.171E-02 0.433E-02
   0.889E+02 -.750E+02 -.554E+02   -.901E+02 0.998E+02 0.499E+02   -.723E+00 -.266E+02 0.528E+01   -.114E-02 -.593E-02 0.709E-02
   0.242E+03 -.183E+03 -.100E+03   -.254E+03 0.197E+03 0.114E+03   0.101E+02 -.145E+02 -.154E+02   0.567E-02 0.276E-03 0.306E-02
   0.224E+01 -.350E+02 0.267E+03   0.866E+01 0.664E+02 -.280E+03   -.121E+02 -.292E+02 0.857E+01   0.277E-02 -.420E-02 -.283E-02
   0.339E+02 0.970E+02 0.133E+00   -.356E+02 -.101E+03 0.242E+02   0.147E+01 0.468E+01 -.271E+02   0.422E-03 -.310E-03 -.456E-02
   -.764E+02 0.952E+01 0.490E+02   0.969E+02 -.272E+02 -.538E+02   -.209E+02 0.210E+02 0.382E+01   0.318E-02 -.214E-02 0.236E-03
   -.829E+02 0.318E+02 0.291E+02   0.103E+03 -.317E+02 -.299E+02   -.236E+02 -.382E+00 0.103E+01   0.142E-02 -.324E-03 -.176E-02
   -.323E+02 -.355E+02 -.310E+01   0.404E+02 0.320E+02 0.419E+00   -.104E+02 0.461E+01 0.277E+01   -.290E-02 -.181E-02 0.466E-03
   0.413E+02 -.224E+02 -.201E+02   -.502E+02 0.223E+02 0.421E+02   0.109E+02 -.100E+01 -.245E+02   0.146E-02 -.129E-02 -.573E-03
   -.114E+02 -.952E+02 -.276E+02   -.108E+02 0.122E+03 0.233E+02   0.167E+02 -.198E+02 0.477E+01   -.222E-02 0.194E-02 0.412E-02
   -.621E+02 0.634E+02 0.846E+02   0.447E+02 -.522E+02 -.112E+03   0.165E+02 -.124E+02 0.252E+02   0.172E-02 0.200E-02 0.415E-02
   -.214E+02 0.529E+02 -.145E+03   0.568E-13 0.256E-12 0.483E-12   0.214E+02 -.529E+02 0.145E+03   -.285E-02 0.164E-01 -.280E-01

 POSITION                                       TOTAL-FORCE (eV/Angst)
      0.29135      5.26011      7.31509         3.742863      0.263972      3.601042
      9.47960      5.12753      9.23520        -0.470949     -4.033499      0.812519
      8.87507      6.32607      6.18372        -3.448946     -1.742802     -6.424106
      3.21313      0.04692      3.99637         1.158706     -0.258275     -0.593681
      0.55186      9.90532      8.50324        -4.360881     -0.353557      2.768779
      5.61062      7.79823      8.24676         1.729563      0.709513      2.025192
      3.13183      9.59149      2.76059         4.876765     -0.774996     -2.458847
      4.62757      7.31342      0.44901         3.516608      2.500952      0.421447
     12.03066      8.12365      4.48141         2.420808     -0.317061     -1.547348
      6.57420     11.48830      7.03089        -0.200928     -1.196546     -0.082227
     11.82827      3.52148      2.28641        -0.239445     -1.008004     -2.011292
      3.91588      8.48779      6.04826        -0.551574      0.015366     -2.795078
      1.22649      6.64307      9.74006         0.589885      0.515211      1.583582
      1.37493      1.94325      9.24838        -3.027137      0.854015      1.512498
      9.68191      1.47605      7.81645         1.287299      0.363081      0.532043
      9.41445      8.35543      0.25213         0.297955      4.022620     -1.612277
     10.02383     10.57239      6.41995        -3.051925      1.028568     -2.929255
     10.83375      7.24344      2.04708        -0.870715     -1.054556      1.098049
      9.27884      8.09311      9.03933        -3.403445      2.595382      9.984971
      8.03054      1.95284      0.19198         1.179042     -1.445761     -0.048329
      6.62858      0.42185      3.29212        -0.822938     -0.340911     -1.326788
      5.95191     10.20821     10.63865        -1.875212     -1.361474      2.728501
      7.87748      3.97683      3.35937        -1.171502     -0.514639     -0.012711
      1.36067      0.26157      1.15919         0.351752     -0.478049     -0.316900
      2.55436      6.00484      1.79092        -1.497563     -0.279413      0.445733
      4.32007      0.71216      9.56605        -1.814110     -1.142615      2.911190
      4.78681      2.72317      6.63704        -0.782038      1.296255     -1.747019
      2.34414      8.95334     11.68388         4.721749      9.445731      0.178951
      5.36028      4.78470     10.12414        -2.956589      1.079137      2.103208
      0.41314      9.11901      1.20432        -2.769361      2.954118      0.697980
      6.31172      9.51243      4.63980         3.308602     -7.562239     -0.008071
      9.59780      5.01124      0.59479         0.199320      2.278344     -0.604619
      1.70210      3.35693      4.17837         2.839265     -1.475735      1.407895
     11.44842      1.35863     11.19907         0.750084      0.013300      2.232350
      3.32301      3.33039      0.81122        -1.444515     -0.548772      0.603142
      2.68672     11.88533      6.99913        -2.387410      1.014546      4.375392
      2.70938      4.01371     10.18257        -1.743123      0.361320      4.313026
      4.58393      3.35318      3.55631        -6.035135      2.689991      0.690701
     11.87034      1.10310      5.14099        -0.006805      0.237143     -2.385956
     11.45505      4.38041     11.25511         5.402123     -1.952947      2.020694
     10.52550      8.01525      7.18867         7.989143     -0.112229     -4.126742
     10.69337      3.82962      6.00389        -4.108773     -7.845133      2.186542
     10.75290     11.03125     11.58047         3.485411     -2.347805     -2.223091
      9.20827      1.35862      4.26415         1.723223      1.255226      4.503526
      3.17134      5.57199      5.62930        -1.918946     -3.108446     -1.065546
      6.76236      6.48517      3.46576        -0.228767      4.595253      0.172818
      6.62002      2.42413      8.93623         3.158952      3.678049      0.164075
      3.20446      9.71455      8.33385         1.280401     -7.379755      7.375112
      0.84276     10.88500      5.01308         1.742242     -2.618074     -1.818453
      6.17523      5.38332      6.36198         2.198804     -1.913709     -0.160120
      4.91314      0.57160      0.85436         2.135415      2.277729      1.779938
      8.47097     11.08471      9.91246        -0.624723      0.644664      0.904513
      6.82950      6.57948     10.86363        -0.163825      0.129027     -1.593489
      6.81232     10.03158      1.87855         0.099822     -3.310188     -2.446735
      8.23415      6.77472      2.91241         0.652275      0.099815      2.256982
      2.00318      9.83509      1.13785        -2.308850     -0.706997     -3.567950
     11.55418      5.35948     10.04625        -2.101249      3.323145     -5.103586
      3.73085      5.28745      9.78160         3.949586     -0.994842     -1.131210
      8.10424      2.48162      8.73589         2.236253      0.244611      1.048958
      0.72353      1.85618      3.99835         4.335084      3.137586     -0.853968
[...]
      1.14219      4.24999     10.98043        -2.804521     -1.261624      1.546788
      2.63020      7.61407      0.09665        -0.556586     -9.199381      2.642376
     10.42170      9.49512      8.01844         0.881993     -3.988651     -0.316005
      8.11782      9.63224      9.28374        -4.116377      0.031147      2.272363
      1.88618      9.10351     10.19991        -1.257789      0.948562     -4.976431
      1.49057      4.80781      3.45352        -1.890804     -1.815848     -0.212865
     11.34830      9.38814      2.48488        -1.873747     -0.394169     -1.141535
     11.24461      5.22452      5.70340        -1.196994      2.222650     -4.591784
     10.47782      3.82676      7.68246        -0.254717      0.485910     -2.798434
      0.78721      0.52954     11.23740        -0.342652      3.293639     -0.992899
      0.15568      7.60060      7.58219        -3.424740     -0.270641      0.182532
      4.17858      2.02362      0.77561        -2.347297      1.046001      0.090772
      2.21267      0.25620      8.53228         2.016970     -1.113518     -2.523601
      5.44029     10.69590      4.53893        -5.439420      6.908248      0.524721
      8.26029      1.85054      3.17096        -0.826995     -1.194529     -1.935397
    total drift:                                0.013699      0.003358     -0.042008

  FREE ENERGIE OF THE ION-ELECTRON SYSTEM (eV)
  free  energy   TOTEN  =      -896.50182787 eV

  energy  without entropy=     -896.47888218  energy(sigma->0) =     -896.49035502