 vasp.5.4.4.18Apr17-6-g9f103f2a35 (build Oct 31 2019 15:01:46) complex

 executed on             LinuxIFC date 2024.04.29  12:12:59

 INCAR:
 POTCAR:    PAW_PBE Ca_sv 06Sep2000
 POTCAR:    PAW_PBE Si 05Jan2001
 POTCAR:    PAW_PBE O 08Apr2002
 POTCAR:    PAW_PBE Ca_sv 06Sep2000
   VRHFIN =Ca: 3s3p4s

   TITEL  = PAW_PBE Ca_sv 06Sep2000
   POMASS =   40.078; ZVAL   =   10.000    mass and valenz
   ENMAX  =  266.622; ENMIN  =  199.967 eV

   TITEL  = PAW_PBE Si 05Jan2001
   POMASS =   28.085; ZVAL   =    4.000    mass and valenz
   ENMAX  =  245.345; ENMIN  =  184.009 eV

   TITEL  = PAW_PBE O 08Apr2002
   POMASS =   16.000; ZVAL   =    6.000    mass and valenz
   ENMAX  =  400.000; ENMIN  =  300.000 eV

 Optimization of the real space projectors (new method)

 maximal supplied QI-value         = 16.25
 optimisation between [QCUT,QGAM] = [ 12.51, 25.03] = [ 43.85,175.40] Ry
 Optimized for a Real-space Cutoff    1.47 Angstroem

   l    n(q)    QCUT    max X(q) W(low)/X(q) W(high)/X(q)  e(spline)
   0     11    12.514    11.817    0.25E-04    0.32E-05    0.87E-07
   0     11    12.514     8.461    0.39E-04    0.59E-05    0.18E-06
   1     11    12.514     3.957    0.97E-05    0.57E-05    0.28E-07
   1     11    12.514     4.314    0.42E-04    0.14E-04    0.23E-06
   2     10    12.514    14.565    0.79E-04    0.50E-03    0.16E-05
   2     10    12.514    14.552    0.75E-04    0.48E-03    0.15E-05
 Optimization of the real space projectors (new method)

[...]

   l    n(q)    QCUT    max X(q) W(low)/X(q) W(high)/X(q)  e(spline)
   0      9    12.501   159.560    0.10E-03    0.83E-04    0.71E-07
   0      9    12.501   115.863    0.99E-04    0.81E-04    0.70E-07
   1      8    12.501    88.339    0.20E-03    0.25E-03    0.76E-07
   1      8    12.501    48.592    0.20E-03    0.24E-03    0.75E-07
 Optimization of the real space projectors (new method)

 maximal supplied QI-value         = 24.76
 optimisation between [QCUT,QGAM] = [ 12.38, 25.00] = [ 42.90,175.06] Ry
 Optimized for a Real-space Cutoff    1.16 Angstroem

   l    n(q)    QCUT    max X(q) W(low)/X(q) W(high)/X(q)  e(spline)
   0      9    12.378    20.381    0.16E-03    0.67E-05    0.31E-06
   0      9    12.378    15.268    0.17E-03    0.81E-05    0.33E-06
   1      8    12.378     5.964    0.20E-03    0.16E-03    0.30E-06
   1      8    12.378     5.382    0.18E-03    0.14E-03    0.26E-06
  PAW_PBE Ca_sv 06Sep2000               :
  PAW_PBE Si 05Jan2001                  :
  PAW_PBE O 08Apr2002                   :

 POSCAR: Ca Si  O
  positions in direct lattice
 exchange correlation table for  LEXCH =        8
   RHO(1)=    0.500       N(1)  =     2000
   RHO(2)=  100.500       N(2)  =     4000

 ion  position               nearest neighbor table
   1  0.328  0.703  0.039- 100 2.27  85 2.29  71 2.45  44 3.12
   2  0.302  0.344  0.659- 105 2.29  81 2.30 115 2.57  51 3.05  38 3.08
   3  0.897  0.830  0.976-
   4  0.607  0.135  0.800-  86 2.04  99 2.23  36 3.14
   5  0.928  0.821  0.699-  98 1.80  61 2.25 117 2.28  70 2.46  37 3.14
   6  0.385  0.336  0.886- 105 1.90 131 2.19 102 2.25  51 2.37
   7  0.546  0.945  0.649- 135 1.90  55 2.12  82 2.55  37 2.91   8 2.96
   8  0.398  0.823  0.762- 135 2.23  62 2.29  58 2.46  41 2.67   7 2.96
   9  0.652  0.209  0.539-  99 1.79  65 2.38  82 2.41  80 2.44  43 2.73
  10  0.051  0.113  0.358- 129 2.02  59 2.38  49 2.80
  11  0.735  0.965  0.179- 127 1.98  72 2.13  87 2.37
  12  0.554  0.142  0.169-  76 2.12  64 2.35 122 2.53
  13  0.660  0.439  0.122- 114 2.17  69 2.30 123 2.35  44 3.13
  14  0.428  0.657  0.283- 120 2.18 107 2.28  85 2.56  33 2.60  35 3.16
  15  0.483  0.685  0.541-  90 2.13 107 2.40 135 2.43 106 2.44  23 2.94  33 3.12
  16  0.925  0.523  0.373- 132 1.83  66 2.25  32 3.00  18 3.02  42 3.11
  17  0.707  0.769  0.354- 107 2.35
  18  0.780  0.502  0.546-  66 2.00  88 2.39  74 2.57  16 3.02
  19  0.085  0.237  0.998-  93 2.20
  20  0.060  0.550  0.675-  74 2.26 116 2.35 103 2.51  46 2.93
  21  0.157  0.523  0.186-  75 2.03  97 2.28 109 2.32  47 3.06
  22  0.878  0.131  0.616-  80 2.15  99 2.56
  23  0.411  0.862  0.429-  57 1.81 135 2.39  34 2.94  15 2.94
  24  0.299  0.058  0.643-  62 2.08  92 2.37
  25  0.269  0.149  0.239-  59 2.01  60 2.29  76 2.32 126 2.54  52 2.85  54 3.05
  26  0.471  0.537  0.730- 131 2.17  81 2.40
  27  0.910  0.622  0.095-  56 2.07  83 2.24  77 2.25  69 2.32  40 2.81
  28  0.445  0.210  0.412- 122 1.42  65 1.80  60 1.80  78 2.02 108 2.42
  29  0.664  0.386  0.781- 124 1.48  86 1.70  84 1.75 130 1.91  39 2.54
  30  0.170  0.715  0.489-  79 1.53  67 1.66 103 1.80  63 1.93 106 2.55  41 2.68  35 2.72  32 2.92

  31  0.893  0.386  0.169-  69 1.51  97 1.72 134 1.79 104 2.53  53 3.01
  32  0.951  0.716  0.485- 133 1.48  98 1.61  66 1.75  79 1.90  30 2.92  16 3.00
  33  0.543  0.529  0.376- 123 1.78  90 1.81 107 1.85 120 2.26  14 2.60  38 2.61  15 3.12
  34  0.572  0.003  0.375-  57 1.56  82 1.68 108 1.71 127 1.97  23 2.94
  35  0.203  0.734  0.289-  63 1.50  75 1.60  94 1.93  91 2.34  30 2.72  54 2.73  14 3.16
  36  0.430  0.019  0.903- 121 1.48  95 1.68 128 1.69  62 2.02  52 2.53   4 3.14
  37  0.696  0.787  0.676-  55 1.56  96 1.60 117 2.05   7 2.91   5 3.14
  38  0.394  0.448  0.475-  78 1.65  81 1.69 120 1.74  90 2.29 119 2.50  33 2.61   2 3.08
  39  0.854  0.401  0.779- 112 1.72  74 1.73  84 1.84 130 1.85  29 2.54
  40  0.916  0.789  0.225-  73 1.57  77 1.60  56 1.70 133 2.21  27 2.81
  41  0.228  0.763  0.676-  58 1.48 106 1.85  67 1.94 103 2.15   8 2.67  30 2.68
  42  0.119  0.401  0.419- 119 1.51 132 1.60 115 1.80 129 2.08  49 2.77  16 3.11
  43  0.796  0.274  0.408-  80 1.56  88 1.59 104 1.76   9 2.73
  44  0.540  0.608  0.011-  68 1.68 114 1.71 110 1.85  71 2.46  48 2.95   1 3.12  13 3.13
  45  0.969  0.037  0.105- 125 1.47  87 1.50 113 1.51  73 2.21
  46  0.082  0.641  0.875-  70 1.47 100 1.82  83 1.87 116 1.92  20 2.93
  47  0.361  0.435  0.127- 109 1.56  85 1.69 102 1.88 111 2.53  21 3.06
  48  0.566  0.827  0.038-  71 1.44 110 1.68  72 1.76  95 1.98  44 2.95
  49  0.198  0.215  0.469- 101 1.59  60 1.79 129 1.82 115 1.86  42 2.77  10 2.80
  50  0.077  0.017  0.778-  92 1.52  89 1.63  61 1.63
  51  0.232  0.424  0.862- 111 1.64 105 1.75 131 1.81 116 1.87   6 2.37   2 3.05
  52  0.318  0.092  0.039-  93 1.69 126 1.87  76 1.91 128 1.93 121 2.13  36 2.53  25 2.85
  53  0.787  0.196  0.110- 118 1.54  64 1.65  87 1.93 134 1.96  31 3.01
  54  0.245  0.922  0.219- 126 1.61  94 1.61  91 1.71  59 1.87  35 2.73  25 3.05
  55  0.629  0.851  0.749-  37 1.56   7 2.12
  56  0.827  0.744  0.144-  40 1.70  27 2.07
  57  0.533  0.893  0.377-  34 1.56  23 1.81
  58  0.214  0.810  0.776-  41 1.48   8 2.46
  59  0.197  0.029  0.296-  54 1.87  25 2.01  10 2.38
  60  0.311  0.207  0.396-  49 1.79  28 1.80  25 2.29
  61  0.972  0.983  0.723-  50 1.63   5 2.25
  62  0.376  0.994  0.763-  36 2.02  24 2.08   8 2.29
  63  0.266  0.717  0.381-  35 1.50  30 1.93
  64  0.721  0.177  0.213-  53 1.65  12 2.35
  65  0.474  0.216  0.543-  28 1.80   9 2.38
  66  0.870  0.614  0.503-  32 1.75  18 2.00  16 2.25
  67  0.154  0.815  0.562-  30 1.66  41 1.94
  68  0.457  0.610  0.916-  44 1.68
  69  0.829  0.473  0.134-  31 1.51  13 2.30  27 2.32
  70  0.023  0.701  0.802-  46 1.47   5 2.46
  71  0.492  0.768  0.091-  48 1.44   1 2.45  44 2.46
  72  0.676  0.900  0.046-  48 1.76  11 2.13
  73  0.917  0.897  0.178-  40 1.57  45 2.21
  74  0.908  0.477  0.689-  39 1.73  20 2.26  18 2.57
  75  0.214  0.665  0.191-  35 1.60  21 2.03
  76  0.403  0.166  0.128-  52 1.91  12 2.12  25 2.32
  77  0.974  0.685  0.238-  40 1.60  27 2.25
  78  0.376  0.345  0.409-  38 1.65  28 2.02
  79  0.077  0.660  0.450-  30 1.53  32 1.90
  80  0.821  0.179  0.473-  43 1.56  22 2.15   9 2.44
  81  0.365  0.489  0.592-  38 1.69   2 2.30  26 2.40
  82  0.592  0.045  0.493-  34 1.68   9 2.41   7 2.55
  83  0.960  0.606  0.935-  46 1.87  27 2.24
  84  0.752  0.426  0.870-  29 1.75  39 1.84
  85  0.363  0.562  0.130-  47 1.69   1 2.29  14 2.56
  86  0.660  0.273  0.840-  29 1.70   4 2.04
  87  0.866  0.076  0.131-  45 1.50  53 1.93  11 2.37
  88  0.732  0.372  0.432-  43 1.59  18 2.39
  89  0.095  0.135  0.805-  50 1.63
  90  0.537  0.537  0.511-  33 1.81  15 2.13  38 2.29
[...]
 121  0.429  0.127  0.929-  36 1.48  52 2.13
 122  0.524  0.219  0.340-  28 1.42  12 2.53
 123  0.575  0.445  0.277-  33 1.78  13 2.35
 124  0.600  0.397  0.691-  29 1.48
 125  0.944  0.028  0.998-  45 1.47
 126  0.262  0.996  0.125-  54 1.61  52 1.87  25 2.54
 127  0.710  0.996  0.323-  34 1.97  11 1.98
 128  0.318  0.979  0.948-  36 1.69  52 1.93
 129  0.111  0.252  0.371-  49 1.82  10 2.02  42 2.08
 130  0.766  0.341  0.691-  39 1.85  29 1.91
 131  0.348  0.483  0.823-  51 1.81  26 2.17   6 2.19
 132  1.000  0.412  0.405-  42 1.60  16 1.83
 133  0.916  0.752  0.386-  32 1.48  40 2.21
 134  0.902  0.283  0.083-  31 1.79  53 1.96
 135  0.447  0.852  0.605-   7 1.90 106 1.92   8 2.23  23 2.39  15 2.43

IMPORTANT INFORMATION: All symmetrisations will be switched off!
NOSYMM: (Re-)initialisation of all symmetry stuff for point group C_1.

Automatic generation of k-mesh.
 generate k-points for:    2    2    2
Space group operators:
 irot       det(A)        alpha          n_x          n_y          n_z        tau_x        tau_y        tau_z
    1     1.000000     0.000001     1.000000     0.000000     0.000000     0.000000     0.000000     0.000000

 Subroutine IBZKPT returns following result:

 Found      8 irreducible k-points:

 Following reciprocal coordinates:
            Coordinates               Weight
  0.000000  0.000000  0.000000      1.000000
  0.500000  0.000000  0.000000      1.000000
  0.000000  0.500000  0.000000      1.000000
  0.500000  0.500000  0.000000      1.000000
  0.000000  0.000000  0.500000      1.000000
  0.500000  0.000000  0.500000      1.000000
  0.000000  0.500000  0.500000      1.000000
  0.500000  0.500000  0.500000      1.000000

 Following cartesian coordinates:
            Coordinates               Weight
  0.000000  0.000000  0.000000      1.000000
  0.037563  0.000000  0.000000      1.000000
  0.000000  0.037563  0.000000      1.000000
  0.037563  0.037563  0.000000      1.000000
  0.000000  0.000000  0.037563      1.000000
  0.037563  0.000000  0.037563      1.000000
  0.000000  0.037563  0.037563      1.000000
  0.037563  0.037563  0.037563      1.000000

 SYSTEM =  unknown system
 POSCAR =  Ca Si  O

 Startparameter for this run:
   NWRITE =      2    write-flag & timer
   PREC   = a         normal or accurate (medium, high low for compatibility)
   ISTART =      0    job   : 0-new  1-cont  2-samecut
   ICHARG =      2    charge: 1-file 2-atom 10-const
   ISPIN  =      1    spin polarized calculation?
   LNONCOLLINEAR =      F non collinear calculations
   LSORBIT =      F    spin-orbit coupling
   INIWAV =      1    electr: 0-lowe 1-rand  2-diag
   LASPH  =      F    aspherical Exc in radial PAW
   METAGGA=      F    non-selfconsistent MetaGGA calc.

 Electronic Relaxation 1
   ENCUT  =  600.0 eV  44.10 Ry    6.64 a.u.  26.59 26.59 26.59*2*pi/ulx,y,z
   ENINI  =  600.0     initial cutoff
   ENAUG  =  605.4 eV  augmentation charge cutoff
   NELM   =     60;   NELMIN=  2; NELMDL= -5     # of ELM steps
[...]
     0.000000000  0.000000000 13.310935620     0.000000000  0.000000000  0.075126199

  length of vectors
    13.310935620 13.310935620 13.310935620     0.075126199  0.075126199  0.075126199

 FORCES acting on ions
    electron-ion (+dipol)            ewald-force                    non-local-force                 convergence-correction
   0.873E+02 -.193E+03 0.188E+03   -.896E+02 0.189E+03 -.188E+03   0.125E+01 0.413E+01 0.577E-01   -.945E-03 -.696E-03 0.268E-02
   0.778E+02 0.196E+03 -.394E+02   -.794E+02 -.192E+03 0.393E+02   0.107E+01 -.363E+01 -.753E+00   -.582E-03 -.993E-03 0.303E-03
   0.322E+02 -.657E+02 0.262E+03   -.329E+02 0.676E+02 -.258E+03   0.212E+00 -.963E+00 -.301E+01   -.449E-03 0.148E-03 0.748E-03
   -.970E+02 0.199E+03 -.168E+03   0.104E+03 -.189E+03 0.166E+03   -.593E+01 -.890E+01 0.235E+01   0.232E-02 0.252E-02 0.256E-02
   0.196E+03 -.194E+03 -.277E+03   -.194E+03 0.198E+03 0.274E+03   -.286E+01 0.448E-01 0.708E+01   -.274E-02 0.585E-03 0.656E-03
   -.323E+03 0.135E+03 -.674E+01   0.324E+03 -.136E+03 0.155E+02   0.502E+01 -.131E+01 -.359E+01   0.317E-03 -.136E-03 0.143E-02
   -.304E+03 -.222E+03 -.112E+03   0.305E+03 0.222E+03 0.109E+03   0.106E+01 0.504E+01 0.245E+01   0.141E-01 0.108E-01 0.602E-02
   -.717E+02 0.138E+03 -.304E+03   0.692E+02 -.131E+03 0.303E+03   0.250E+01 -.550E+01 0.311E+01   0.892E-04 -.365E-03 0.186E-01
   -.390E+02 -.699E+02 0.663E+02   0.341E+02 0.656E+02 -.646E+02   0.152E+01 0.565E+01 -.593E+01   0.198E-02 0.282E-02 -.106E-02
   0.320E+03 0.262E+03 -.124E+03   -.315E+03 -.260E+03 0.119E+03   -.547E+01 -.417E+01 0.364E+01   -.121E-02 -.445E-03 -.698E-03
   0.433E+01 0.463E+02 0.107E+03   -.938E+00 -.435E+02 -.107E+03   -.813E+00 -.182E+01 -.118E+01   0.164E-02 -.592E-03 -.446E-03
   -.129E+03 0.342E+02 0.179E+03   0.126E+03 -.282E+02 -.177E+03   0.313E+01 -.455E+01 -.186E+01   0.581E-03 0.805E-03 -.555E-03
   -.407E+02 0.119E+03 0.166E+03   0.411E+02 -.115E+03 -.163E+03   -.586E+00 -.509E+01 -.226E+01   0.286E-03 0.441E-03 0.305E-03
   -.156E+03 -.526E+02 0.195E+03   0.154E+03 0.511E+02 -.198E+03   0.955E+00 0.271E+01 -.696E+00   -.501E-04 -.204E-02 -.284E-02
   -.194E+03 -.253E+01 -.165E+03   0.195E+03 0.141E+01 0.164E+03   -.588E+00 0.163E+01 0.860E+00   0.115E-01 -.143E-01 -.659E-02
   0.180E+03 -.143E+02 0.134E+03   -.178E+03 0.163E+02 -.133E+03   -.443E+01 0.226E+01 -.375E+01   -.423E-03 0.960E-03 -.663E-03
   -.148E+03 -.306E+02 0.297E+01   0.145E+03 0.323E+02 -.116E+01   0.264E+01 -.759E+00 -.111E+01   0.358E-02 -.136E-02 -.202E-02
   0.118E+03 0.103E+02 -.129E+03   -.116E+03 -.119E+02 0.135E+03   -.382E+01 -.713E+00 -.200E+01   0.105E-02 -.858E-03 0.559E-03
   0.221E+03 -.186E+02 0.116E+03   -.217E+03 0.155E+02 -.118E+03   -.408E+01 0.270E+01 0.129E+01   -.834E-03 -.663E-03 -.658E-03
   0.786E+02 0.149E+03 -.426E+02   -.817E+02 -.149E+03 0.468E+02   0.222E+01 0.205E+00 -.392E+01   -.521E-02 -.288E-02 0.114E-02
   0.183E+03 0.805E+02 0.105E+03   -.180E+03 -.842E+02 -.106E+03   -.249E+01 0.576E+00 0.808E+00   -.621E-03 0.182E-02 0.674E-03
   -.201E+03 0.124E+03 -.172E+03   0.195E+03 -.123E+03 0.174E+03   0.510E+01 -.132E+01 0.411E+00   0.101E-02 0.728E-03 0.680E-03
   0.183E+03 -.133E+03 0.350E+02   -.184E+03 0.139E+03 -.348E+02   -.510E+01 -.434E+01 0.949E+00   0.126E-02 0.257E-02 -.180E-01
   0.936E+02 -.171E+03 0.618E+02   -.982E+02 0.166E+03 -.558E+02   0.247E+01 0.386E+01 -.573E+01   -.492E-02 0.742E-02 0.197E-02
   0.654E+02 -.109E+03 0.111E+03   -.630E+02 0.107E+03 -.110E+03   -.147E+01 0.427E+01 -.179E+01   -.970E-03 0.367E-03 -.104E-02
   -.234E+03 -.793E+02 -.133E+03   0.231E+03 0.730E+02 0.135E+03   0.311E+01 0.551E+01 -.194E+01   0.320E-02 -.397E-02 0.200E-02
   0.619E+02 0.440E+02 0.243E+03   -.612E+02 -.483E+02 -.244E+03   0.611E-01 0.335E+00 -.223E+00   -.119E-03 0.796E-03 0.108E-02
   0.233E+02 0.315E+02 -.582E+02   -.777E+01 -.271E+02 0.514E+02   -.234E+02 -.368E+01 0.162E+02   0.106E-03 0.848E-03 -.686E-03
   -.151E+01 -.962E+02 -.118E+03   -.374E-01 0.861E+02 0.110E+03   0.873E+01 0.306E+01 0.120E+02   0.108E-02 -.176E-03 -.388E-03
   0.664E+01 -.661E+02 0.442E+02   -.168E+02 0.645E+02 -.336E+02   0.150E+02 0.148E+01 -.503E+01   -.475E-02 -.134E-02 -.530E-02
   0.222E+02 0.993E+02 -.345E+02   -.198E+02 -.882E+02 0.228E+02   0.474E+01 -.156E+02 0.968E+01   -.103E-03 0.192E-03 0.141E-03
   0.250E+02 -.107E+03 -.256E+02   -.309E+02 0.107E+03 0.257E+02   0.704E+01 -.515E+01 0.600E+01   -.647E-03 -.147E-03 -.117E-02
   -.119E+03 0.811E+02 0.454E+02   0.120E+03 -.819E+02 -.463E+02   0.189E-01 -.496E+00 0.183E+01   0.686E-03 -.642E-03 -.941E-03
   -.129E+03 -.524E+02 0.656E+02   0.121E+03 0.479E+02 -.555E+02   0.955E+01 0.800E+01 -.709E+01   0.117E-02 0.888E-03 -.164E-02
   0.155E+03 -.790E+02 -.446E+00   -.148E+03 0.733E+02 -.514E+01   -.103E+02 0.100E+02 -.456E+01   -.195E-02 -.191E-03 -.103E-02
   -.114E+03 0.161E+02 0.579E+02   0.105E+03 -.106E+02 -.479E+02   0.473E+01 -.145E+02 -.117E+02   0.115E-04 0.808E-03 0.149E-02
   -.154E+03 -.786E+01 -.943E+01   0.144E+03 0.544E+01 0.168E+02   0.125E+02 0.273E+01 -.907E+01   0.303E-02 -.851E-03 0.789E-03
   -.618E+02 0.582E+02 -.386E+02   0.582E+02 -.613E+02 0.351E+02   0.158E+01 0.485E+01 0.261E+01   0.478E-03 -.844E-03 -.944E-03
   -.334E+02 -.195E+02 -.102E+03   0.394E+02 0.126E+02 0.959E+02   -.440E+01 0.383E+01 0.367E+01   -.324E-03 -.275E-03 -.748E-03
   -.133E+02 -.877E+02 -.731E+02   0.146E+02 0.824E+02 0.606E+02   -.132E+01 0.210E+01 0.124E+02   0.345E-03 -.223E-03 0.213E-03
   0.617E+02 0.472E+02 -.439E+02   -.606E+02 -.391E+02 0.537E+02   -.219E+01 -.105E+02 -.209E+02   -.600E-02 -.598E-03 0.529E-02
   0.801E+02 0.164E+02 -.647E+01   -.719E+02 -.984E+01 0.722E+01   -.857E+01 -.121E+02 0.102E+01   -.521E-03 -.954E-04 -.535E-03
   -.425E+01 0.866E+01 0.525E+02   0.988E+01 -.775E+01 -.488E+02   -.118E+01 0.886E-01 -.892E+01   0.255E-03 0.262E-03 -.143E-04
   -.866E+02 0.916E+02 0.507E+02   0.882E+02 -.855E+02 -.540E+02   -.147E+00 -.658E-01 0.241E+01   0.527E-03 -.358E-03 0.516E-03
   -.961E+02 0.109E+03 0.328E+02   0.898E+02 -.916E+02 -.398E+02   0.829E+01 -.189E+02 0.108E+02   -.493E-04 -.254E-03 0.204E-04
   0.320E+01 -.199E+02 -.930E+02   -.923E+01 0.262E+02 0.891E+02   0.104E+02 -.129E+02 0.121E+02   -.961E-03 -.210E-03 0.950E-03
   -.114E+03 0.406E+02 0.381E+02   0.103E+03 -.438E+02 -.335E+02   0.108E+02 0.923E+00 -.848E+01   0.123E-03 0.396E-04 0.916E-04
   -.108E+03 -.116E+03 0.308E+02   0.104E+03 0.102E+03 -.283E+02   0.112E+02 0.188E+02 -.105E+02   0.671E-03 -.215E-03 0.418E-03
   0.772E+01 0.229E+02 -.918E+02   -.151E+02 -.297E+02 0.927E+02   0.667E+01 0.102E+02 -.380E+01   -.701E-03 0.313E-03 -.351E-03
   0.106E+03 -.347E+01 -.121E+03   -.981E+02 0.106E+02 0.109E+03   -.908E+01 -.247E+01 0.108E+02   -.837E-03 0.138E-02 0.572E-03
   0.146E+03 -.147E+02 0.494E+02   -.141E+03 0.144E+02 -.381E+02   -.694E+01 0.469E+01 -.957E+01   -.410E-03 -.558E-03 0.598E-03
   0.899E+01 0.423E+02 0.229E+02   -.149E+02 -.361E+02 -.254E+02   0.488E+01 -.591E+01 0.166E+01   -.355E-03 0.251E-03 0.307E-03
   -.660E+02 -.521E+01 0.664E+02   0.495E+02 0.808E+01 -.698E+02   0.198E+02 -.441E+01 0.528E+01   0.147E-03 -.103E-04 -.938E-04
   0.234E+02 -.201E+02 -.121E+02   -.262E+02 0.186E+02 0.668E+01   0.315E+01 0.431E+01 0.618E+01   -.138E-02 -.671E-03 -.516E-03
   -.191E+03 -.268E+02 -.230E+03   0.177E+03 0.385E+02 0.256E+03   0.146E+02 -.996E+01 -.253E+02   0.612E-02 -.131E-02 0.366E-02
   0.186E+03 -.180E+02 0.814E+02   -.208E+03 0.126E+02 -.938E+02   0.201E+02 0.718E+01 0.136E+02   0.461E-03 0.120E-03 0.673E-03
   -.206E+03 0.520E+02 0.113E+03   0.203E+03 -.740E+02 -.118E+03   0.809E+01 0.169E+02 0.295E+01   0.255E-02 0.317E-03 -.458E-02
   0.130E+03 -.394E+02 -.218E+03   -.141E+03 0.597E+02 0.256E+03   0.124E+02 -.203E+02 -.346E+02   -.427E-02 0.103E-02 0.519E-02
   0.124E+03 0.137E+03 -.117E+03   -.132E+03 -.131E+03 0.126E+03   0.764E+01 -.960E+01 -.724E+01   -.150E-02 -.407E-03 -.115E-02
   0.205E+02 0.749E+02 -.471E+02   -.217E+02 -.721E+02 0.344E+02   -.103E+01 -.596E+01 0.146E+02   -.473E-03 0.930E-03 -.896E-03
[...]
   -.157E+03 -.881E+02 0.928E+02   0.191E+03 0.948E+02 -.121E+03   -.272E+02 -.577E+01 0.215E+02   0.468E-03 0.907E-03 -.830E-03
   -.792E+02 0.791E+02 0.353E+02   0.812E+02 -.967E+02 -.470E+02   -.312E+01 0.214E+02 0.154E+02   0.348E-03 0.853E-03 0.176E-03
   0.361E+02 -.241E+02 0.191E+02   -.529E+02 0.218E+02 -.537E+02   0.104E+02 0.595E+01 0.315E+02   0.190E-02 -.993E-04 0.164E-03
   0.804E+01 0.191E+02 0.300E+03   -.214E+02 -.154E+02 -.339E+03   0.148E+02 -.796E+01 0.296E+02   -.118E-03 -.101E-03 -.199E-03
   0.743E+02 0.628E+02 0.148E+03   -.785E+02 -.598E+02 -.165E+03   0.543E+01 -.960E+00 0.151E+02   -.108E-02 -.335E-03 0.180E-03
   -.146E+03 -.746E+01 -.137E+03   0.161E+03 0.143E+02 0.143E+03   -.197E+02 -.774E+01 -.274E+01   0.148E-02 -.112E-03 -.899E-03
   0.191E+03 0.986E+02 0.719E+01   -.215E+03 -.119E+03 -.740E+01   0.232E+02 0.235E+02 0.177E+01   -.948E-03 0.764E-03 0.175E-02
   0.107E+03 -.365E+02 0.618E+02   -.119E+03 0.412E+02 -.775E+02   0.152E+02 -.332E+01 0.170E+02   -.627E-03 0.135E-03 -.470E-03
   -.121E+03 0.522E+02 0.327E+01   0.118E+03 -.673E+02 -.209E+02   0.430E+01 0.178E+02 0.198E+02   0.802E-03 0.445E-03 0.453E-03
   0.952E+00 -.107E+03 -.722E+01   0.945E+01 0.123E+03 0.843E+01   -.127E+02 -.175E+02 -.259E+01   0.327E-03 -.126E-02 0.133E-02
   0.463E+02 0.143E+03 -.791E+02   -.702E+02 -.155E+03 0.771E+02   0.272E+02 0.102E+02 0.394E+01   -.613E-03 0.213E-03 -.381E-03
   0.740E+02 -.223E+03 0.290E+02   -.818E+02 0.230E+03 -.576E+02   0.423E+01 -.201E+01 0.231E+02   0.236E-03 0.192E-03 -.148E-02
   -.198E+02 0.103E+02 0.152E+03   0.303E+02 -.166E+02 -.171E+03   -.126E+02 0.694E+01 0.220E+02   -.121E-03 -.802E-04 0.176E-04
   -.514E+02 -.470E+02 -.140E+02   0.448E+02 0.440E+02 0.103E+02   0.897E+01 0.259E+01 0.259E+01   0.117E-01 0.700E-02 0.180E-02
   -.187E+03 0.298E+02 -.581E+02   -.689E-12 0.625E-12 0.451E-12   0.187E+03 -.298E+02 0.581E+02   -.407E-02 -.137E-02 -.392E-02

 POSITION                                       TOTAL-FORCE (eV/Angst)
      4.36136      9.35818      0.52383        -0.993361     -0.030751     -0.399446
      4.02395      4.57369      8.77779        -0.512337      0.487617     -0.899256
     11.94458     11.04348     12.98770        -0.520221      0.971604      0.826579
      8.08419      1.79599     10.64586         1.415702      1.268989     -0.020074
     12.35847     10.93081      9.30557        -1.004427      3.674428      4.574471
      5.12187      4.46662     11.79735         6.796072     -2.146833      5.147639
      7.27216     12.57381      8.64461         2.455450      4.926976     -0.987720
      5.30138     10.96106     10.14928         0.032858      0.964852      1.582758
      8.68515      2.77897      7.17661        -3.404349      1.405291     -4.265492
      0.68280      1.50559      4.76965        -1.065337     -1.909962     -1.847539
      9.78738     12.84523      2.38657         2.579662      1.007577     -1.946944
      7.37600      1.88517      2.25142        -0.068272      1.426208      0.766313
      8.78001      5.83982      1.62039        -0.238144     -1.091450      0.110644
      5.69803      8.75024      3.77263        -1.745998      1.250235     -3.411157
      6.42568      9.11327      7.20016        -0.282508      0.494455      0.573339
     12.31287      6.95915      4.95899        -2.009091      4.199886     -3.152131
      9.41130     10.23949      4.70656        -0.614898      0.889684      0.687308
     10.38390      6.68250      7.27038        -1.805431     -2.324406      3.563127
      1.12859      3.14989     13.28701         0.190038     -0.391179     -1.058161
      0.80167      7.31919      8.98820        -0.855605      0.051200      0.270043
      2.08808      6.96814      2.47521        -0.147253     -3.176613     -0.786690
     11.68982      1.74401      8.20494        -0.963130     -0.008548      2.353832
      5.47688     11.46864      5.71130        -5.946973      0.915141      1.177349
      3.97693      0.77185      8.55526        -2.140214     -0.643782      0.316724
      3.58675      1.98081      3.18058         0.982781      2.108052     -0.980949
      6.26577      7.14488      9.71722         0.349241     -0.837518      0.490140
     12.11876      8.28160      1.26660         0.766327     -3.924351     -1.171227
      5.92404      2.79080      5.47879        -7.847166      0.738365      9.367946
      8.84087      5.14331     10.39808         7.189543     -7.074488      3.981001
      2.26438      9.51613      6.51414         4.918200     -0.118933      5.518225
     11.88769      5.13933      2.24510         7.069899     -4.525277     -2.038103
     12.65687      9.53313      6.45765         1.212669     -4.574991      6.161426
      7.22487      7.03915      5.00555         1.086300     -1.373777      0.969201
      7.61961      0.04503      4.99649         2.386817      3.498743      2.912314
      2.70823      9.76500      3.84456        -2.883519      4.374705    -10.139174
      5.71768      0.24949     12.01952        -4.744563     -8.990912     -1.779040
      9.26533     10.48083      9.00463         1.998591      0.307732     -1.693622
      5.24258      5.96369      6.31877        -2.106622      1.703950     -0.953011
     11.37351      5.33758     10.37560         1.619978     -3.070772     -2.543911
     12.18648     10.50057      2.98931        -0.073527     -3.163403     -0.114076
      3.03244     10.14960      9.00196        -1.085667     -2.387608    -11.175433
      1.57937      5.33239      5.57383        -0.326833     -5.552915      1.773109
     10.59736      3.64522      5.43507         4.452298      0.992454     -5.187322
      7.18678      8.09544      0.14907         1.525423      6.045130     -0.829380
     12.89376      0.49235      1.40146         1.938557     -1.414549      3.763926
      1.09173      8.53674     11.64238         4.328914     -6.552591      8.166124
      4.80005      5.78365      1.69052         0.625590     -2.215088     -3.934662
      7.53396     11.00333      0.50888         7.538414      5.158535     -8.013944
      2.63818      2.86141      6.24320        -0.703084      3.394768     -2.938983
      1.02211      0.22442     10.35025        -1.537990      4.691997     -0.780350
      3.09432      5.64888     11.48068        -2.372441      4.421379      1.692958
      4.22909      1.21950      0.51458        -1.000386      0.325354     -0.886955
     10.47611      2.60323      1.46021         3.240043     -1.537621      1.885863
      3.26486     12.27040      2.91829         0.297028      2.756943      0.794495
      8.37473     11.33091      9.96934        -0.023587      1.721917      0.877611
     11.00363      9.89807      1.92058        -1.290092      1.726472      1.201890
      7.09788     11.88896      5.02417         5.778590     -5.118332     -1.965598
      2.85485     10.78644     10.32825         1.426397      0.046814      3.375969
      2.61591      0.38766      3.93396         0.119915     -3.996509      1.068615
      4.13690      2.74960      5.26819        -2.196813     -3.154282      1.911274
[...]
      5.70462      1.69151     12.36731         2.217417      6.037873      0.447893
      6.97678      2.91571      4.53213         7.088721      0.918459     -6.915575
      7.66014      5.92544      3.68496        -1.050166      3.749024      3.759139
      7.98296      5.28753      9.19640        -6.447686      3.637677     -3.144424
     12.56792      0.37807     13.28849         1.390035     -4.219678     -9.136875
      3.49230     13.25130      1.66635         1.209439      2.032208     -1.347838
      9.45377     13.25589      4.29708        -4.475105     -0.927876      2.570701
      4.23239     13.02546     12.61275        -0.244068      3.276695      1.559262
      1.47875      3.35524      4.93643         2.851707      1.402263      1.308274
     10.19510      4.54426      9.19600         1.688949      2.683572      2.172823
      4.63787      6.42395     10.95055        -2.312174     -1.639251     -1.383841
     13.31093      5.48369      5.39547         3.325407     -2.093338      1.998825
     12.19467     10.01298      5.13986        -3.559676      4.809204     -5.495076
     12.01058      3.77042      1.10009        -2.065318      0.611811      3.270738
      5.95270     11.34068      8.05020         2.371927     -0.478808     -1.073131
    total drift:                                0.031039      0.002463     -0.002242

  FREE ENERGIE OF THE ION-ELECTRON SYSTEM (eV)
  free  energy   TOTEN  =      -865.06752472 eV

  energy  without entropy=     -865.03328776  energy(sigma->0) =     -865.05040624