 vasp.5.4.4.18Apr17-6-g9f103f2a35 (build Oct 31 2019 15:01:46) complex

 executed on             LinuxIFC date 2024.04.30  04:04:47

 INCAR:
 POTCAR:    PAW_PBE Ca_sv 06Sep2000
 POTCAR:    PAW_PBE Si 05Jan2001
 POTCAR:    PAW_PBE O 08Apr2002
 POTCAR:    PAW_PBE Ca_sv 06Sep2000
   VRHFIN =Ca: 3s3p4s

   TITEL  = PAW_PBE Ca_sv 06Sep2000
   POMASS =   40.078; ZVAL   =   10.000    mass and valenz
   ENMAX  =  266.622; ENMIN  =  199.967 eV

   TITEL  = PAW_PBE Si 05Jan2001
   POMASS =   28.085; ZVAL   =    4.000    mass and valenz
   ENMAX  =  245.345; ENMIN  =  184.009 eV

   TITEL  = PAW_PBE O 08Apr2002
   POMASS =   16.000; ZVAL   =    6.000    mass and valenz
   ENMAX  =  400.000; ENMIN  =  300.000 eV

 Optimization of the real space projectors (new method)

 maximal supplied QI-value         = 16.25
 optimisation between [QCUT,QGAM] = [ 12.51, 25.03] = [ 43.85,175.40] Ry
 Optimized for a Real-space Cutoff    1.47 Angstroem

   l    n(q)    QCUT    max X(q) W(low)/X(q) W(high)/X(q)  e(spline)
   0     11    12.514    11.817    0.25E-04    0.32E-05    0.87E-07
   0     11    12.514     8.461    0.39E-04    0.59E-05    0.18E-06
   1     11    12.514     3.957    0.97E-05    0.57E-05    0.28E-07
   1     11    12.514     4.314    0.42E-04    0.14E-04    0.23E-06
   2     10    12.514    14.565    0.79E-04    0.50E-03    0.16E-05
   2     10    12.514    14.552    0.75E-04    0.48E-03    0.15E-05
 Optimization of the real space projectors (new method)

[...]

   l    n(q)    QCUT    max X(q) W(low)/X(q) W(high)/X(q)  e(spline)
   0      9    12.501   159.560    0.10E-03    0.83E-04    0.71E-07
   0      9    12.501   115.863    0.99E-04    0.81E-04    0.70E-07
   1      8    12.501    88.339    0.20E-03    0.25E-03    0.76E-07
   1      8    12.501    48.592    0.20E-03    0.24E-03    0.75E-07
 Optimization of the real space projectors (new method)

 maximal supplied QI-value         = 24.76
 optimisation between [QCUT,QGAM] = [ 12.38, 25.00] = [ 42.90,175.06] Ry
 Optimized for a Real-space Cutoff    1.16 Angstroem

   l    n(q)    QCUT    max X(q) W(low)/X(q) W(high)/X(q)  e(spline)
   0      9    12.378    20.381    0.16E-03    0.67E-05    0.31E-06
   0      9    12.378    15.268    0.17E-03    0.81E-05    0.33E-06
   1      8    12.378     5.964    0.20E-03    0.16E-03    0.30E-06
   1      8    12.378     5.382    0.18E-03    0.14E-03    0.26E-06
  PAW_PBE Ca_sv 06Sep2000               :
  PAW_PBE Si 05Jan2001                  :
  PAW_PBE O 08Apr2002                   :

 POSCAR: Ca Si  O
  positions in direct lattice
 exchange correlation table for  LEXCH =        8
   RHO(1)=    0.500       N(1)  =     2000
   RHO(2)=  100.500       N(2)  =     4000

 ion  position               nearest neighbor table
   1  0.188  0.723  0.478- 104 1.88 132 2.26  98 2.33 117 2.47  35 2.77  31 2.86  11 2.95  42 3.11
                            43 3.16
   2  0.520  0.509  0.414-  94 2.31 115 2.32 125 2.54 131 2.54  17 2.92   3 3.01   4 3.11  15 3.12

   3  0.655  0.454  0.200- 125 1.90 133 2.01 121 2.17 111 2.28   4 2.58  36 2.82  48 2.88   2 3.01

[...]

   5  0.600  0.858  0.895- 114 2.11 120 2.23  84 2.27  86 2.27  14 2.68  33 2.74  32 3.15
   6  0.885  0.618  0.427-  94 2.28 118 2.34  17 2.90   8 3.15
   7  0.663  0.685  0.644-  97 2.20 118 2.23 120 2.27 112 2.54
   8  0.932  0.621  0.694- 123 1.94 135 2.23 118 2.40  56 2.49  70 2.56 132 2.57  30 2.97  43 3.11
                             6 3.15
   9  0.089  0.249  0.128-  65 1.97  63 2.01  55 2.16  68 2.35  95 2.48  54 2.74  29 3.04  36 3.09

[...]

  17  0.666  0.700  0.341- 131 1.90  97 2.14 126 2.19  94 2.34  73 2.35   6 2.90   2 2.92  28 2.92
                            39 2.94
  18  0.122  0.483  0.938-  75 2.08  95 2.09  83 2.54 135 2.56  61 2.57  12 2.66  24 2.77  30 2.78

[...]

  28  0.455  0.676  0.207-  73 1.53 131 1.62  78 1.64  82 1.72  87 2.24  48 2.46  22 2.86  17 2.92
                            45 2.96  42 3.01
  29  0.242  0.108  0.286- 134 1.39  55 1.63  79 1.69 107 1.80 106 2.32  71 2.54  35 2.87  49 2.88
                            52 2.89   9 3.04
  30  0.885  0.486  0.905-  56 1.54  83 1.56 130 1.58 135 1.81  95 2.33  18 2.78  27 2.88  23 2.95
                            36 2.95   8 2.97
  31  0.121  0.884  0.651- 132 1.52  60 1.64 127 1.68  64 2.11  90 2.34  35 2.57  20 2.84   1 2.86

  32  0.422  0.823  0.693-  96 1.66 112 1.70  98 1.83  84 2.35  51 2.51  38 2.79  34 3.04   5 3.15

  33  0.655  0.985  0.086-  86 1.43  62 1.50 100 1.64  93 2.16  74 2.51  16 2.54  41 2.57   5 2.74
                            25 2.95  39 3.03  22 3.12
  34  0.326  0.003  0.857-  90 1.51  92 1.63  84 1.65  69 1.76  49 2.84  32 3.04  16 3.06  10 3.07
                            46 3.12
  35  0.241  0.955  0.480- 127 1.56  57 1.74  64 1.82 134 2.01 106 2.03  31 2.57   1 2.77  29 2.87
                            11 2.90  38 2.95
  36  0.890  0.424  0.151- 111 1.63  95 1.67 121 1.72  63 1.78 130 2.27  12 2.54   3 2.82  30 2.95
                             9 3.09
  37  0.025  0.926  0.079-  71 1.61 119 1.69 113 1.74 105 1.91  66 2.05  49 2.23  11 2.69  20 2.83
                            39 3.05
  38  0.485  0.886  0.470-  57 1.66  96 1.81  97 1.85 110 2.01  32 2.79  35 2.95
  39  0.828  0.866  0.241- 126 1.54  74 1.58 105 1.79 101 1.92  17 2.94  41 3.00  33 3.03  37 3.05
                            23 3.05
  40  0.905  0.146  0.310- 116 1.60 102 1.62 101 1.77  85 2.05  63 2.25  41 2.69  26 2.99
  41  0.685  0.077  0.285-  93 1.57 102 1.59  62 1.65 103 1.74 101 1.98  33 2.57  40 2.69  39 3.00

  42  0.229  0.564  0.267-  61 1.66 117 1.66 104 1.76  78 2.19  12 2.63  28 3.01   1 3.11
  43  0.150  0.490  0.613- 108 1.59 123 1.70 124 1.72  58 1.81  13 2.58  15 2.87  51 2.95   8 3.11
                             1 3.16
  44  0.499  0.407  0.681-  99 1.55  67 1.66  59 1.67 115 1.89  27 2.62  15 2.84  51 2.93
  45  0.302  0.702  0.006-  80 1.56  87 1.75  75 1.77  78 2.38  28 2.96  24 3.15  48 3.15
  46  0.279  0.267  0.852-  89 1.65  68 1.72  88 1.85  69 2.06  24 2.58  54 3.04  34 3.12
  47  0.825  0.185  0.756- 128 1.56  81 1.72 109 1.75 122 1.83  50 2.61  13 2.90
  48  0.554  0.608  0.033- 133 1.57  87 1.59 114 1.70  73 1.84  82 2.44  28 2.46   3 2.88  24 3.12
                            45 3.15
  49  0.201  0.000  0.067- 119 1.54  66 1.59  79 1.81  71 1.88  92 1.98  37 2.23  34 2.84  29 2.88
                            22 2.91  54 3.09
  50  0.772  0.350  0.614-  77 1.66 122 1.88 109 1.89  70 1.90  67 1.93  47 2.61   4 2.75  13 2.98
                            27 3.12
  51  0.360  0.617  0.679- 124 1.55 115 1.68 112 1.69  98 1.71  32 2.51  44 2.93  43 2.95
  52  0.402  0.292  0.240-  91 1.54  72 1.60 125 1.74 107 1.82  53 2.80  29 2.89
  53  0.472  0.161  0.430-  76 1.60 110 1.72 107 1.86 103 1.86 106 2.01  52 2.80  15 2.93
  54  0.050  0.157  0.914-  88 1.52  65 1.55  66 1.61  81 1.63   9 2.74  46 3.04  49 3.09
  55  0.136  0.199  0.300-  29 1.63  26 2.10   9 2.16
  56  0.803  0.489  0.802-  30 1.54  27 1.95   8 2.49
  57  0.354  0.883  0.413-  38 1.66  35 1.74
  58  0.178  0.337  0.628-  43 1.81  13 2.08  15 2.20
  59  0.494  0.485  0.802-  44 1.67  27 2.06
  60  0.017  0.977  0.671-  31 1.64  19 2.27
  61  0.185  0.496  0.149-  42 1.66  12 1.87  18 2.57
  62  0.663  0.099  0.147-  33 1.50  41 1.65  25 2.27  16 2.43
  63  0.962  0.311  0.227-  36 1.78   9 2.01  40 2.25  26 2.29
  64  0.085  0.960  0.491-  35 1.82  31 2.11  19 2.41
  65  0.974  0.213  0.009-  54 1.55   9 1.97  25 2.15
  66  0.106  0.049  0.982-  49 1.59  54 1.61  37 2.05
  67  0.632  0.436  0.637-  44 1.66  50 1.93  27 2.43
  68  0.231  0.288  0.990-  46 1.72  24 2.27   9 2.35
  69  0.313  0.119  0.761-  34 1.76  46 2.06  10 2.47
  70  0.896  0.445  0.566-  50 1.90  13 2.40   8 2.56
  71  0.086  0.998  0.180-  37 1.61  49 1.88  11 1.98  29 2.54
  72  0.391  0.252  0.109-  52 1.60  16 2.21
  73  0.576  0.700  0.160-  28 1.53  48 1.84  17 2.35
  74  0.747  0.801  0.154-  39 1.58  23 2.12  33 2.51
  75  0.175  0.653  0.938-  45 1.77  18 2.08  20 2.25
  76  0.474  0.293  0.472-  53 1.60  15 1.88
  77  0.715  0.262  0.516-  50 1.66   4 1.92
  78  0.321  0.718  0.209-  28 1.64  42 2.19  45 2.38  22 2.56
  79  0.271  0.117  0.144-  29 1.69  49 1.81
  80  0.372  0.812  0.974-  45 1.56
  81  0.929  0.136  0.848-  54 1.63  47 1.72
  82  0.439  0.529  0.190-  28 1.72  48 2.44
  83  0.941  0.364  0.910-  30 1.56  18 2.54
  84  0.461  0.974  0.822-  34 1.65  10 2.14   5 2.27  32 2.35
  85  0.903  0.083  0.475-  40 2.05  19 2.29  21 2.31
  86  0.540  0.962  0.050-  33 1.43  16 1.94  22 2.16   5 2.27
  87  0.417  0.609  0.030-  48 1.59  45 1.75  24 2.22  28 2.24
  88  0.147  0.180  0.829-  54 1.52  46 1.85
  89  0.302  0.397  0.800-  46 1.65  24 2.13
  90  0.225  0.934  0.817-  34 1.51  31 2.34  20 2.48
  91  0.324  0.355  0.326-  52 1.54  15 2.20
  92  0.355  0.009  0.994-  34 1.63  49 1.98  16 2.12  22 2.46
  93  0.624  0.958  0.268-  41 1.57  33 2.16
  94  0.705  0.552  0.471-   6 2.28   2 2.31  17 2.34   4 2.56
  95  0.001  0.430  0.060-  36 1.67  12 1.97  18 2.09  30 2.33   9 2.48
  96  0.448  0.938  0.613-  32 1.66  38 1.81  10 2.46
  97  0.600  0.779  0.493-  38 1.85  17 2.14   7 2.20
  98  0.358  0.729  0.584-  51 1.71  32 1.83   1 2.33
  99  0.455  0.283  0.700-  44 1.55  10 2.16
 100  0.753  0.998  0.986-  33 1.64  25 2.35  14 2.42
 101  0.841  0.031  0.234-  40 1.77 102 1.88  39 1.92  41 1.98
 102  0.777  0.176  0.263-  41 1.59  40 1.62 101 1.88   4 2.52
 103  0.605  0.188  0.345-  41 1.74  53 1.86   4 2.49
 104  0.274  0.608  0.405-  42 1.76   1 1.88
 105  0.959  0.814  0.179-  39 1.79  37 1.91  11 2.22  23 2.48
 106  0.312  0.114  0.474-  53 2.01  35 2.03  29 2.32
 107  0.393  0.144  0.292-  29 1.80  52 1.82  53 1.86
 108  0.093  0.487  0.488-  43 1.59  26 2.13
 109  0.884  0.233  0.627-  47 1.75  50 1.89  13 2.10  19 2.33
 110  0.552  0.045  0.473-  53 1.72  38 2.01
[...]
 121  0.777  0.331  0.130-  36 1.72  25 1.98   3 2.17
 122  0.759  0.327  0.773-  47 1.83  27 1.84  50 1.88
 123  0.058  0.515  0.723-  43 1.70   8 1.94  13 2.15
 124  0.241  0.561  0.706-  51 1.55  43 1.72
 125  0.536  0.357  0.257-  52 1.74   3 1.90   2 2.54
 126  0.786  0.844  0.364-  39 1.54  17 2.19  21 2.44
 127  0.240  0.956  0.614-  35 1.56  31 1.68
 128  0.774  0.076  0.696-  47 1.56  21 2.38
 129  0.582  0.234  0.894-  16 2.22  27 2.43
 130  0.800  0.518  0.006-  30 1.58  23 2.18  36 2.27
 131  0.503  0.711  0.333-  28 1.62  17 1.90   2 2.54
 132  0.102  0.754  0.650-  31 1.52   1 2.26   8 2.57
 133  0.569  0.475  0.051-  48 1.57   3 2.01
 134  0.210  0.996  0.315-  29 1.39  11 1.94  35 2.01
 135  0.961  0.621  0.883-  30 1.81   8 2.23  20 2.43  23 2.44  18 2.56

IMPORTANT INFORMATION: All symmetrisations will be switched off!
NOSYMM: (Re-)initialisation of all symmetry stuff for point group C_1.

Automatic generation of k-mesh.
 generate k-points for:    2    2    2
Space group operators:
 irot       det(A)        alpha          n_x          n_y          n_z        tau_x        tau_y        tau_z
    1     1.000000     0.000001     1.000000     0.000000     0.000000     0.000000     0.000000     0.000000

 Subroutine IBZKPT returns following result:

 Found      8 irreducible k-points:

[...]
     0.000000000  0.000000000 11.628173330     0.000000000  0.000000000  0.085998030

  length of vectors
    11.628173330 11.628173330 11.628173330     0.085998030  0.085998030  0.085998030

 FORCES acting on ions
    electron-ion (+dipol)            ewald-force                    non-local-force                 convergence-correction
   0.151E+03 -.808E+02 -.276E+02   -.147E+03 0.749E+02 0.293E+02   -.485E+01 0.580E+01 -.933E+00   -.330E-02 -.469E-03 -.174E-02
   0.108E+03 -.437E+02 -.709E+02   -.109E+03 0.440E+02 0.728E+02   -.802E+00 -.586E+00 -.147E+01   0.146E-02 -.136E-02 -.528E-03
   -.217E+02 -.106E+03 0.103E+02   0.188E+02 0.100E+03 -.212E+02   0.402E+01 0.660E+01 0.850E+01   0.204E-02 -.113E-02 0.948E-03
   -.255E+02 -.115E+03 -.431E+02   0.265E+02 0.107E+03 0.484E+02   -.312E+00 0.744E+01 -.675E+01   0.579E-02 -.370E-02 0.107E-02
   -.130E+02 0.682E+02 0.791E+02   0.726E+01 -.704E+02 -.824E+02   0.335E+01 0.190E+01 0.242E+01   0.375E-02 0.516E-03 0.186E-02
   -.199E+03 -.122E+03 0.463E+02   0.193E+03 0.119E+03 -.406E+02   0.509E+01 0.204E+01 -.463E+01   0.344E-03 -.866E-03 -.405E-03
   0.718E+01 0.463E+02 -.151E+03   -.553E+01 -.418E+02 0.145E+03   -.165E+01 -.552E+01 0.459E+01   0.344E-02 -.604E-03 -.138E-02
   0.973E+02 -.269E+03 0.120E+03   -.985E+02 0.265E+03 -.119E+03   -.165E+01 0.464E+01 -.144E+01   -.611E-03 -.677E-03 -.114E-02
   -.166E+03 0.152E+02 -.531E+02   0.165E+03 -.124E+02 0.537E+02   0.511E+01 -.152E+01 -.305E+00   -.251E-02 0.440E-03 0.266E-02
   -.162E+03 -.793E+01 0.984E+02   0.161E+03 0.104E+02 -.959E+02   0.325E+01 -.156E+01 -.313E+01   0.256E-02 0.283E-02 -.115E-02
   0.105E+03 0.278E+03 -.181E+03   -.107E+03 -.276E+03 0.181E+03   0.887E+00 -.694E+01 0.221E+01   -.308E-02 0.138E-02 0.135E-02
   0.320E+02 -.326E+03 -.153E+03   -.307E+02 0.325E+03 0.159E+03   -.433E+01 0.707E+01 -.376E+01   -.145E-02 -.135E-02 0.133E-02
   -.505E+02 0.754E+02 -.509E+02   0.469E+02 -.695E+02 0.530E+02   0.161E+01 -.461E+01 0.137E+01   -.185E-02 -.177E-02 -.290E-02
   -.104E+03 0.301E+02 0.753E+02   0.102E+03 -.227E+02 -.788E+02   0.365E+01 -.467E+01 0.224E+01   0.110E-02 0.103E-02 -.118E-02
   0.128E+03 -.145E+02 -.729E+02   -.128E+03 0.110E+02 0.720E+02   -.317E+01 0.413E+01 0.171E+01   -.116E-02 -.906E-03 -.941E-03
   -.378E+02 -.212E+03 0.117E+03   0.363E+02 0.223E+03 -.120E+03   0.768E+00 -.301E+01 0.175E+01   0.119E-02 0.125E-02 0.133E-02
   -.160E+03 -.235E+02 0.744E+01   0.158E+03 0.289E+02 -.257E+01   0.510E+01 -.457E+01 -.497E+01   0.202E-02 -.155E-04 -.472E-04
   -.181E+03 -.295E+02 0.140E+03   0.177E+03 0.274E+02 -.145E+03   0.369E+01 -.624E+00 0.134E+01   -.154E-02 -.137E-02 0.622E-03
   -.178E+03 0.706E+02 -.156E+02   0.172E+03 -.797E+02 0.144E+02   0.555E+01 0.658E+01 0.696E+00   -.743E-02 0.345E-03 -.557E-02
   -.601E+02 -.238E+02 0.205E+03   0.641E+02 0.209E+02 -.204E+03   -.102E+00 0.104E+01 -.382E+01   -.277E-02 0.112E-03 0.166E-03
   0.187E+01 -.302E+02 0.135E+02   -.159E+01 0.293E+02 -.141E+02   -.957E+00 0.151E+01 0.189E+00   0.482E-02 0.559E-02 -.367E-02
   0.267E+02 0.987E+02 -.168E+03   -.241E+02 -.983E+02 0.166E+03   -.240E+01 -.372E+00 0.329E+01   0.766E-03 0.850E-03 0.906E-03
   0.375E+02 -.862E+02 0.332E+02   -.430E+02 0.853E+02 -.347E+02   0.411E+01 0.399E+00 0.546E+00   0.138E-03 -.334E-03 0.862E-03
   -.906E+02 -.194E+02 -.139E+02   0.983E+02 0.157E+02 0.148E+02   -.365E+01 0.305E+01 0.163E+01   -.269E-03 -.125E-02 0.833E-03
   0.104E+03 0.961E+02 0.207E+03   -.104E+03 -.932E+02 -.205E+03   -.492E+00 -.335E+01 -.356E+01   0.100E-02 0.513E-03 0.166E-02
   -.133E+03 -.121E+03 -.588E+02   0.129E+03 0.121E+03 0.554E+02   0.347E+01 0.156E+01 0.295E+01   -.690E-02 -.435E-02 0.218E-03
   0.183E+03 -.305E+02 -.130E+03   -.187E+03 0.308E+02 0.134E+03   -.127E+01 0.134E+01 0.247E+01   0.170E-02 -.113E-02 -.112E-03
   0.810E+02 -.413E+02 0.667E+01   -.743E+02 0.353E+02 0.191E+01   -.102E+02 -.412E+00 -.352E+01   0.395E-03 -.229E-03 0.254E-03
   -.408E+02 -.653E+02 -.715E+02   0.328E+02 0.584E+02 0.694E+02   0.128E+02 0.215E+02 0.491E+00   -.105E-02 0.606E-03 0.394E-03
   -.143E+02 -.582E+02 0.141E+02   0.394E+01 0.512E+02 -.183E+02   0.102E+02 0.909E+01 0.375E+01   -.462E-04 -.330E-03 0.534E-04
   0.114E+02 0.222E+02 -.407E+02   -.186E+02 -.222E+02 0.381E+02   0.601E+01 0.776E+01 0.208E+01   -.212E-02 0.803E-03 -.933E-03
   0.286E+02 -.116E+02 -.709E+02   -.287E+02 0.120E+02 0.660E+02   0.210E+00 0.907E+00 0.373E+01   0.116E-02 0.147E-03 -.122E-02
   -.909E+02 0.123E+03 -.306E+01   0.829E+02 -.110E+03 -.345E+01   0.188E+02 -.161E+02 0.923E+01   0.652E-03 0.347E-03 0.576E-03
   0.128E+02 -.797E+01 0.393E+02   -.141E+02 0.393E+01 -.440E+02   0.459E+01 0.667E+01 0.211E+01   -.662E-03 0.159E-02 0.870E-03
   -.892E+01 0.227E+01 0.158E+02   0.633E+01 -.230E+01 -.600E+01   0.341E+01 0.639E+01 -.136E+02   -.144E-02 0.100E-02 -.761E-03
   0.165E+01 -.452E+02 -.432E+02   -.561E+01 0.405E+02 0.446E+02   0.476E+00 -.174E+01 -.291E+01   0.189E-03 -.918E-03 0.107E-02
   0.127E+03 -.237E+01 0.270E+02   -.122E+03 -.327E+00 -.235E+02   -.107E+02 -.550E+00 -.522E+01   -.654E-03 0.386E-03 0.640E-03
   -.502E+02 -.811E+01 0.209E+02   0.503E+02 0.813E+01 -.153E+02   0.445E+01 0.319E+00 -.242E+01   0.102E-02 0.349E-03 -.103E-02
   -.855E+02 -.309E+02 -.270E+02   0.756E+02 0.243E+02 0.322E+02   0.113E+02 0.946E+01 -.664E+01   0.355E-03 0.705E-03 0.955E-03
   -.126E+03 0.123E+03 0.432E+01   0.113E+03 -.114E+03 0.471E+01   0.117E+02 -.937E+01 -.611E+01   -.212E-07 0.138E-02 0.432E-02
   0.161E+02 0.793E+02 -.154E+03   -.232E+02 -.723E+02 0.148E+03   0.429E+01 -.209E+01 0.809E+01   0.180E-02 0.537E-03 0.910E-03
   -.710E+02 0.226E+02 -.979E+01   0.623E+02 -.198E+02 0.147E+02   0.117E+02 -.171E+01 -.113E+01   -.621E-03 -.610E-03 0.194E-03
   -.750E+02 -.659E+02 0.476E+02   0.648E+02 0.617E+02 -.483E+02   0.903E+01 0.210E+01 0.439E+01   -.982E-03 -.862E-03 -.511E-03
   0.273E+02 0.675E+01 0.356E+02   -.239E+02 -.130E+02 -.261E+02   -.219E+01 0.962E+01 -.819E+01   0.488E-03 -.674E-03 -.349E-03
   0.588E+02 0.177E+02 0.108E+02   -.493E+02 -.730E+01 -.190E+02   -.902E+01 -.111E+02 0.759E+01   -.289E-03 -.481E-03 0.808E-03
   -.762E+02 0.688E+02 0.526E+02   0.728E+02 -.591E+02 -.496E+02   0.819E+00 -.129E+02 -.525E+01   -.401E-03 0.191E-03 -.155E-04
   0.702E+02 0.410E+02 -.632E+02   -.718E+02 -.492E+02 0.519E+02   0.234E+01 0.933E+01 0.100E+02   0.481E-03 -.470E-04 -.138E-02
   -.401E+02 -.644E+02 0.809E+02   0.425E+02 0.559E+02 -.833E+02   0.227E+01 0.106E+02 0.145E+00   0.628E-03 -.427E-03 0.489E-03
   -.862E+02 0.528E+01 0.861E+01   0.828E+02 -.542E+01 -.978E+01   0.108E+02 0.815E+01 0.260E+01   -.639E-03 0.581E-03 0.633E-03
   0.370E+02 -.340E+02 -.110E+02   -.385E+02 0.272E+02 0.261E+01   0.168E+01 0.731E+01 0.815E+01   0.113E-02 -.113E-02 -.134E-02
   0.206E+02 -.329E+02 -.714E+02   -.211E+02 0.313E+02 0.634E+02   0.558E+01 0.121E+01 0.520E+01   -.410E-03 -.191E-02 -.596E-03
   0.416E+01 -.213E+02 0.237E+02   -.546E+01 0.259E+02 -.274E+02   0.667E+01 -.442E+01 0.941E+00   -.123E-03 -.282E-05 0.178E-03
   0.136E+02 0.751E+02 -.690E+02   -.692E+01 -.691E+02 0.690E+02   -.462E+01 -.765E+01 -.230E+01   0.436E-03 0.536E-03 -.181E-03
   -.161E+02 0.513E+02 0.703E+02   0.127E+02 -.456E+02 -.697E+02   -.626E+00 -.523E+01 -.127E+01   -.623E-03 0.384E-03 -.113E-04
   -.221E+02 0.148E+02 -.114E+03   0.636E+01 -.134E+01 0.117E+03   0.169E+02 -.150E+02 -.143E+01   -.317E-02 0.566E-03 0.155E-02
   0.367E+02 -.170E+03 0.111E+03   -.517E+02 0.170E+03 -.136E+03   0.170E+02 0.642E+01 0.202E+02   0.494E-03 -.643E-03 -.484E-03
   -.341E+02 0.482E+02 0.310E+02   0.273E+02 -.593E+02 -.523E+02   0.659E+01 0.109E+02 0.212E+02   -.204E-03 0.751E-03 -.119E-02
   -.107E+03 0.989E+02 0.133E+02   0.116E+03 -.116E+03 -.678E+01   -.935E+01 0.186E+02 -.818E+01   -.163E-02 -.818E-03 -.108E-02
   0.600E+02 -.106E+03 -.492E+02   -.631E+02 0.121E+03 0.683E+02   0.857E+00 -.139E+02 -.200E+02   0.686E-03 -.142E-02 0.250E-03
   0.852E+02 0.556E+02 -.838E+02   -.106E+03 -.390E+02 0.859E+02   0.203E+02 -.187E+02 0.116E+01   -.249E-02 0.182E-02 -.272E-02
[...]
   0.310E+02 0.177E+03 0.213E+02   -.313E+02 -.168E+03 -.822E+01   0.545E+01 -.204E+02 -.188E+02   0.899E-03 -.620E-03 -.986E-03
   -.783E+02 -.766E+02 -.912E+01   0.718E+02 0.821E+02 0.285E+02   0.890E+01 -.800E+01 -.205E+02   -.108E-02 -.960E-03 -.605E-03
   -.262E+02 -.103E+03 -.449E+02   0.568E+01 0.974E+02 0.699E+02   0.202E+02 0.656E+01 -.265E+02   -.152E-02 -.190E-02 -.368E-03
   0.753E+02 0.726E+02 0.982E+01   -.643E+02 -.710E+02 -.102E+02   -.142E+02 -.414E+01 0.227E+01   0.896E-03 -.263E-03 0.381E-03
   -.103E+03 -.451E+02 -.108E+03   0.906E+02 0.436E+02 0.139E+03   0.144E+02 0.958E+00 -.293E+02   0.160E-02 0.180E-02 0.866E-03
   -.500E+02 -.263E+02 -.798E+02   0.720E+02 0.428E+02 0.108E+03   -.214E+02 -.186E+02 -.252E+02   -.296E-02 0.236E-02 -.194E-02
   0.112E+03 0.708E+02 0.935E+01   -.123E+03 -.913E+02 -.269E+02   0.946E+01 0.180E+02 0.189E+02   0.203E-02 0.763E-03 -.273E-02
   -.328E+01 0.148E+02 0.339E+02   0.376E+01 -.104E+02 -.365E+02   -.381E+00 -.586E+01 0.308E+01   0.967E-03 0.359E-03 0.458E-04
   0.130E+03 -.519E+02 -.154E+02   -.154E+03 0.546E+02 0.310E+02   0.250E+02 -.230E+01 -.124E+02   0.355E-03 -.518E-03 0.585E-03
   0.155E+03 -.826E+02 -.103E+03   -.156E+03 0.912E+02 0.128E+03   -.532E+01 -.829E+01 -.240E+02   0.859E-03 -.218E-03 -.300E-03
   0.399E+02 0.247E+02 -.151E+02   -.451E+02 -.594E+02 0.165E+02   0.470E+01 0.322E+02 -.301E+00   -.257E-02 0.151E-04 -.105E-02
   0.181E+02 0.103E+03 0.135E+03   -.190E+02 -.136E+03 -.134E+03   0.163E+01 0.327E+02 -.404E+01   0.792E-03 -.636E-03 0.455E-03
   -.406E+02 0.596E+02 -.978E+02   0.294E+02 -.921E+02 0.102E+03   0.117E+02 0.210E+02 0.661E+00   -.182E-02 0.120E-02 0.477E-03
   0.111E+02 -.144E+03 0.303E+02   -.431E+01 0.155E+03 -.337E+02   -.678E+01 -.107E+02 0.569E+01   -.586E-03 -.417E-03 0.147E-04
   -.233E+03 -.666E+02 -.757E+02   0.140E-12 0.341E-12 0.554E-12   0.233E+03 0.666E+02 0.757E+02   0.471E-03 -.307E-02 0.129E-02

 POSITION                                       TOTAL-FORCE (eV/Angst)
      2.18766      8.40376      5.56362        -0.726277     -0.157577      0.746700
      6.05048      5.91823      4.81157        -1.620359     -0.283195      0.448384
      7.61112      5.27719      2.32047         1.038085      1.378039     -2.423206
      8.55808      4.11494      4.41754         0.659957     -1.166057     -1.490825
      6.97421      9.98036     10.41035        -2.420976     -0.227300     -0.827692
     10.29116      7.18582      4.96099        -0.313444     -1.035738      1.139551
      7.71366      7.96458      7.48944         0.013436     -0.973988     -0.569677
     10.83622      7.22034      8.06647        -2.918795      0.797204     -1.045974
      1.03071      2.89037      1.48714         4.135910      1.277658      0.249113
      6.04705      1.27524      8.28420         1.405647      0.940353     -0.627071
      1.21539     10.10732      3.36315        -1.488232     -4.404888      2.759171
      0.54469      6.68849      1.54982        -2.981512      6.934701      1.405872
      0.15449      3.92250      8.10583        -2.058957      1.361147      3.435762
      9.46978     10.37416      9.50570         0.924154      2.771094     -1.248401
      3.82479      4.07075      5.99164        -3.322477      0.620369      0.795839
      5.76894      1.39504      0.24831        -0.721890      8.245514     -1.432110
      7.74324      8.14131      3.96346         3.702201      0.743398     -0.102167
      1.42077      5.61137     10.90896        -0.164901     -2.653680     -3.598616
      0.66752      1.69056      6.73838        -0.436228     -2.565164     -0.568190
      0.78094      9.31381     10.16659         3.938566     -1.937608     -2.802899
      9.31698     10.83725      6.43698        -0.668735      0.598115     -0.434235
      4.77837     10.65022      2.03960         0.230533      0.035041      0.802077
      9.83328      8.09106      0.49272        -1.432206     -0.444788     -0.919960
      4.12261      5.10624     11.28019         4.072561     -0.614540      2.498833
      9.21030      2.22286      0.38489        -0.437644     -0.523507     -1.591383
      0.69719      3.86873      4.60706        -0.238411      1.395732     -0.516213
      7.60626      4.91298      9.81326        -5.164273      1.595076      6.464924
      5.28762      7.85532      2.40510        -3.481065     -6.394808      5.064153
      2.81647      1.25832      3.33099         4.893376     14.495856     -1.675839
     10.29585      5.65385     10.52805        -0.150796      2.105995     -0.424403
      1.40960     10.27696      7.57483        -1.182616      7.786303     -0.594128
      4.91245      9.57252      8.05927         0.076328      1.307766     -1.195549
      7.61429     11.44805      1.00518        10.884187     -3.246911      2.725810
      3.79615      0.03051      9.96866         3.326413      2.628552     -2.632196
      2.80251     11.10080      5.58064         0.816330      6.355897     -3.773057
     10.35329      4.92794      1.76076        -3.476918     -6.426321     -1.469085
      0.29333     10.76514      0.92237        -5.835635     -3.247460     -1.784517
      5.63767     10.30380      5.46489         4.539142      0.344632      3.277247
      9.62908     10.07267      2.80356         1.384046      2.812041     -1.450983
     10.52057      1.70298      3.60925        -1.381271     -0.082121      2.923192
      7.97051      0.89475      3.30979        -2.865872      4.946280      1.543772
      2.66627      6.55768      3.10395         3.017590      1.044873      3.755980
      1.74844      5.69672      7.12348        -1.155612     -2.095584      3.735853
      5.80824      4.73840      7.91821         1.148888      3.351908      1.298049
      3.51065      8.16538      0.06417         0.519873     -0.712864     -0.643322
      3.24272      3.10490      9.90356        -2.576285     -3.190925     -2.249103
      9.58980      2.14813      8.79125         0.801754      1.129465     -1.355772
      6.44195      7.06460      0.38444         4.638807      2.025373     -2.262867
      2.34071      0.00220      0.77781         7.429405      8.003995      1.431090
      8.97320      4.06612      7.13714         0.227044      0.538128     -0.273856
      4.18325      7.17730      7.89780         5.022926     -0.416253     -2.834689
      4.67962      3.39576      2.79186         5.367402      0.242325     -2.700476
      5.48854      1.87763      4.99988         2.078621     -1.610518     -2.298610
      0.58643      1.82838     10.63316        -4.004039      0.548049     -0.644946
      1.58315      2.31946      3.49139         1.080761     -1.532129      1.500762
      9.33530      5.68433      9.32773         1.914010      6.340789     -4.618192
      4.11404     10.27165      4.80087        -0.189159     -0.267586     -0.037450
      2.06829      3.92430      7.30374        -0.247136      1.490306     -1.670813
      5.74536      5.64033      9.32693        -2.249437      0.746363     -0.862332
      0.20024     11.36399      7.79684        -0.336691     -2.016238      3.222073
[...]
      9.03287      3.84915      1.50678         1.149361      3.888265      0.689337
      8.82976      3.80413      8.99270         5.128866    -10.964970     -5.757611
      0.67513      5.99046      8.40899         2.354355     -2.528403     -1.035706
      2.80432      6.52844      8.20377        -0.282511      0.751353     -1.444694
      6.23101      4.15371      2.99227        -3.098236     -2.491811      1.847699
      9.13877      9.80974      4.23603         2.180642     -0.563089      2.184160
      2.79461     11.11654      7.13979         0.525799     -2.038367      3.076291
      9.00230      0.87919      8.09755        -2.051648     -2.526389      1.443997
      6.76240      2.71569     10.39690         0.105947     -1.437409      0.420052
      9.29910      6.02357      0.07144         0.235015      0.428128      3.146873
      5.85032      8.27196      3.86939        -5.768382      0.382235      0.977473
      1.19138      8.76920      7.55510        -0.563982     -2.475234      1.033048
      6.61439      5.51926      0.59058         0.758051     -0.299426     -3.214063
      2.43843     11.58608      3.66407         0.455924    -11.486418      5.254219
     11.16928      7.22231     10.27229        -0.041587     -0.005844      2.236652
    total drift:                               -0.003578     -0.008601      0.004700

  FREE ENERGIE OF THE ION-ELECTRON SYSTEM (eV)
  free  energy   TOTEN  =      -864.67537674 eV

  energy  without entropy=     -864.64971507  energy(sigma->0) =     -864.66254591