 vasp.5.4.4.18Apr17-6-g9f103f2a35 (build Mar 16 2023 09:39:13) complex

 executed on             LinuxIFC date 2024.04.29  17:48:08

 INCAR:
 POTCAR:    PAW_PBE Ca_sv 06Sep2000
 POTCAR:    PAW_PBE Si 05Jan2001
 POTCAR:    PAW_PBE O 08Apr2002
 POTCAR:    PAW_PBE Ca_sv 06Sep2000
   VRHFIN =Ca: 3s3p4s

   TITEL  = PAW_PBE Ca_sv 06Sep2000
   POMASS =   40.078; ZVAL   =   10.000    mass and valenz
   ENMAX  =  266.622; ENMIN  =  199.967 eV

   TITEL  = PAW_PBE Si 05Jan2001
   POMASS =   28.085; ZVAL   =    4.000    mass and valenz
   ENMAX  =  245.345; ENMIN  =  184.009 eV

   TITEL  = PAW_PBE O 08Apr2002
   POMASS =   16.000; ZVAL   =    6.000    mass and valenz
   ENMAX  =  400.000; ENMIN  =  300.000 eV

 Optimization of the real space projectors (new method)

 maximal supplied QI-value         = 16.25
 optimisation between [QCUT,QGAM] = [ 12.51, 25.03] = [ 43.85,175.40] Ry
 Optimized for a Real-space Cutoff    1.47 Angstroem

   l    n(q)    QCUT    max X(q) W(low)/X(q) W(high)/X(q)  e(spline)
   0     11    12.514    11.817    0.25E-04    0.32E-05    0.87E-07
   0     11    12.514     8.461    0.39E-04    0.59E-05    0.18E-06
   1     11    12.514     3.957    0.97E-05    0.57E-05    0.28E-07
   1     11    12.514     4.314    0.42E-04    0.14E-04    0.23E-06
   2     10    12.514    14.565    0.79E-04    0.50E-03    0.16E-05
   2     10    12.514    14.552    0.75E-04    0.48E-03    0.15E-05
 Optimization of the real space projectors (new method)

[...]

   l    n(q)    QCUT    max X(q) W(low)/X(q) W(high)/X(q)  e(spline)
   0      9    12.501   159.560    0.10E-03    0.83E-04    0.71E-07
   0      9    12.501   115.863    0.99E-04    0.81E-04    0.70E-07
   1      8    12.501    88.339    0.20E-03    0.25E-03    0.76E-07
   1      8    12.501    48.592    0.20E-03    0.24E-03    0.75E-07
 Optimization of the real space projectors (new method)

 maximal supplied QI-value         = 24.76
 optimisation between [QCUT,QGAM] = [ 12.38, 25.00] = [ 42.90,175.06] Ry
 Optimized for a Real-space Cutoff    1.16 Angstroem

   l    n(q)    QCUT    max X(q) W(low)/X(q) W(high)/X(q)  e(spline)
   0      9    12.378    20.381    0.16E-03    0.67E-05    0.31E-06
   0      9    12.378    15.268    0.17E-03    0.81E-05    0.33E-06
   1      8    12.378     5.964    0.20E-03    0.16E-03    0.30E-06
   1      8    12.378     5.382    0.18E-03    0.14E-03    0.26E-06
  PAW_PBE Ca_sv 06Sep2000               :
  PAW_PBE Si 05Jan2001                  :
  PAW_PBE O 08Apr2002                   :

 POSCAR: Ca Si  O
  positions in direct lattice
 exchange correlation table for  LEXCH =        8
   RHO(1)=    0.500       N(1)  =     2000
   RHO(2)=  100.500       N(2)  =     4000

 ion  position               nearest neighbor table
   1  0.173  0.246  0.085-  84 2.11 121 2.14 107 2.28 113 2.35  98 2.57  18 2.95  47 2.97  24 3.13

   2  0.327  0.686  0.851-  87 2.19 115 2.19 124 2.34  46 2.96  42 2.99  51 3.15
   3  0.314  0.792  0.128-  59 2.02  89 2.22  79 2.33 112 2.53  43 3.04  31 3.13
   4  0.876  0.537  0.230-  67 2.15  91 2.33  74 2.37 101 2.38  88 2.50  53 2.83  47 2.94  37 3.08
                            19 3.09  18 3.12
   5  0.555  0.829  0.797- 102 2.13  97 2.14 106 2.22 130 2.28  45 2.99  31 3.05  48 3.10
   6  0.598  0.575  0.074- 101 1.81  63 2.34
   7  0.928  0.990  0.682-  86 2.19 104 2.25 126 2.26  99 2.54  34 2.77
   8  0.692  0.083  0.166-  85 2.15 120 2.16 109 2.37 105 2.55  53 3.13  31 3.16
   9  0.688  0.353  0.931- 109 1.91 111 2.23 129 2.25 117 2.30  83 2.46  53 2.95
  10  0.528  0.907  0.318- 105 1.99  70 2.21 125 2.26 123 2.29  79 2.33  33 2.93  32 3.03  31 3.10

[...]

  16  0.429  0.350  0.210- 122 2.22 110 2.27 135 2.40 113 2.49  40 2.95  28 3.06
  17  0.789  0.182  0.439-  76 2.08  81 2.34  60 2.34  69 2.45  78 2.55  50 2.80  41 3.11
  18  0.006  0.426  0.023-  84 1.97 134 2.28 121 2.47  83 2.47  37 2.87  47 2.91   1 2.95  20 2.98
                             4 3.12
  19  0.843  0.798  0.197-  67 1.98 120 2.10  77 2.15  65 2.46 114 2.47 123 2.49  91 2.53  50 2.94
                            38 2.99  23 2.99   4 3.09  33 3.10  43 3.14  37 3.16
  20  0.943  0.484  0.781- 117 2.37  96 2.39  62 2.43  94 2.44  18 2.98  37 3.03  54 3.05
  21  0.173  0.573  0.246- 110 2.22  74 2.35  80 2.37 112 2.37  72 2.50  59 2.51  66 2.53 121 2.57
                            38 2.96  46 2.99  39 3.16
  22  0.622  0.098  0.818-  57 2.09 130 2.29 106 2.30  93 2.35 111 2.41  44 3.04
  23  0.817  0.919  0.972- 104 2.28 120 2.31 133 2.32 106 2.43 114 2.46  65 2.46  19 2.99
  24  0.360  0.065  0.155- 105 2.03 107 2.12  79 2.18  98 2.29  89 2.54   1 3.13
  25  0.030  0.034  0.206- 131 1.79  85 2.19 114 2.35 107 2.37  50 2.77
  26  0.583  0.421  0.437- 122 1.96 100 1.99  69 2.33  81 2.48  61 2.49 119 2.54  40 2.84  39 3.13

  27  0.156  0.149  0.759-  86 1.93 127 2.18  75 2.36  82 2.39 132 2.39  36 2.95  13 3.03  52 3.05

[...]

  29  0.107  0.093  0.497- 103 1.58  86 1.60 116 1.70  78 1.82  13 2.96  28 3.06
  30  0.188  0.497  0.516-  71 1.49  90 1.59  66 1.65  56 1.88  72 2.40  42 2.78  28 2.90  41 3.10
                            49 3.11
  31  0.561  0.872  0.056- 106 1.69  63 1.72 105 1.77 120 1.96  89 2.39   5 3.05  10 3.10   3 3.13
                             8 3.16
  32  0.281  0.898  0.401-  58 1.55  79 1.60 103 1.68  68 1.71  13 2.99  10 3.03
  33  0.683  0.724  0.396- 123 1.62  67 1.70  92 1.74  70 1.78 100 1.88  15 2.87  10 2.93  48 3.09
                            19 3.10
  34  0.960  0.765  0.753- 104 1.49 126 1.65  94 1.65 108 1.78  62 1.94  42 2.53   7 2.77
  35  0.452  0.026  0.570- 125 1.70  57 1.70  55 1.76  64 1.87  58 2.06  40 2.81  48 3.01  13 3.13

[...]

  43  0.067  0.753  0.053- 118 1.71  91 1.72 114 1.74 112 1.93  80 2.07  62 2.49  37 2.71  52 3.02
                             3 3.04  19 3.14
  44  0.418  0.232  0.910- 113 1.51  82 1.55  93 1.60 111 1.66  12 2.88  45 2.91  22 3.04
  45  0.367  0.992  0.861-  93 1.58 127 1.60  97 1.69  89 1.79  57 2.37  52 2.70  44 2.91   5 2.99
                            13 3.13
  46  0.277  0.504  0.022- 115 1.60 110 1.62  73 1.66  80 1.78   2 2.96  21 2.99
  47  0.980  0.307  0.241- 131 1.57 121 1.65 134 1.68  88 1.78  18 2.91   4 2.94   1 2.97  53 3.04

[...]

  50  0.882  0.967  0.381-  78 1.60  77 1.65  85 1.72  76 1.96 123 2.37  25 2.77  17 2.80  19 2.94
                            38 3.02
  51  0.515  0.518  0.751- 119 1.51 129 1.55 102 1.86 124 1.92  14 2.68  12 2.76   2 3.15
  52  0.156  0.977  0.957- 127 1.66 132 1.67 118 1.71 107 1.76  45 2.70  43 3.02  27 3.05
  53  0.729  0.349  0.181-  81 1.54 101 1.69 109 1.72 134 1.82   4 2.83   9 2.95  47 3.04   8 3.13

  54  0.837  0.258  0.700-  60 1.53 117 1.58  99 1.76  95 1.82  41 3.01  20 3.05  36 3.14
  55  0.568  0.935  0.536-  48 1.49  35 1.76
  56  0.094  0.621  0.559-  42 1.56  30 1.88  15 2.51
  57  0.485  0.059  0.709-  35 1.70  22 2.09  45 2.37
  58  0.365  0.886  0.504-  32 1.55  11 2.06  35 2.06  13 2.44
  59  0.371  0.641  0.192-  39 1.64   3 2.02  21 2.51
  60  0.758  0.173  0.638-  54 1.53  17 2.34
  61  0.393  0.323  0.452-  28 1.83  40 1.90  26 2.49
  62  0.969  0.663  0.885-  37 1.60  34 1.94  20 2.43  43 2.49
  63  0.509  0.742  0.006-  31 1.72   6 2.34
  64  0.324  0.116  0.609-  35 1.87
  65  0.758  0.721  0.019-  37 1.78  23 2.46  19 2.46
  66  0.226  0.427  0.399-  28 1.64  30 1.65  21 2.53
  67  0.791  0.680  0.309-  33 1.70  19 1.98   4 2.15  15 2.55
  68  0.170  0.803  0.401-  38 1.60  32 1.71
  69  0.588  0.227  0.485-  40 1.53  26 2.33  17 2.45
  70  0.539  0.719  0.344-  33 1.78  39 1.81  10 2.21  11 2.56
  71  0.276  0.457  0.601-  30 1.49  49 2.08
  72  0.325  0.594  0.397-  39 1.60  30 2.40  21 2.50
  73  0.207  0.426  0.925-  46 1.66  49 1.85
  74  0.010  0.629  0.353-  38 1.70  15 2.24  21 2.35   4 2.37
  75  0.100  0.340  0.715-  49 1.80  27 2.36
  76  0.768  0.013  0.496-  48 1.78  50 1.96  17 2.08
  77  0.938  0.840  0.349-  38 1.52  50 1.65  19 2.15
  78  0.971  0.061  0.426-  50 1.60  29 1.82  17 2.55
  79  0.333  0.925  0.276-  32 1.60  24 2.18   3 2.33  10 2.33
  80  0.162  0.603  0.045-  46 1.78  43 2.07  21 2.37
  81  0.718  0.316  0.309-  53 1.54  17 2.34  26 2.48
  82  0.320  0.255  0.822-  44 1.55  49 2.23  12 2.25  27 2.39
  83  0.821  0.513  0.965-  37 1.57   9 2.46  18 2.47
  84  0.042  0.272  0.962-  36 1.53  18 1.97   1 2.11
  85  0.848  0.032  0.253-  50 1.72   8 2.15  25 2.19
  86  0.093  0.065  0.631-  29 1.60  27 1.93   7 2.19  13 2.22
  87  0.288  0.698  0.667-  42 1.75   2 2.19  11 2.45
  88  0.914  0.372  0.362-  41 1.70  47 1.78   4 2.50
  89  0.370  0.916  0.995-  45 1.79   3 2.22  31 2.39  24 2.54
  90  0.058  0.458  0.494-  41 1.55  30 1.59
  91  0.965  0.652  0.093-  37 1.64  43 1.72   4 2.33  19 2.53
  92  0.712  0.772  0.536-  33 1.74  48 1.78
  93  0.441  0.097  0.907-  45 1.58  44 1.60  22 2.35
  94  0.862  0.668  0.721-  34 1.65  14 2.20  20 2.44
  95  0.944  0.275  0.587-  41 1.64  54 1.82
  96  0.137  0.551  0.772-  42 1.78  49 1.91  20 2.39
  97  0.382  0.883  0.766-  45 1.69   5 2.14  13 2.39
  98  0.275  0.197  0.275-  28 1.78  24 2.29   1 2.57
  99  0.934  0.181  0.788-  36 1.61  54 1.76   7 2.54
 100  0.650  0.578  0.456-  33 1.88  26 1.99  14 2.34
 101  0.688  0.487  0.167-  53 1.69   6 1.81   4 2.38
 102  0.507  0.673  0.715-  51 1.86   5 2.13  11 2.19
 103  0.181  0.995  0.440-  29 1.58  32 1.68
 104  0.940  0.865  0.829-  34 1.49   7 2.25  23 2.28
 105  0.505  0.968  0.160-  31 1.77  10 1.99  24 2.03   8 2.55
 106  0.611  0.943  0.940-  31 1.69   5 2.22  22 2.30  23 2.43
 107  0.192  0.051  0.084-  52 1.76  24 2.12   1 2.28  25 2.37
 108  0.113  0.769  0.759-  42 1.55  34 1.78  13 2.49
 109  0.698  0.261  0.066-  53 1.72   9 1.91   8 2.37
 110  0.269  0.442  0.146-  46 1.62  21 2.22  16 2.27
 111  0.532  0.284  0.842-  44 1.66   9 2.23  12 2.27  22 2.41
 112  0.115  0.766  0.212-  38 1.77  43 1.93  21 2.37   3 2.53
 113  0.364  0.268  0.023-  44 1.51   1 2.35  16 2.49
[...]
 121  0.102  0.368  0.202-  47 1.65   1 2.14  18 2.47  21 2.57
 122  0.506  0.495  0.307-  39 1.57  26 1.96  16 2.22
 123  0.713  0.855  0.358-  33 1.62  10 2.29  50 2.37  19 2.49
 124  0.359  0.494  0.798-  49 1.85  51 1.92   2 2.34
 125  0.453  0.050  0.427-  35 1.70  40 1.79  10 2.26
 126  0.967  0.810  0.619-  34 1.65   7 2.26
 127  0.231  0.996  0.838-  45 1.60  52 1.66  27 2.18  13 2.36
 128  0.839  0.457  0.558-  41 1.58  15 2.19  14 2.31
 129  0.609  0.507  0.845-  51 1.55   9 2.25
 130  0.696  0.943  0.721-  48 1.66   5 2.28  22 2.29
 131  0.008  0.176  0.262-  47 1.57  25 1.79
 132  0.048  0.056  0.908-  52 1.67  36 1.68  27 2.39
 133  0.851  0.115  0.986-  36 1.65  23 2.32
 134  0.880  0.333  0.141-  47 1.68  53 1.82  18 2.28
 135  0.522  0.178  0.277-  40 1.56  16 2.40

IMPORTANT INFORMATION: All symmetrisations will be switched off!
NOSYMM: (Re-)initialisation of all symmetry stuff for point group C_1.

Automatic generation of k-mesh.
 generate k-points for:    2    2    2
Space group operators:
 irot       det(A)        alpha          n_x          n_y          n_z        tau_x        tau_y        tau_z
    1     1.000000     0.000001     1.000000     0.000000     0.000000     0.000000     0.000000     0.000000

[...]
     0.000000000  0.000000000 11.628173330     0.000000000  0.000000000  0.085998030

  length of vectors
    11.628173330 11.628173330 11.628173330     0.085998030  0.085998030  0.085998030

 FORCES acting on ions
    electron-ion (+dipol)            ewald-force                    non-local-force                 convergence-correction
   -.605E+02 0.764E+02 0.481E+01   0.651E+02 -.740E+02 -.374E+01   -.977E+00 -.205E+01 -.492E+00   -.421E-03 -.223E-03 0.473E-03
   -.215E+02 -.396E+02 -.930E+02   0.227E+02 0.364E+02 0.884E+02   -.152E+01 0.380E+01 0.401E+01   0.432E-04 0.584E-03 0.616E-03
   0.335E+01 0.959E+01 0.220E+02   -.318E+00 -.107E+02 -.212E+02   -.335E+01 0.183E+01 -.159E+01   0.280E-03 0.629E-03 -.150E-03
   0.623E+02 0.117E+03 -.759E+01   -.657E+02 -.113E+03 0.123E+02   0.286E+01 -.420E+01 -.341E+01   -.476E-03 -.838E-03 0.271E-03
   -.197E+03 0.135E+03 -.331E+02   0.195E+03 -.135E+03 0.348E+02   0.230E+01 -.873E+00 -.590E+00   0.328E-03 0.654E-03 0.194E-03
   0.104E+03 -.139E+02 0.829E+02   -.107E+03 0.210E+02 -.888E+02   -.191E+01 -.149E+01 0.326E+00   0.722E-03 -.823E-04 0.587E-03
   0.171E+03 -.500E+02 0.379E+02   -.171E+03 0.463E+02 -.362E+02   -.214E+01 0.371E+01 -.135E+01   -.795E-03 0.939E-03 -.243E-03
   0.688E+02 -.201E+03 0.483E+02   -.679E+02 0.198E+03 -.496E+02   -.191E+01 0.353E+01 0.612E+00   0.147E-03 0.398E-03 0.437E-03
   0.194E+02 0.390E+02 0.722E+01   -.215E+02 -.354E+02 -.139E+02   0.206E+01 -.241E+00 0.176E+01   0.642E-03 -.415E-03 0.299E-03
   -.465E+02 0.957E+01 -.597E+01   0.482E+02 -.879E+01 0.525E+01   -.469E+00 -.615E+00 0.280E+01   0.926E-03 0.769E-03 -.219E-03
   -.895E+01 0.175E+03 0.296E+02   0.477E+01 -.179E+03 -.254E+02   0.372E+01 0.324E+00 -.326E+01   0.834E-03 0.661E-03 -.426E-03
   -.390E+02 0.341E+02 0.133E+03   0.397E+02 -.353E+02 -.132E+03   -.123E+01 -.797E+00 -.217E+01   0.524E-03 -.411E-03 -.839E-03
   0.446E+02 0.852E+02 0.909E+02   -.414E+02 -.875E+02 -.889E+02   -.194E+01 -.934E-02 -.173E+01   0.178E-03 0.763E-03 0.562E-04
   0.855E+02 -.139E+02 -.148E+03   -.866E+02 0.127E+02 0.148E+03   -.581E-01 0.821E+00 0.110E+01   0.445E-03 -.607E-03 -.676E-03
   0.103E+02 -.478E+02 -.508E+02   -.632E+01 0.483E+02 0.510E+02   -.266E+01 0.137E+01 0.276E+00   -.531E-03 -.182E-03 -.784E-03
   -.146E+03 0.231E+02 0.103E+03   0.142E+03 -.223E+02 -.104E+03   0.306E+01 -.107E+01 -.389E+00   0.663E-03 -.907E-03 0.525E-03
   0.339E+02 -.886E+02 0.255E+02   -.383E+02 0.903E+02 -.211E+02   0.352E+01 0.820E+00 -.362E+01   -.292E-03 0.193E-03 -.581E-03
   0.777E+02 -.568E+02 0.795E+02   -.749E+02 0.555E+02 -.790E+02   -.155E+01 0.474E+01 -.204E+00   -.854E-03 -.785E-03 0.593E-03
   0.309E+02 -.114E+02 0.101E+03   -.377E+02 0.134E+02 -.103E+03   0.560E+01 -.176E+00 -.863E+00   -.421E-03 0.532E-03 0.426E-03
   0.501E+02 0.101E+03 0.171E+02   -.492E+02 -.977E+02 -.203E+02   -.281E+00 -.270E+01 0.195E+01   -.614E-03 -.764E-03 0.793E-04
   -.161E+02 0.610E+01 -.989E+02   0.203E+02 -.812E+01 0.980E+02   -.296E+01 0.108E+01 0.148E+01   -.647E-03 -.731E-03 0.156E-03
   -.230E+03 -.151E+03 -.480E+02   0.226E+03 0.148E+03 0.439E+02   0.517E+01 0.369E+01 0.364E+01   0.774E-03 0.133E-03 0.261E-03
   0.639E+02 -.582E+02 0.156E+03   -.628E+02 0.567E+02 -.156E+03   -.713E+00 0.111E+01 -.972E+00   -.284E-03 0.861E-03 0.386E-03
   -.470E+02 -.152E+03 0.189E+02   0.474E+02 0.151E+03 -.175E+02   0.181E+00 0.377E+01 -.145E+01   0.756E-03 0.238E-03 0.188E-03
   -.109E+03 0.619E+02 0.316E+02   0.108E+03 -.645E+02 -.361E+02   0.312E+01 -.418E+01 0.142E+01   -.855E-03 0.120E-02 0.130E-03
   -.385E+02 0.844E+02 -.951E+02   0.402E+02 -.821E+02 0.958E+02   -.173E+00 -.453E+01 0.210E+01   0.769E-03 -.102E-02 -.478E-03
   -.283E+02 -.175E+03 -.283E+01   0.298E+02 0.182E+03 0.946E+00   0.675E-01 -.103E+01 0.349E+01   -.473E-03 0.113E-03 0.211E-03
   -.140E+02 0.489E+02 0.594E+00   0.121E+02 -.465E+02 0.195E+00   0.367E+01 -.300E+01 -.180E+01   0.216E-04 -.226E-03 -.106E-03
   0.278E+02 -.587E+02 0.484E+02   -.210E+02 0.545E+02 -.437E+02   -.713E+01 0.680E+01 -.588E+01   -.300E-03 0.171E-03 -.338E-03
   -.371E+02 -.615E+02 -.223E+01   0.404E+02 0.476E+02 0.921E+01   -.543E+01 0.162E+02 -.973E+01   -.343E-03 -.377E-03 -.417E-03
   -.918E+01 0.513E+02 -.165E+02   0.109E+02 -.508E+02 0.113E+02   0.169E+00 0.110E+01 0.448E+01   0.190E-03 0.402E-03 0.260E-03
   0.261E+02 0.260E+02 0.290E+02   -.236E+02 -.232E+02 -.305E+02   -.732E+01 -.187E+01 -.115E+01   0.233E-04 0.566E-03 -.134E-03
   0.489E+02 0.636E+02 -.879E+01   -.437E+02 -.586E+02 0.557E+01   -.549E+01 -.829E+01 0.284E+01   0.297E-03 0.937E-04 -.189E-03
   0.442E+02 0.388E+02 0.117E+02   -.499E+02 -.279E+02 -.124E+02   0.613E+01 -.148E+02 -.664E+00   -.234E-03 0.281E-03 0.130E-03
   -.125E+02 -.491E+02 -.151E+02   0.113E+02 0.565E+02 0.180E+02   -.159E+01 -.514E+01 -.109E+01   0.291E-03 0.238E-03 -.372E-03
   0.873E+02 -.213E+02 -.303E+02   -.884E+02 0.204E+02 0.307E+02   -.272E+01 -.446E+01 -.419E-01   -.296E-03 -.850E-04 0.142E-04
   0.864E+02 -.208E+02 0.396E+02   -.885E+02 0.191E+02 -.436E+02   -.341E+01 0.610E+01 0.268E+01   -.793E-04 -.394E-04 0.285E-03
   -.362E+02 -.270E+02 -.666E+02   0.387E+02 0.240E+02 0.634E+02   0.374E+01 -.312E+01 0.424E+00   -.507E-03 0.109E-03 -.890E-04
   -.340E+02 -.380E+02 -.151E+02   0.267E+02 0.298E+02 0.127E+02   0.607E+01 0.976E+01 0.155E+01   0.450E-03 -.197E-03 -.133E-03
   0.604E+02 -.125E+02 -.216E+02   -.454E+02 0.115E+02 0.198E+02   -.176E+02 -.143E+01 0.287E+01   0.285E-03 -.609E-04 -.221E-03
   0.442E+01 0.610E+02 0.862E+01   -.498E+01 -.568E+02 -.335E+01   0.690E+00 -.610E+01 -.552E+01   -.336E-03 -.372E-03 -.296E-03
   -.453E+01 0.157E+02 0.465E+02   0.952E+01 -.148E+02 -.454E+02   0.252E+01 -.433E+01 0.116E+01   -.266E-03 -.258E-04 -.640E-04
   -.509E+02 0.218E+02 0.290E+02   0.472E+02 -.119E+02 -.268E+02   0.401E+01 -.860E+01 -.108E+01   -.207E-03 0.102E-03 0.840E-04
   -.819E+02 -.408E+02 -.608E+02   0.747E+02 0.439E+02 0.603E+02   0.964E+01 -.149E+01 -.170E+01   0.157E-03 -.726E-04 0.230E-03
   -.358E+02 -.214E+02 -.584E+01   0.352E+02 0.148E+02 0.879E+01   0.352E+01 0.788E+00 -.230E+01   0.580E-04 0.990E-07 0.190E-03
   -.580E+02 -.654E+00 0.113E+02   0.631E+02 -.735E+00 -.118E+02   -.539E+01 0.180E+01 0.132E+00   -.130E-03 -.244E-03 0.316E-03
   0.307E+02 0.945E+01 -.480E+02   -.236E+02 -.145E+02 0.464E+02   -.660E+01 0.594E+01 0.416E+01   -.313E-03 -.288E-03 0.876E-04
   -.906E+02 0.575E+01 -.491E+02   0.817E+02 -.284E+01 0.511E+02   0.161E+02 -.383E+01 -.120E+01   0.275E-03 0.332E-03 -.358E-03
   -.212E+02 0.450E+02 0.404E+02   0.139E+02 -.418E+02 -.395E+02   0.495E+01 0.389E+00 0.279E+00   -.144E-03 -.425E-03 -.159E-04
   0.326E+02 0.196E+02 -.788E+02   -.296E+02 -.118E+02 0.730E+02   -.916E+01 -.733E+01 0.568E+01   -.300E-03 0.426E-03 -.165E-03
   0.504E+02 -.357E+02 -.232E+02   -.380E+02 0.295E+02 0.228E+02   -.179E+02 0.108E+02 0.386E+01   0.302E-03 -.275E-03 -.174E-03
   -.978E+01 0.118E+02 -.589E+02   0.640E+01 -.103E+02 0.574E+02   0.114E+01 -.250E+01 0.449E+01   -.260E-03 0.319E-03 0.271E-03
   0.534E+02 0.284E+02 0.352E+02   -.567E+02 -.299E+02 -.274E+02   0.342E+01 0.116E+01 -.113E+02   0.181E-03 -.359E-03 0.352E-03
   0.827E+01 -.839E+01 -.338E+02   -.204E+02 0.646E+01 0.300E+02   0.154E+02 0.217E+01 0.270E+01   -.314E-05 -.222E-03 -.100E-03
   -.262E+02 -.341E+02 -.243E+02   0.819E+01 0.315E+02 0.451E+01   0.117E+02 0.257E+01 0.191E+02   0.144E-03 0.553E-03 -.295E-03
   -.274E+02 -.550E+02 0.358E+02   0.732E+01 0.539E+02 -.605E+02   0.213E+02 0.197E+01 0.229E+02   -.301E-03 -.640E-03 -.729E-03
   -.435E+02 -.649E+02 0.534E+02   0.419E+02 0.708E+02 -.370E+02   0.297E+01 -.676E+01 -.185E+02   0.218E-03 -.440E-05 -.619E-03
   0.281E+02 0.257E+02 -.114E+02   -.130E+02 -.303E+02 0.307E+02   -.150E+02 0.504E+01 -.171E+02   0.525E-03 0.927E-03 0.990E-04
   -.945E+02 0.304E+02 0.268E+02   0.869E+02 -.322E+02 -.489E+02   0.908E+01 0.162E+01 0.235E+02   0.383E-03 -.884E-04 -.174E-03
   0.105E+03 0.116E+02 -.368E+02   -.129E+03 -.334E+02 0.207E+02   0.221E+02 0.197E+02 0.164E+02   -.268E-03 -.292E-03 -.518E-03
[...]
   -.213E+02 -.213E+01 0.756E+02   0.370E+02 -.155E+02 -.796E+02   -.165E+02 0.173E+02 0.684E+00   0.734E-03 -.633E-03 -.407E-03
   0.324E+01 -.970E+02 -.106E+02   0.136E+01 0.119E+03 0.368E+01   -.473E+01 -.194E+02 0.557E+01   0.511E-03 0.963E-03 -.955E-04
   -.718E+02 0.369E+02 0.323E+02   0.700E+02 -.304E+02 -.181E+02   0.401E+01 -.875E+01 -.178E+02   -.311E-03 -.814E-03 -.290E-03
   0.232E+02 -.106E+03 0.151E+02   -.281E+02 0.946E+02 -.340E+02   0.446E+01 0.155E+02 0.199E+02   0.404E-03 0.566E-03 0.106E-03
   0.241E+02 -.405E+02 0.143E+03   -.227E+02 0.441E+02 -.166E+03   -.135E+01 -.185E+01 0.203E+02   -.530E-03 0.519E-03 -.816E-03
   0.255E+01 0.601E+00 -.139E+02   -.148E+02 -.262E+01 -.782E+01   0.110E+02 0.338E+01 0.222E+02   -.120E-03 0.145E-03 0.599E-03
   0.962E+02 0.875E+02 -.208E+02   -.121E+03 -.819E+02 0.324E+02   0.243E+02 -.418E+01 -.115E+02   -.388E-03 -.515E-03 -.225E-03
   -.369E+02 -.660E+02 -.790E+02   0.587E+02 0.649E+02 0.984E+02   -.209E+02 0.229E+01 -.169E+02   0.839E-03 -.459E-03 0.563E-03
   -.113E+03 0.172E+02 -.386E+02   0.117E+03 -.119E+02 0.626E+02   -.224E+01 -.643E+01 -.263E+02   0.400E-03 0.460E-03 -.428E-03
   0.254E+01 -.808E+02 -.713E+02   0.173E+01 0.619E+02 0.831E+02   -.484E+01 0.257E+02 -.106E+02   -.470E-03 0.184E-03 0.343E-03
   0.749E+02 0.169E+02 -.285E+02   -.844E+02 -.259E+02 0.186E+02   0.105E+02 0.907E+01 0.101E+02   -.251E-03 -.647E-04 0.311E-03
   0.977E+02 -.542E+02 -.712E+01   -.118E+03 0.469E+02 0.189E+02   0.206E+02 0.821E+01 -.119E+02   -.308E-03 0.546E-04 0.384E-03
   0.765E+02 0.868E+02 0.493E+02   -.811E+02 -.919E+02 -.720E+02   0.427E+01 0.647E+01 0.242E+02   -.324E-03 -.278E-03 0.264E-03
   -.711E+02 -.276E+02 0.908E+02   0.807E+02 0.199E+02 -.117E+03   -.950E+01 0.882E+01 0.233E+02   0.610E-03 -.779E-04 -.342E-03
   -.162E+02 0.210E+01 -.320E+02   -.384E-12 0.119E-11 0.355E-12   0.162E+02 -.212E+01 0.320E+02   -.104E-02 0.722E-03 0.417E-03

 POSITION                                       TOTAL-FORCE (eV/Angst)
      2.01108      2.85972      0.99117         3.558901      0.308102      0.577236
      3.79894      7.97562      9.89317        -0.271893      0.588209     -0.558244
      3.65690      9.20810      1.48910        -0.312087      0.724315     -0.866028
     10.18106      6.23858      2.67166        -0.517163      0.443641      1.287948
      6.45749      9.63951      9.27214         1.268417     -0.426571      1.134059
      6.95372      6.68641      0.85664        -4.809931      5.599960     -5.599309
     10.79074     11.50760      7.92915        -1.965381      0.061710      0.348897
      8.05194      0.96275      1.92509        -1.007866      0.631140     -0.677357
      7.99577      4.10032     10.82203         0.005943      3.338659     -4.890132
      6.14189     10.55097      3.69978         1.257509      0.167764      2.085770
      5.29133      8.60109      6.35772        -0.447201     -3.236348      1.008119
      5.04729      3.58618      7.85193        -0.554202     -1.959535     -2.014754
      2.52148     10.71409      7.54815         1.260639     -2.242105      0.271471
      8.27133      6.74827      7.53055        -1.144872     -0.397808      0.834302
     10.29908      7.32422      5.81150         1.269105      1.868562      0.485105
      4.98499      4.06757      2.43925        -1.008180     -0.300525     -1.179240
      9.17367      2.11257      5.11028        -0.860683      2.475019      0.709982
      0.06955      4.95483      0.26249         1.258240      3.359696      0.268813
      9.79902      9.28073      2.29025        -1.210006      1.768586     -3.228147
     10.96356      5.62934      9.07840         0.674306      0.727220     -1.234486
      2.01341      6.66551      2.86463         1.309648     -0.928144      0.656168
      7.23549      1.14491      9.50951         1.123063      0.270308     -0.436998
      9.49706     10.68586     11.30153         0.393035     -0.433694     -0.777767
      4.18364      0.75589      1.79726         0.563398      1.932146     -0.054335
      0.34679      0.39728      2.40121         2.254225     -6.760966     -3.128950
      6.77761      4.89742      5.07981         1.563856     -2.163020      2.848944
      1.81133      1.73620      8.82851         1.538020      5.427172      1.611468
      2.92093      3.35536      4.58652         1.754458     -0.651900     -1.013604
      1.24429      1.08514      5.77603        -0.332092      2.578402     -1.221277
      2.18493      5.78028      6.00432        -2.123558      2.267995     -2.748146
      6.52333     10.13617      0.65452         1.855543      1.559367     -0.704496
      3.27241     10.44750      4.66659        -4.806104      1.017609     -2.667839
      7.93668      8.42323      4.61023        -0.356582     -3.287116     -0.379998
     11.16664      8.88974      8.75643         0.403654     -3.984584     -1.299347
      5.25638      0.29908      6.63354        -2.719712      2.234763      1.827360
     11.20699      2.01008     10.73216        -3.832772     -5.416940      0.386144
     10.21324      7.37229     11.43716        -5.505363      4.327274     -1.296644
      0.55735      8.95257      4.05394         6.200255     -6.088120     -2.760376
      5.04477      7.07844      3.64784        -1.196963      1.561507     -0.844072
      5.67360      2.30542      4.70826        -2.578735     -2.424309      1.088045
     10.97859      4.53505      5.86778         0.123503     -1.833748     -0.255381
      1.62936      7.78739      7.84133         7.505507     -3.438612      2.238284
      0.77608      8.75388      0.62072         0.334827      1.309580      1.119546
      4.85497      2.70265     10.58250         2.407866      1.679610     -2.200809
      4.26735     11.53984     10.01568         2.911352     -5.779645      0.660106
      3.21682      5.86118      0.25186        -0.326632      0.410781     -0.387081
     11.39507      3.56653      2.80169         0.445992      0.865836      2.618545
      7.97702     10.64769      6.76139         7.167944     -0.913777      0.749824
      2.62857      4.80304      8.92176        -2.310411      3.595979      1.177222
     10.25079     11.24553      4.42978        -6.171753      0.510008     -0.159751
      5.99190      6.02523      8.73689        -5.541791      4.618233      3.503893
      1.81764     11.35849     11.13009        -2.246240     -1.004878      3.027786
      8.47614      4.05529      2.10331         0.110617     -0.292630     -3.491924
      9.73699      2.99933      8.13849         3.290907      0.243000     -1.115267
      6.60569     10.87025      6.23236        -6.370886      0.030323     -0.620599
      1.08827      7.22073      6.49761         1.202475      0.875808     -1.778351
      5.63984      0.68275      8.24372         1.350310     -0.798083     -2.088532
      4.24041     10.30423      5.86471         0.123861      0.442302      2.215226
      4.30873      7.44975      2.23035         1.510935     -0.216259      1.389283
      8.81088      2.01717      7.42296        -1.663644     -2.072282      0.224620
[...]
      1.18875      4.28385      2.35434        -4.690481      0.920581      0.475081
      5.87874      5.75467      3.56682        -0.706345     -0.418275     -3.237432
      8.29375      9.93889      4.16711        -0.128593      2.800080     -1.351162
      4.17543      5.74772      9.27750         2.206748     -2.249310     -3.525689
      5.27190      0.57950      4.96032        -0.445831      4.143260      0.982087
     11.24226      9.42012      7.19970         0.006076      1.740626     -2.624883
      2.68894     11.58338      9.74068        -1.273479      1.360577      0.466844
      9.75174      5.31534      6.48903        -0.467943      1.444082      0.035077
      7.08729      5.89730      9.82824         1.014492      1.226169      2.498016
      8.08806     10.96727      8.38241         1.485131     -1.142511     -2.323542
      0.09415      2.04709      3.04424        -0.563308      6.809746      1.150927
      0.55469      0.65652     10.55787         0.997993      0.003101      0.219786
      9.89085      1.33602     11.46796         0.644350      0.930593     -0.170776
     10.22979      3.87417      1.63563        -0.274788      1.366030      1.510002
      6.06623      2.06520      3.21675         0.092328      1.080491     -3.240985
    total drift:                               -0.023592     -0.015948     -0.022350

  FREE ENERGIE OF THE ION-ELECTRON SYSTEM (eV)
  free  energy   TOTEN  =      -927.50305698 eV

  energy  without entropy=     -927.50305698  energy(sigma->0) =     -927.50305698