 vasp.5.4.4.18Apr17-6-g9f103f2a35 (build Mar 16 2023 09:39:13) complex

 executed on             LinuxIFC date 2024.04.30  11:58:18

 INCAR:
 POTCAR:    PAW_PBE Ca_sv 06Sep2000
 POTCAR:    PAW_PBE Si 05Jan2001
 POTCAR:    PAW_PBE O 08Apr2002
 POTCAR:    PAW_PBE Ca_sv 06Sep2000
   VRHFIN =Ca: 3s3p4s

   TITEL  = PAW_PBE Ca_sv 06Sep2000
   POMASS =   40.078; ZVAL   =   10.000    mass and valenz
   ENMAX  =  266.622; ENMIN  =  199.967 eV

   TITEL  = PAW_PBE Si 05Jan2001
   POMASS =   28.085; ZVAL   =    4.000    mass and valenz
   ENMAX  =  245.345; ENMIN  =  184.009 eV

   TITEL  = PAW_PBE O 08Apr2002
   POMASS =   16.000; ZVAL   =    6.000    mass and valenz
   ENMAX  =  400.000; ENMIN  =  300.000 eV

 Optimization of the real space projectors (new method)

 maximal supplied QI-value         = 16.25
 optimisation between [QCUT,QGAM] = [ 12.51, 25.03] = [ 43.85,175.40] Ry
 Optimized for a Real-space Cutoff    1.47 Angstroem

   l    n(q)    QCUT    max X(q) W(low)/X(q) W(high)/X(q)  e(spline)
   0     11    12.514    11.817    0.25E-04    0.32E-05    0.87E-07
   0     11    12.514     8.461    0.39E-04    0.59E-05    0.18E-06
   1     11    12.514     3.957    0.97E-05    0.57E-05    0.28E-07
   1     11    12.514     4.314    0.42E-04    0.14E-04    0.23E-06
   2     10    12.514    14.565    0.79E-04    0.50E-03    0.16E-05
   2     10    12.514    14.552    0.75E-04    0.48E-03    0.15E-05
 Optimization of the real space projectors (new method)

[...]

   l    n(q)    QCUT    max X(q) W(low)/X(q) W(high)/X(q)  e(spline)
   0      9    12.501   159.560    0.10E-03    0.83E-04    0.71E-07
   0      9    12.501   115.863    0.99E-04    0.81E-04    0.70E-07
   1      8    12.501    88.339    0.20E-03    0.25E-03    0.76E-07
   1      8    12.501    48.592    0.20E-03    0.24E-03    0.75E-07
 Optimization of the real space projectors (new method)

 maximal supplied QI-value         = 24.76
 optimisation between [QCUT,QGAM] = [ 12.38, 25.00] = [ 42.90,175.06] Ry
 Optimized for a Real-space Cutoff    1.16 Angstroem

   l    n(q)    QCUT    max X(q) W(low)/X(q) W(high)/X(q)  e(spline)
   0      9    12.378    20.381    0.16E-03    0.67E-05    0.31E-06
   0      9    12.378    15.268    0.17E-03    0.81E-05    0.33E-06
   1      8    12.378     5.964    0.20E-03    0.16E-03    0.30E-06
   1      8    12.378     5.382    0.18E-03    0.14E-03    0.26E-06
  PAW_PBE Ca_sv 06Sep2000               :
  PAW_PBE Si 05Jan2001                  :
  PAW_PBE O 08Apr2002                   :

 POSCAR: Ca Si  O
  positions in direct lattice
 exchange correlation table for  LEXCH =        8
   RHO(1)=    0.500       N(1)  =     2000
   RHO(2)=  100.500       N(2)  =     4000

 ion  position               nearest neighbor table
   1  0.165  0.670  0.830-  69 2.09 120 2.36  99 2.40  38 3.06
   2  0.265  0.806  0.355- 109 2.38  56 2.50  36 2.82   6 3.15
   3  0.896  0.014  0.168-  97 2.41 104 2.52
   4  0.698  0.810  0.635-  75 2.25  90 2.45
   5  0.632  0.344  0.896-  84 2.18 112 2.31 117 2.37  44 2.97  30 3.06
   6  0.056  0.902  0.435- 133 2.21 109 2.25 119 2.28 102 2.36  97 2.57  29 3.06   2 3.15
   7  0.912  0.680  0.247- 122 2.12  62 2.42 102 2.45  47 3.04  29 3.06
   8  0.277  0.393  0.483-  98 2.23  65 2.29  88 2.33  39 3.06  53 3.06  14 3.14
   9  0.666  0.200  0.244- 104 2.21  40 2.97
  10  0.390  0.069  0.379- 126 2.03  66 2.38  53 3.16
  11  0.064  0.193  0.086-  82 2.23  74 2.24 105 2.26 128 2.36  43 2.99  33 3.04
  12  0.235  0.531  0.245- 100 1.95  88 2.17
  13  0.781  0.072  0.844-  63 2.28 117 2.40 114 2.47
  14  0.485  0.369  0.607-  64 1.98  59 2.30  92 2.32  72 2.50 110 2.51  37 2.84   8 3.14
  15  0.389  0.546  0.008- 120 2.05 100 2.16 116 2.17  95 2.53  51 2.85
  16  0.678  0.132  0.607-  67 2.06 132 2.16 106 2.50  46 3.04  37 3.08
  17  0.027  0.511  0.582-  65 1.91 135 2.35  39 2.76
  18  0.257  0.961  0.739-  78 2.22 123 2.27  55 2.54
  19  0.658  0.536  0.096-  86 2.15 112 2.45  62 2.51
  20  0.425  0.281  0.146- 130 1.98  76 2.16 126 2.53 116 2.57  53 2.70
  21  0.333  0.033  0.998- 129 2.26  78 2.31  93 2.41  94 2.49
  22  0.912  0.656  0.761- 121 2.14  69 2.32
  23  0.892  0.084  0.484- 133 2.25  97 2.27  34 2.98
  24  0.865  0.308  0.692- 103 2.21  84 2.47  67 2.52
  25  0.544  0.594  0.393-  72 2.27  70 2.31
  26  0.516  0.959  0.844-  55 2.26  93 2.37 132 2.41 129 2.44
  27  0.619  0.836  0.154-  80 2.04  96 2.36  51 3.02
  28  0.620  0.964  0.428- 101 1.43 106 1.69  75 1.79  90 1.85  32 2.91  29 3.12
  29  0.831  0.862  0.374- 102 1.65  97 1.66  96 1.72  90 1.76   7 3.06   6 3.06  28 3.12
  30  0.599  0.135  0.003- 117 1.58 129 1.64  68 1.73 130 1.75   5 3.06
  31  0.057  0.999  0.907- 105 1.56 118 1.58  77 1.73  78 1.78
  32  0.469  0.886  0.576-  55 1.63  75 1.65  66 1.71  61 1.79  46 2.85  28 2.91
  33  0.186  0.042  0.218- 119 1.56  94 1.61  82 1.61  85 1.69  11 3.04  45 3.13
  34  0.958  0.959  0.666-  58 1.59 133 1.65  77 1.84  63 1.86  23 2.98
  35  0.601  0.592  0.813-  91 1.63  95 1.64  60 1.77  81 1.83  41 2.96
  36  0.181  0.716  0.535-  56 1.50 109 1.70 135 1.94 124 2.34   2 2.82
  37  0.672  0.343  0.496-  92 1.61 125 1.66  67 1.66 110 1.69  14 2.84  41 3.01  16 3.08
  38  0.308  0.786  0.979-  93 1.62 111 1.65 120 1.71  83 2.04   1 3.06  51 3.07
  39  0.101  0.315  0.620-  57 1.52  65 1.53  79 1.54 103 1.56  52 2.68  17 2.76   8 3.06  54 3.07

  40  0.869  0.298  0.200-  87 1.60 134 1.62 104 1.70 128 1.77   9 2.97  47 3.05  43 3.10
  41  0.727  0.521  0.636- 121 1.56  92 1.68  89 1.68  91 1.82  35 2.96  37 3.01
  42  0.966  0.779  0.973-  69 1.54  71 1.60 127 1.62 118 1.74  45 2.99
  43  0.080  0.259  0.307- 131 1.47 115 1.52 128 1.68  82 1.79  11 2.99  40 3.10
  44  0.853  0.356  0.957- 112 1.61 108 1.62 134 1.66  84 1.77   5 2.97
  45  0.116  0.822  0.145- 111 1.70  73 1.70 127 1.78  85 1.81  42 2.99  33 3.13
  46  0.450  0.094  0.647- 132 1.52  64 1.72  66 1.79 123 1.83  32 2.85  16 3.04
  47  0.814  0.484  0.334-  87 1.69 122 1.71 125 1.72  62 1.81   7 3.04  40 3.05
  48  0.725  0.814  0.913- 114 1.62  80 1.62  71 1.74  81 1.99
  49  0.429  0.650  0.626- 124 1.67  72 1.72  61 1.87  60 1.88
  50  0.276  0.325  0.945- 116 1.56 107 1.58 113 1.79  74 1.99  54 3.12  52 3.13
  51  0.431  0.698  0.162-  86 1.57  83 1.60  70 1.79 100 1.79  15 2.85  27 3.02  38 3.07
  52  0.269  0.243  0.717-  59 1.61 107 1.63  79 1.65 123 1.78  57 2.41  39 2.68  50 3.13
  53  0.453  0.303  0.352-  76 1.61  98 1.64 126 1.73 110 1.76  88 2.29  20 2.70   8 3.06  10 3.16

  54  0.077  0.408  0.837-  57 1.67 113 1.70  99 1.71 108 1.75  39 3.07  50 3.12
  55  0.440  0.901  0.697-  32 1.63  26 2.26  18 2.54
  56  0.223  0.645  0.454-  36 1.50   2 2.50
  57  0.107  0.333  0.736-  39 1.52  54 1.67  52 2.41
  58  0.923  0.845  0.637-  34 1.59
  59  0.334  0.348  0.700-  52 1.61  14 2.30
  60  0.509  0.668  0.746-  35 1.77  49 1.88
  61  0.456  0.756  0.531-  32 1.79  49 1.87
  62  0.751  0.584  0.258-  47 1.81   7 2.42  19 2.51
  63  0.841  0.041  0.680-  34 1.86  13 2.28
  64  0.492  0.216  0.616-  46 1.72  14 1.98
  65  0.108  0.396  0.535-  39 1.53  17 1.91   8 2.29
  66  0.413  0.003  0.549-  32 1.71  46 1.79  10 2.38
  67  0.755  0.255  0.540-  37 1.66  16 2.06  24 2.52
  68  0.712  0.108  0.068-  30 1.73
  69  0.022  0.711  0.892-  42 1.54   1 2.09  22 2.32
  70  0.470  0.722  0.292-  51 1.79  25 2.31
  71  0.843  0.778  0.967-  42 1.60  48 1.74
  72  0.471  0.552  0.547-  49 1.72  25 2.27  14 2.50
  73  0.113  0.735  0.243-  45 1.70
  74  0.229  0.209  0.034-  50 1.99  11 2.24
  75  0.590  0.921  0.556-  32 1.65  28 1.79   4 2.25
  76  0.500  0.375  0.262-  53 1.61  20 2.16
  77  0.047  0.974  0.776-  31 1.73  34 1.84
  78  0.192  0.016  0.888-  31 1.78  18 2.22  21 2.31
  79  0.201  0.250  0.609-  39 1.54  52 1.65
  80  0.633  0.821  0.998-  48 1.62  27 2.04
  81  0.696  0.696  0.818-  35 1.83  48 1.99
  82  0.118  0.143  0.242-  33 1.61  43 1.79  11 2.23
  83  0.405  0.804  0.102-  51 1.60  38 2.04
  84  0.786  0.283  0.863-  44 1.77   5 2.18  24 2.47
  85  0.115  0.962  0.143-  33 1.69  45 1.81
  86  0.534  0.641  0.132-  51 1.57  19 2.15
  87  0.797  0.385  0.251-  40 1.60  47 1.69
  88  0.355  0.450  0.331-  12 2.17  53 2.29   8 2.33
  89  0.711  0.618  0.552-  41 1.68
  90  0.732  0.884  0.464-  29 1.76  28 1.85   4 2.45
  91  0.651  0.494  0.751-  35 1.63  41 1.82
  92  0.651  0.432  0.580-  37 1.61  41 1.68  14 2.32
  93  0.370  0.872  0.911-  38 1.62  26 2.37  21 2.41
  94  0.307  0.033  0.188-  33 1.61  21 2.49
  95  0.561  0.529  0.915-  35 1.64  15 2.53
  96  0.769  0.837  0.259-  29 1.72  27 2.36
  97  0.892  0.973  0.350-  29 1.66  23 2.27   3 2.41   6 2.57
  98  0.376  0.258  0.442-  53 1.64   8 2.23
  99  0.062  0.525  0.778-  54 1.71   1 2.40
 100  0.330  0.604  0.153-  51 1.79  12 1.95  15 2.16
 101  0.542  0.934  0.355-  28 1.43
 102  0.924  0.780  0.407-  29 1.65   6 2.36   7 2.45
 103  0.996  0.263  0.592-  39 1.56  24 2.21
 104  0.836  0.181  0.250-  40 1.70   9 2.21   3 2.52
 105  0.997  0.086  0.965-  31 1.56  11 2.26
 106  0.661  0.088  0.420-  28 1.69  16 2.50
 107  0.268  0.260  0.843-  50 1.58  52 1.63
 108  0.954  0.377  0.885-  44 1.62  54 1.75
 109  0.196  0.845  0.521-  36 1.70   6 2.25   2 2.38
 110  0.560  0.316  0.435-  37 1.69  53 1.76  14 2.51
 111  0.227  0.811  0.074-  38 1.65  45 1.70
 112  0.763  0.441  0.970-  44 1.61   5 2.31  19 2.45
 113  0.157  0.397  0.940-  54 1.70  50 1.79
[...]
 121  0.835  0.528  0.691-  41 1.56  22 2.14
 122  0.927  0.553  0.349-  47 1.71   7 2.12
 123  0.330  0.120  0.717-  52 1.78  46 1.83  18 2.27
 124  0.302  0.633  0.641-  49 1.67  36 2.34
 125  0.727  0.428  0.417-  37 1.66  47 1.72
 126  0.475  0.179  0.306-  53 1.73  10 2.03  20 2.53
 127  0.009  0.756  0.089-  42 1.62  45 1.78
 128  0.005  0.309  0.213-  43 1.68  40 1.77  11 2.36
 129  0.507  0.049  0.010-  30 1.64  21 2.26  26 2.44
 130  0.549  0.247  0.061-  30 1.75  20 1.98
 131  0.055  0.199  0.400-  43 1.47
 132  0.553  0.065  0.695-  46 1.52  16 2.16  26 2.41
 133  0.023  0.005  0.567-  34 1.65   6 2.21  23 2.25
 134  0.850  0.312  0.077-  40 1.62  44 1.66
 135  0.086  0.671  0.643-  36 1.94  17 2.35

IMPORTANT INFORMATION: All symmetrisations will be switched off!
NOSYMM: (Re-)initialisation of all symmetry stuff for point group C_1.

Automatic generation of k-mesh.
 generate k-points for:    2    2    2
Space group operators:
 irot       det(A)        alpha          n_x          n_y          n_z        tau_x        tau_y        tau_z
    1     1.000000     0.000000     1.000000     0.000000     0.000000     0.000000     0.000000     0.000000

 Subroutine IBZKPT returns following result:

 Found      8 irreducible k-points:

 Following reciprocal coordinates:
            Coordinates               Weight
  0.000000  0.000000  0.000000      1.000000
  0.500000  0.000000  0.000000      1.000000
  0.000000  0.500000  0.000000      1.000000
  0.500000  0.500000  0.000000      1.000000
  0.000000  0.000000  0.500000      1.000000
  0.500000  0.000000  0.500000      1.000000
  0.000000  0.500000  0.500000      1.000000
  0.500000  0.500000  0.500000      1.000000

 Following cartesian coordinates:
            Coordinates               Weight
[...]
     0.000000000  0.000000000 12.930412990     0.000000000  0.000000000  0.077337050

  length of vectors
    12.930412990 12.930412990 12.930412990     0.077337050  0.077337050  0.077337050

 FORCES acting on ions
    electron-ion (+dipol)            ewald-force                    non-local-force                 convergence-correction
   -.126E+03 0.234E+02 -.184E+02   0.124E+03 -.276E+02 0.157E+02   0.344E+01 0.255E+01 0.292E+00   -.196E-02 -.337E-02 0.108E-02
   -.120E+03 0.382E+02 0.609E+02   0.119E+03 -.400E+02 -.604E+02   0.259E+01 0.136E+01 -.144E+01   -.269E-03 -.127E-02 -.131E-02
   0.899E+02 0.985E+02 0.150E+03   -.926E+02 -.964E+02 -.144E+03   0.175E+01 -.169E+01 -.495E+01   0.660E-03 0.193E-02 0.141E-02
   -.108E+03 0.168E+03 -.364E+02   0.110E+03 -.168E+03 0.334E+02   -.420E+00 -.944E+00 0.269E+01   0.565E-03 -.515E-03 -.407E-03
   0.179E+03 -.661E+02 0.147E+02   -.174E+03 0.655E+02 -.128E+02   -.527E+01 0.105E+01 -.166E+01   0.135E-02 0.554E-03 0.154E-02
   -.388E+02 0.934E+02 -.909E+01   0.380E+02 -.902E+02 0.106E+02   0.323E-01 -.248E+01 -.182E+01   -.252E-03 0.435E-03 -.100E-02
   -.418E+02 0.108E+03 0.187E+03   0.401E+02 -.109E+03 -.180E+03   0.141E+01 0.190E+01 -.648E+01   0.482E-03 -.307E-02 -.259E-03
   0.107E+03 -.182E+03 0.857E+01   -.108E+03 0.179E+03 -.155E+02   -.870E-01 0.330E+01 0.528E+01   0.670E-03 -.258E-04 -.377E-02
   -.921E+01 0.308E+02 0.656E+02   0.852E+01 -.334E+02 -.654E+02   -.110E+01 0.205E+01 0.955E-01   -.505E-03 0.234E-02 0.273E-03
   0.188E+03 0.161E+03 0.507E+02   -.184E+03 -.155E+03 -.532E+02   -.420E+01 -.513E+01 0.203E+01   -.238E-03 0.290E-02 -.101E-02
   0.669E+02 -.182E+03 0.146E+03   -.601E+02 0.182E+03 -.147E+03   -.534E+01 0.596E+00 -.617E+00   0.599E-03 0.273E-02 0.126E-02
   0.346E+03 0.170E+02 0.779E+02   -.339E+03 -.212E+02 -.733E+02   -.849E+01 0.161E+01 -.133E+01   0.855E-03 -.284E-02 0.823E-03
   -.179E+03 0.395E+02 -.153E+03   0.177E+03 -.384E+02 0.152E+03   0.234E+01 -.467E+00 0.213E+01   -.431E-03 0.174E-02 -.306E-03
   0.671E+02 -.200E+03 -.203E+03   -.712E+02 0.198E+03 0.203E+03   0.224E+01 0.420E+01 0.100E+00   -.102E-02 -.409E-03 -.231E-02
   0.530E+02 0.875E+02 0.916E+02   -.522E+02 -.870E+02 -.918E+02   0.138E+01 -.142E+01 -.206E+00   -.724E-03 -.131E-02 0.222E-02
   -.103E+03 0.232E+01 -.816E+02   0.983E+02 -.313E+01 0.783E+02   0.270E+01 -.118E+01 0.305E+01   0.142E-03 0.111E-02 -.981E-03
   0.138E+03 -.170E+03 0.179E+03   -.134E+03 0.173E+03 -.178E+03   -.587E+01 0.992E+00 0.411E-01   0.616E-03 -.133E-02 -.292E-03
   0.168E+03 0.165E+03 0.127E+03   -.168E+03 -.161E+03 -.124E+03   -.685E+00 -.435E+01 -.382E+01   0.410E-03 0.169E-02 0.144E-03
   -.161E+03 -.181E+02 -.153E+02   0.161E+03 0.204E+02 0.165E+02   0.136E+01 -.259E+01 -.902E+00   0.811E-03 -.141E-02 0.110E-02
   0.224E+03 -.272E+02 0.794E+02   -.220E+03 0.275E+02 -.790E+02   -.709E+01 -.571E+00 -.202E+00   -.248E-03 0.187E-02 0.235E-02
   -.712E+01 -.732E+02 -.563E+02   0.564E+01 0.740E+02 0.597E+02   0.483E+00 0.121E+00 -.154E+01   -.112E-03 0.160E-02 0.170E-02
   0.449E+02 -.755E+02 -.652E+02   -.422E+02 0.739E+02 0.638E+02   -.189E+01 0.248E+01 0.986E+00   0.467E-03 -.234E-02 0.761E-03
   -.197E+02 -.136E+03 0.353E+02   0.257E+02 0.135E+03 -.375E+02   -.502E+01 0.214E+01 0.139E+01   0.459E-03 0.156E-02 -.781E-03
   -.359E+02 -.253E+02 -.627E+02   0.388E+02 0.233E+02 0.612E+02   -.263E+01 0.181E+01 0.170E+01   0.769E-03 0.752E-03 0.343E-03
   -.100E+03 -.711E+02 0.106E+03   0.955E+02 0.725E+02 -.105E+03   0.411E+01 -.154E+01 -.136E+01   -.119E-02 -.269E-02 -.178E-02
   -.609E+02 0.928E+02 -.127E+03   0.611E+02 -.934E+02 0.126E+03   0.886E+00 0.202E+00 0.128E+01   0.298E-03 0.791E-03 0.423E-03
   -.580E+02 -.656E+02 -.724E+02   0.584E+02 0.638E+02 0.727E+02   -.128E+01 0.196E+01 0.243E+01   -.547E-03 -.150E-02 0.487E-03
   -.495E+02 0.302E+02 0.541E+02   0.402E+02 -.287E+02 -.652E+02   0.180E+02 0.115E+01 0.175E+02   0.107E-04 0.478E-03 -.261E-03
   0.436E+02 0.780E+02 0.813E+01   -.384E+02 -.777E+02 -.109E+02   -.632E+01 -.698E+00 0.193E+01   0.124E-03 -.163E-03 -.143E-03
   -.115E+02 0.278E+02 -.573E+02   0.111E+02 -.282E+02 0.535E+02   0.497E+00 0.110E+01 0.739E+01   0.355E-05 0.760E-03 0.423E-03
   0.201E+02 -.243E+02 0.516E+02   -.218E+02 0.261E+02 -.475E+02   0.677E+01 -.162E+01 -.793E+01   0.146E-03 0.711E-03 0.388E-03
   0.797E+02 0.117E+03 0.681E+02   -.761E+02 -.113E+03 -.579E+02   -.411E+01 -.498E+01 -.887E+01   0.138E-03 0.167E-04 -.245E-03
   -.437E+02 -.342E+02 0.271E+02   0.474E+02 0.297E+02 -.179E+02   -.261E+01 0.365E+01 -.823E+01   0.181E-03 0.725E-03 0.149E-03
   -.274E+02 -.228E+01 -.949E+02   0.274E+02 -.574E+01 0.846E+02   0.239E+00 0.920E+01 0.109E+02   -.405E-03 0.219E-03 -.511E-03
   0.279E+02 -.585E+02 -.353E+02   -.285E+02 0.508E+02 0.374E+02   -.374E-01 0.102E+02 -.178E+01   0.366E-03 -.411E-03 0.338E-03
   0.563E+02 0.383E+01 -.731E+02   -.521E+02 -.803E+01 0.632E+02   -.606E+01 0.509E+01 0.181E+02   -.136E-03 -.767E-03 -.574E-03
   -.633E+02 0.216E+02 0.401E+02   0.648E+02 -.167E+02 -.405E+02   -.116E+01 -.468E+01 -.350E+01   -.166E-03 -.385E-04 -.685E-03
   0.346E+02 0.466E+02 0.388E+02   -.299E+02 -.452E+02 -.410E+02   -.525E+00 -.249E+01 0.517E+01   0.180E-03 -.550E-03 0.820E-03
   0.277E+02 0.230E+02 -.536E+01   -.309E+02 -.252E+02 -.109E+01   0.638E+00 -.107E+01 0.215E+01   -.109E-03 0.352E-03 -.708E-03
   -.557E+02 -.564E+02 -.186E+01   0.536E+02 0.550E+02 0.320E+01   0.527E+01 -.125E+01 -.122E+00   0.349E-03 0.512E-03 -.847E-04
   -.404E+02 -.320E+02 0.163E+02   0.429E+02 0.399E+02 -.184E+02   -.711E+01 -.475E+01 0.540E+00   0.345E-03 -.101E-03 -.941E-04
   0.619E+02 0.370E+02 -.187E+02   -.552E+02 -.410E+02 0.163E+02   -.448E+01 0.759E+01 0.301E+01   0.296E-03 -.142E-02 0.289E-03
   0.218E+02 -.707E+02 0.102E+02   -.165E+02 0.731E+02 0.433E+01   -.380E+01 -.208E+01 -.168E+02   0.457E-03 0.789E-03 0.740E-05
   -.111E+03 -.347E+02 -.538E+02   0.101E+03 0.397E+02 0.510E+02   0.658E+01 -.576E+01 0.950E+00   0.230E-03 0.747E-03 0.416E-03
   0.293E+02 0.384E+02 -.120E+02   -.267E+02 -.445E+02 0.159E+02   -.226E+01 0.548E+01 -.418E+01   0.575E-04 -.675E-03 0.468E-03
   0.115E+03 -.184E+02 0.154E+01   -.100E+03 0.233E+02 0.166E+01   -.183E+02 -.495E+00 -.527E+01   0.158E-03 0.847E-03 -.359E-03
   -.776E+02 -.277E+02 -.245E+02   0.783E+02 0.329E+02 0.198E+02   -.236E+01 -.181E+01 0.313E+01   0.200E-03 0.389E-04 -.673E-03
   -.575E+02 0.420E+02 -.539E+02   0.475E+02 -.359E+02 0.530E+02   0.820E+01 -.919E+01 -.458E+00   -.226E-03 -.455E-03 -.894E-04
   0.155E+02 -.220E+02 -.680E+02   -.225E+02 0.138E+02 0.630E+02   0.720E+01 0.658E+01 0.372E+01   0.410E-04 -.748E-03 -.629E-03
   0.319E+02 -.513E+02 -.504E+02   -.265E+02 0.491E+02 0.485E+02   -.996E+01 -.172E+01 0.408E+01   -.446E-03 0.353E-03 0.778E-03
   0.369E+02 -.105E+02 -.394E+02   -.301E+02 0.116E+02 0.387E+02   -.810E+01 -.230E+01 0.611E+01   -.231E-03 -.949E-03 0.444E-03
   0.443E+02 0.626E+02 -.370E+02   -.349E+02 -.492E+02 0.345E+02   -.550E+01 -.118E+02 0.217E+01   0.262E-04 0.720E-03 -.238E-03
   0.552E+02 -.477E+02 0.392E+02   -.542E+02 0.439E+02 -.408E+02   -.534E+00 0.318E+01 0.360E+01   -.730E-03 0.119E-02 -.663E-03
   -.236E+01 -.286E+02 -.969E+02   0.385E+01 0.340E+02 0.943E+02   -.224E+01 -.323E+01 0.304E+01   -.337E-03 0.417E-03 0.782E-03
   0.940E+02 0.176E+03 -.646E+02   -.991E+02 -.177E+03 0.876E+02   0.420E+01 -.727E+00 -.223E+02   0.551E-03 0.450E-03 -.163E-03
   0.311E+02 0.110E+03 0.738E+02   -.152E+02 -.138E+03 -.963E+02   -.155E+02 0.265E+02 0.185E+02   0.473E-03 -.192E-02 -.140E-02
   0.226E+02 0.245E+02 -.144E+03   -.148E+02 -.350E+02 0.157E+03   -.869E+01 0.125E+02 -.478E+01   -.193E-03 0.860E-03 0.176E-03
   -.781E+01 0.150E+03 -.195E+02   0.302E+01 -.178E+03 0.734E+01   0.356E+01 0.273E+02 0.137E+02   -.278E-03 -.390E-03 -.609E-03
   -.263E+02 -.193E+03 -.119E+03   0.371E+02 0.217E+03 0.121E+03   -.959E+01 -.236E+02 -.323E+01   -.522E-03 -.500E-04 -.775E-03
   0.905E+02 -.230E+02 -.579E+02   -.962E+02 0.414E+02 0.652E+02   0.544E+01 -.200E+02 -.890E+01   0.468E-03 -.725E-03 -.866E-04
[...]
   -.148E+03 0.578E+02 -.444E+02   0.170E+03 -.474E+02 0.512E+02   -.238E+02 -.140E+02 -.568E+01   0.460E-03 -.877E-03 -.122E-02
   0.712E+02 -.456E+01 -.394E+02   -.760E+02 -.453E+01 0.499E+02   0.596E+01 0.878E+01 -.117E+02   0.157E-03 0.141E-02 -.354E-03
   0.616E+02 0.232E+02 -.941E+02   -.856E+02 -.340E+02 0.981E+02   0.249E+02 0.129E+02 -.327E+01   -.215E-03 -.139E-02 -.102E-02
   -.112E+03 -.890E+02 0.680E+02   0.104E+03 0.974E+02 -.704E+02   0.103E+02 -.728E+01 0.125E+01   -.532E-03 -.570E-04 -.111E-02
   -.260E+02 0.987E+02 0.129E+03   0.322E+02 -.115E+03 -.135E+03   -.509E+01 0.176E+02 0.319E+01   -.410E-03 0.180E-02 -.950E-04
   0.681E+02 0.184E+03 -.371E+02   -.710E+02 -.200E+03 0.552E+02   0.293E+01 0.173E+02 -.165E+02   0.462E-03 -.216E-02 0.408E-03
   -.566E+01 -.238E+03 0.495E+02   0.156E+02 0.255E+03 -.610E+02   -.142E+02 -.176E+02 0.101E+02   0.474E-03 0.132E-02 -.226E-03
   -.134E+02 0.592E+02 -.118E+03   -.138E+01 -.755E+02 0.125E+03   0.147E+02 0.157E+02 -.837E+01   -.344E-03 0.727E-03 0.482E-03
   -.391E+02 -.574E+02 0.298E+02   0.351E+02 0.716E+02 -.249E+02   0.737E+01 -.157E+02 -.696E+01   -.145E-03 0.103E-02 0.106E-02
   0.178E+02 0.774E+01 -.107E+03   -.222E+02 -.289E+02 0.141E+03   0.793E+00 0.184E+02 -.287E+02   0.351E-03 0.930E-03 -.329E-03
   -.559E+02 0.153E+01 -.130E+03   0.840E+02 -.848E+01 0.144E+03   -.252E+02 0.432E+01 -.102E+02   0.235E-03 0.706E-03 -.167E-03
   -.163E+03 -.664E+02 -.713E+02   0.182E+03 0.787E+02 0.569E+02   -.201E+02 -.121E+02 0.152E+02   -.406E-03 0.947E-03 -.994E-03
   -.603E+02 -.513E+02 0.253E+02   0.497E+02 0.468E+02 -.280E+02   0.123E+02 0.341E+01 0.139E+01   0.659E-03 0.150E-02 0.232E-03
   0.117E-01 -.834E+02 0.319E+02   -.791E+01 0.815E+02 -.209E+02   0.101E+02 0.326E+01 -.141E+02   -.563E-03 -.135E-02 -.554E-04
   0.130E+03 -.417E+01 -.484E+02   0.693E-12 -.284E-13 0.476E-12   -.130E+03 0.414E+01 0.484E+02   0.489E-02 0.826E-02 -.763E-03

 POSITION                                       TOTAL-FORCE (eV/Angst)
      2.13709      8.66387     10.73091         0.778083     -1.737433     -2.411648
      3.42969     10.41736      4.58960         0.815544     -0.436010     -0.908047
     11.58262      0.18087      2.17431        -0.922701      0.461217      1.394780
      9.01909     10.46735      8.20719         1.339521     -0.841170     -0.296835
      8.17111      4.44963     11.58432        -0.768618      0.389678      0.221162
      0.72958     11.66790      5.62634        -0.853681      0.715559     -0.340545
     11.79560      8.78729      3.19016        -0.329739      0.809838      0.865456
      3.58617      5.08092      6.24569        -0.307928     -0.005812     -1.657290
      8.61516      2.58732      3.15780        -1.796435     -0.580345      0.223496
      5.04846      0.89222      4.90257        -0.677796      0.236725     -0.499995
      0.82791      2.49504      1.11053         1.425379      1.153482     -1.461292
      3.04200      6.86184      3.17141        -1.572478     -2.534240      3.248066
     10.10281      0.92520     10.91150        -0.222094      0.634708      0.938239
      6.27368      4.77135      7.84913        -1.776142      2.028199      0.374853
      5.03241      7.05701      0.10754         2.093110     -0.958656     -0.374094
      8.77154      1.70889      7.85452        -1.569649     -1.987824     -0.339177
      0.34549      6.60300      7.52118        -2.090359      4.180549      0.409331
      3.32804     12.42599      9.55300        -0.726547     -0.142007      0.004321
      8.50358      6.93573      1.23731         0.692765     -0.324615      0.282002
      5.50163      3.62702      1.88909        -2.450516     -0.238427      0.185059
      4.30482      0.42932     12.89876        -0.992312      0.902506      1.833217
     11.79196      8.48528      9.84616         0.779996      0.803612     -0.401958
     11.53694      1.09214      6.26268         1.059924      2.010063     -0.852224
     11.18131      3.98213      8.94188         0.206054     -0.170048      0.160904
      7.03515      7.67731      5.08012        -0.441125     -0.097413     -0.203116
      6.67026     12.39710     10.91154         1.092427     -0.440783      0.270270
      8.00830     10.80684      1.99769        -0.887843      0.066738      2.707399
      8.01257     12.46497      5.53077         8.763091      2.593965      6.438979
     10.75088     11.14302      4.83523        -1.170986     -0.384368     -0.873127
      7.74755      1.75160      0.03327         0.049829      0.676665      3.576000
      0.73637     12.91913     11.72319         5.062090      0.187762     -3.842965
      6.06584     11.46066      7.44787        -0.462968     -0.883408      1.282360
      2.40982      0.53767      2.81849         1.033969     -0.874949      0.890255
     12.38371     12.40512      8.61258         0.222747      1.183489      0.654087
      7.76532      7.65294     10.50968        -0.630136      2.476128      0.373990
      2.33697      9.25760      6.91980        -1.833055      0.884219      8.172573
      8.69555      4.43431      6.41401         0.311185      0.137250     -3.843749
      3.98139     10.16775     12.65410         4.158269     -1.089775      2.970022
      1.30636      4.06673      8.01552        -2.539444     -3.326132     -4.307408
     11.24099      3.85857      2.58857         3.173067     -2.616474      1.218360
      9.40394      6.73272      8.22436        -4.549017      3.123611     -1.519585
     12.49691     10.07301     12.58711         2.156734      3.613120      0.681862
      1.03837      3.34833      3.96833         1.480304      0.343852     -2.295566
     11.03352      4.60399     12.37781        -3.882511     -0.816012     -1.831887
      1.50631     10.62740      1.86918         0.400318     -0.617141     -0.313112
      5.81846      1.21452      8.36065        -3.161036      4.415502     -2.066657
     10.53096      6.26408      4.31857        -1.733899      3.389675     -1.527832
      9.36965     10.52773     11.80803        -1.745302     -3.109436     -1.340002
      5.54515      8.40312      8.09198         0.209079     -1.590001     -1.267386
      3.56246      4.20249     12.22279        -4.590974     -3.977951      2.197316
      5.57520      9.02884      2.09296        -1.365118     -1.231215      5.359241
      3.48112      3.14602      9.27501         3.891486      1.595152     -0.362095
      5.85819      3.92173      4.55002         0.525560     -0.620989      2.044723
      0.99032      5.27112     10.81883        -0.750777      2.162850      0.400261
      5.68505     11.64921      9.01842        -0.913127     -1.419676      0.737127
      2.88515      8.33470      5.86850         0.324948     -1.397504     -4.037129
      1.37715      4.30458      9.51530        -0.868549      2.042511      7.634497
     11.93830     10.92495      8.23554        -1.239077     -0.964758      1.493250
      4.32505      4.50354      9.05035         1.264260      0.755521     -1.574543
      6.57788      8.64248      9.64141        -0.269918     -1.597931     -1.653744
[...]
     10.79312      6.82189      8.93641         2.801372     -2.228573     -0.363432
     11.98217      7.14472      4.51036        -1.685903     -3.562532      1.094882
      4.26591      1.54873      9.27200         1.192461     -0.305533     -1.268139
      3.90294      8.18958      8.28607         0.981293      2.041097      0.687969
      9.39999      5.53079      5.38986         2.431830      1.081163     -1.175600
      6.13992      2.31836      3.95889         1.137568      1.729909     -2.473835
      0.11500      9.77829      1.14959         0.082998      0.488741      1.621281
      0.06826      3.99653      2.76021        -4.282353     -0.294102     -1.421271
      6.55294      0.63011      0.12747        -0.064739     -0.532372     -0.853212
      7.09277      3.18835      0.79064         3.327364     -1.493624     -1.985050
      0.70583      2.56715      5.16904        -3.533563     -2.753887      5.347408
      7.14678      0.83535      8.98398         2.894326     -2.629247      3.682119
      0.30356      0.06919      7.33445        -0.911103      0.254717      0.777487
     10.98716      4.03232      1.00060         1.727054     -1.075303     -1.382089
      1.11037      8.68087      8.31340         2.247178      1.296929     -3.061431
    total drift:                                0.038882     -0.018730      0.019019

  FREE ENERGIE OF THE ION-ELECTRON SYSTEM (eV)
  free  energy   TOTEN  =      -936.69894752 eV

  energy  without entropy=     -936.68940024  energy(sigma->0) =     -936.69417388