 vasp.5.4.4.18Apr17-6-g9f103f2a35 (build Mar 16 2023 09:39:13) complex

 executed on             LinuxIFC date 2024.04.30  00:38:31

 INCAR:
 POTCAR:    PAW_PBE Ca_sv 06Sep2000
 POTCAR:    PAW_PBE Si 05Jan2001
 POTCAR:    PAW_PBE O 08Apr2002
 POTCAR:    PAW_PBE Ca_sv 06Sep2000
   VRHFIN =Ca: 3s3p4s

   TITEL  = PAW_PBE Ca_sv 06Sep2000
   POMASS =   40.078; ZVAL   =   10.000    mass and valenz
   ENMAX  =  266.622; ENMIN  =  199.967 eV

   TITEL  = PAW_PBE Si 05Jan2001
   POMASS =   28.085; ZVAL   =    4.000    mass and valenz
   ENMAX  =  245.345; ENMIN  =  184.009 eV

   TITEL  = PAW_PBE O 08Apr2002
   POMASS =   16.000; ZVAL   =    6.000    mass and valenz
   ENMAX  =  400.000; ENMIN  =  300.000 eV

 Optimization of the real space projectors (new method)

 maximal supplied QI-value         = 16.25
 optimisation between [QCUT,QGAM] = [ 12.51, 25.03] = [ 43.85,175.40] Ry
 Optimized for a Real-space Cutoff    1.47 Angstroem

   l    n(q)    QCUT    max X(q) W(low)/X(q) W(high)/X(q)  e(spline)
   0     11    12.514    11.817    0.25E-04    0.32E-05    0.87E-07
   0     11    12.514     8.461    0.39E-04    0.59E-05    0.18E-06
   1     11    12.514     3.957    0.97E-05    0.57E-05    0.28E-07
   1     11    12.514     4.314    0.42E-04    0.14E-04    0.23E-06
   2     10    12.514    14.565    0.79E-04    0.50E-03    0.16E-05
   2     10    12.514    14.552    0.75E-04    0.48E-03    0.15E-05
 Optimization of the real space projectors (new method)

[...]

   l    n(q)    QCUT    max X(q) W(low)/X(q) W(high)/X(q)  e(spline)
   0      9    12.501   159.560    0.10E-03    0.83E-04    0.71E-07
   0      9    12.501   115.863    0.99E-04    0.81E-04    0.70E-07
   1      8    12.501    88.339    0.20E-03    0.25E-03    0.76E-07
   1      8    12.501    48.592    0.20E-03    0.24E-03    0.75E-07
 Optimization of the real space projectors (new method)

 maximal supplied QI-value         = 24.76
 optimisation between [QCUT,QGAM] = [ 12.38, 25.00] = [ 42.90,175.06] Ry
 Optimized for a Real-space Cutoff    1.16 Angstroem

   l    n(q)    QCUT    max X(q) W(low)/X(q) W(high)/X(q)  e(spline)
   0      9    12.378    20.381    0.16E-03    0.67E-05    0.31E-06
   0      9    12.378    15.268    0.17E-03    0.81E-05    0.33E-06
   1      8    12.378     5.964    0.20E-03    0.16E-03    0.30E-06
   1      8    12.378     5.382    0.18E-03    0.14E-03    0.26E-06
  PAW_PBE Ca_sv 06Sep2000               :
  PAW_PBE Si 05Jan2001                  :
  PAW_PBE O 08Apr2002                   :

 POSCAR: Ca Si  O
  positions in direct lattice
 exchange correlation table for  LEXCH =        8
   RHO(1)=    0.500       N(1)  =     2000
   RHO(2)=  100.500       N(2)  =     4000

 ion  position               nearest neighbor table
   1  0.367  0.862  0.284-  93 2.06  58 2.17 110 2.30  74 2.40  38 2.84  41 2.93
   2  0.469  0.728  0.055-  63 2.15  58 2.28 106 2.30 130 2.39  43 3.06
   3  0.279  0.606  0.254- 130 2.22  91 2.36  93 2.39 122 2.49  43 2.98  37 3.07
   4  0.115  0.813  0.540-  96 2.18 120 2.27  70 2.45  37 2.94
   5  0.973  0.245  0.600-  92 2.28 105 2.38  81 2.38  67 2.50  39 2.73
   6  0.583  0.334  0.497- 126 2.30 133 2.54  79 2.57  32 2.76  47 2.89
   7  0.360  0.151  0.469-  64 2.38  55 2.39  60 2.44  59 2.51  74 2.53  27 3.02  53 3.12  46 3.14

   8  0.703  0.652  0.757- 128 2.09 131 2.23
   9  0.070  0.833  0.898-  57 2.09  75 2.43
  10  0.862  0.449  0.456-  81 2.12 105 2.33  32 3.00
  11  0.165  0.073  0.142-  62 2.21 100 2.22 132 2.30 121 2.36  38 2.83  36 3.11
  12  0.805  0.030  0.122-  99 2.19  85 2.36  24 3.04
  13  0.361  0.104  0.788-  94 2.06  83 2.26  71 2.31  60 2.43  25 3.05  29 3.10
  14  0.878  0.962  0.600- 127 2.22  70 2.31 101 2.44  48 2.84
  15  0.648  0.772  0.487- 131 2.00  76 2.23 127 2.28  48 3.10  47 3.12
  16  0.982  0.140  0.861- 117 2.22  75 2.39  92 2.49  85 2.53  42 3.03  35 3.10
  17  0.484  0.374  0.905-  95 1.97 103 2.16  86 2.16  44 2.65  43 3.06
  18  0.807  0.581  0.221- 116 2.07  98 2.50
  19  0.552  0.514  0.260-  88 2.18 130 2.25 126 2.35
  20  0.835  0.441  0.926- 111 2.33 128 2.41  65 2.48 108 2.54  98 2.55  45 2.72  39 2.83  52 2.95

[...]

  44  0.645  0.251  0.936- 118 1.63  56 1.64  95 1.70  86 1.70  17 2.65  45 2.76  42 2.96
  45  0.792  0.306  0.081- 108 1.49 107 1.71  98 1.82 118 2.12  20 2.72  44 2.76
  46  0.278  0.358  0.565- 104 1.50  55 1.57 124 1.68  89 1.80  30 2.61  53 2.82   7 3.14
  47  0.591  0.549  0.558-  82 1.54 126 1.67 131 1.70  84 1.74   6 2.89  40 3.10  15 3.12
  48  0.690  0.892  0.691-  77 1.49 127 1.74  61 1.91  51 2.49  14 2.84  15 3.10
  49  0.027  0.968  0.341-  73 1.54 121 1.71  70 1.73 114 2.16  36 2.94
  50  0.562  0.074  0.300- 112 1.54  64 1.69  87 1.78  80 1.97  74 2.36  54 2.56
  51  0.559  0.905  0.832- 106 1.62  77 1.71  94 1.82 115 1.92  48 2.49  25 3.11
  52  0.872  0.656  0.993- 116 1.60  57 1.64  65 1.76 128 1.77  24 2.67  20 2.95
  53  0.335  0.362  0.355- 129 1.46  88 1.54 119 1.71  55 1.92  30 2.58  46 2.82   7 3.12
  54  0.400  0.145  0.211- 132 1.51  87 1.70 119 1.77  74 1.79  50 2.56
  55  0.375  0.333  0.495-  46 1.57  53 1.92   7 2.39
  56  0.736  0.198  0.865-  42 1.59  44 1.64
  57  0.938  0.750  0.938-  52 1.64   9 2.09  24 2.56
  58  0.335  0.819  0.125-  38 1.64   1 2.17   2 2.28
  59  0.263  0.986  0.498-  29 1.67   7 2.51
  60  0.409  0.044  0.617-  29 1.75  27 2.23  13 2.43   7 2.44
  61  0.814  0.859  0.764-  48 1.91
  62  0.198  0.952  0.027-  38 1.76  11 2.21  25 2.41
  63  0.585  0.839  0.097-  33 1.74   2 2.15
  64  0.535  0.132  0.414-  50 1.69  27 2.01   7 2.38
  65  0.956  0.553  0.024-  52 1.76  20 2.48  21 2.49
  66  0.387  0.549  0.938-  34 1.58  43 1.87
  67  0.080  0.092  0.651-  35 1.53   5 2.50
  68  0.903  0.639  0.389-  37 2.41
  69  0.117  0.752  0.074-  38 2.00  21 2.10  23 2.43
  70  0.988  0.931  0.464-  49 1.73  14 2.31   4 2.45
  71  0.305  0.258  0.862-  28 1.63  13 2.31
  72  0.815  0.354  0.732-  32 1.57  39 1.78
  73  0.936  0.964  0.264-  49 1.54
  74  0.382  0.045  0.306-  54 1.79  50 2.36   1 2.40   7 2.53
  75  0.109  0.007  0.838-  35 1.56  16 2.39   9 2.43
  76  0.481  0.814  0.479-  41 1.74  15 2.23
  77  0.579  0.868  0.706-  48 1.49  51 1.71
  78  0.172  0.350  0.969-  28 1.64  26 2.23  22 2.48
  79  0.668  0.247  0.654-  32 1.67   6 2.57
  80  0.710  0.107  0.293-  31 1.74  50 1.97
  81  0.818  0.306  0.523-  32 1.71  10 2.12   5 2.38
  82  0.487  0.526  0.612-  47 1.54  40 1.67
  83  0.248  0.987  0.724-  29 1.73  35 1.76  13 2.26
  84  0.681  0.470  0.617-  47 1.74  32 1.85
  85  0.843  0.030  0.944-  42 1.95  12 2.36  16 2.53
  86  0.521  0.212  0.923-  44 1.70  17 2.16
  87  0.529  0.148  0.188-  54 1.70  50 1.78
  88  0.414  0.448  0.330-  53 1.54  19 2.18
  89  0.144  0.382  0.535-  30 1.60  46 1.80
  90  0.200  0.565  0.857-  34 1.52  22 2.28  21 2.56
  91  0.276  0.476  0.126-  43 1.63   3 2.36  26 2.44  21 2.53
  92  0.018  0.300  0.761-  39 1.60   5 2.28  22 2.41  16 2.49
  93  0.302  0.747  0.372-  41 1.64   1 2.06   3 2.39
  94  0.434  0.968  0.827-  51 1.82  25 1.89  13 2.06
  95  0.634  0.369  0.880-  44 1.70  17 1.97
  96  0.058  0.873  0.687-  35 1.84   4 2.18
  97  0.066  0.411  0.325-  30 1.69
  98  0.750  0.438  0.104-  45 1.82  18 2.50  20 2.55
  99  0.745  0.880  0.173-  33 1.65  12 2.19  24 2.37
 100  0.081  0.213  0.199-  36 1.55  26 2.09  11 2.22
 101  0.797  0.085  0.719-  42 1.55  14 2.44
 102  0.395  0.598  0.775-  40 1.61  34 1.75
 103  0.503  0.460  0.048-  43 1.65  17 2.16
[...]
 121  0.086  0.081  0.307-  36 1.58  49 1.71  11 2.36
 122  0.087  0.621  0.241-  37 1.71  23 2.43   3 2.49
 123  0.297  0.729  0.909-  34 1.55  25 2.27
 124  0.279  0.471  0.630-  46 1.68  40 1.74
 125  0.124  0.215  0.430-  30 1.85  36 1.95
 126  0.562  0.502  0.441-  47 1.67   6 2.30  19 2.35
 127  0.717  0.916  0.561-  48 1.74  14 2.22  15 2.28
 128  0.794  0.619  0.886-  52 1.77   8 2.09  20 2.41
 129  0.234  0.409  0.370-  30 1.45  53 1.46
 130  0.425  0.586  0.165-  43 1.62   3 2.22  19 2.25   2 2.39
 131  0.657  0.658  0.591-  47 1.70  15 2.00   8 2.23
 132  0.320  0.160  0.128-  54 1.51  11 2.30
 133  0.711  0.321  0.349-  31 1.72   6 2.54
 134  0.322  0.819  0.616-  29 1.69  41 1.95
 135  0.639  0.700  0.269-  33 1.83

IMPORTANT INFORMATION: All symmetrisations will be switched off!
NOSYMM: (Re-)initialisation of all symmetry stuff for point group C_1.

Automatic generation of k-mesh.
 generate k-points for:    2    2    2
Space group operators:
 irot       det(A)        alpha          n_x          n_y          n_z        tau_x        tau_y        tau_z
    1     1.000000     0.000000     1.000000     0.000000     0.000000     0.000000     0.000000     0.000000

 Subroutine IBZKPT returns following result:

 Found      8 irreducible k-points:

 Following reciprocal coordinates:
            Coordinates               Weight
  0.000000  0.000000  0.000000      1.000000
  0.500000  0.000000  0.000000      1.000000
  0.000000  0.500000  0.000000      1.000000
  0.500000  0.500000  0.000000      1.000000
  0.000000  0.000000  0.500000      1.000000
  0.500000  0.000000  0.500000      1.000000
  0.000000  0.500000  0.500000      1.000000
  0.500000  0.500000  0.500000      1.000000

 Following cartesian coordinates:
            Coordinates               Weight
  0.000000  0.000000  0.000000      1.000000
  0.038669  0.000000  0.000000      1.000000
  0.000000  0.038669  0.000000      1.000000
  0.038669  0.038669  0.000000      1.000000
  0.000000  0.000000  0.038669      1.000000
  0.038669  0.000000  0.038669      1.000000
  0.000000  0.038669  0.038669      1.000000
  0.038669  0.038669  0.038669      1.000000

 SYSTEM =  unknown system
 POSCAR =  Ca Si  O

 Startparameter for this run:
   NWRITE =      2    write-flag & timer
   PREC   = a         normal or accurate (medium, high low for compatibility)
   ISTART =      0    job   : 0-new  1-cont  2-samecut
   ICHARG =      2    charge: 1-file 2-atom 10-const
   ISPIN  =      1    spin polarized calculation?
   LNONCOLLINEAR =      F non collinear calculations
   LSORBIT =      F    spin-orbit coupling
   INIWAV =      1    electr: 0-lowe 1-rand  2-diag
   LASPH  =      F    aspherical Exc in radial PAW
   METAGGA=      F    non-selfconsistent MetaGGA calc.

 Electronic Relaxation 1
   ENCUT  =  600.0 eV  44.10 Ry    6.64 a.u.  25.83 25.83 25.83*2*pi/ulx,y,z
   ENINI  =  600.0     initial cutoff
   ENAUG  =  605.4 eV  augmentation charge cutoff
   NELM   =     60;   NELMIN=  2; NELMDL= -5     # of ELM steps
   EDIFF  = 0.1E-05   stopping-criterion for ELM
   LREAL  =      T    real-space projection
   NLSPLINE    = F    spline interpolate recip. space projectors
   LCOMPAT=      F    compatible to vasp.4.4
   GGA_COMPAT  = T    GGA compatible to vasp.4.4-vasp.4.6
   LMAXPAW     = -100 max onsite density
   LMAXMIX     =    2 max onsite mixed and CHGCAR
   VOSKOWN=      0    Vosko Wilk Nusair interpolation
   ROPT   =   -0.00025  -0.00025  -0.00025
 Ionic relaxation
   EDIFFG = -.1E-01   stopping-criterion for IOM
   NSW    =      1    number of steps for IOM
   NBLOCK =      1;   KBLOCK =      1    inner block; outer block
   IBRION =     -1    ionic relax: 0-MD 1-quasi-New 2-CG
[...]
     0.000000000  0.000000000 12.930412990     0.000000000  0.000000000  0.077337050

  length of vectors
    12.930412990 12.930412990 12.930412990     0.077337050  0.077337050  0.077337050

 FORCES acting on ions
    electron-ion (+dipol)            ewald-force                    non-local-force                 convergence-correction
   -.257E+03 -.667E+02 -.605E+02   0.252E+03 0.695E+02 0.612E+02   0.589E+01 0.161E+00 -.904E-01   0.375E-03 -.426E-03 -.334E-03
   -.206E+03 0.717E+02 0.743E+02   0.206E+03 -.670E+02 -.736E+02   -.621E+00 -.480E+01 -.145E+01   0.113E-02 -.572E-03 -.849E-03
   0.280E+02 -.937E+01 -.144E+03   -.263E+02 0.789E+01 0.145E+03   -.177E+01 0.104E+01 0.443E+00   0.907E-04 0.450E-03 -.238E-03
   0.144E+03 0.172E+03 -.159E+03   -.146E+03 -.172E+03 0.159E+03   0.190E+01 -.398E+00 -.506E+00   -.146E-02 -.144E-02 0.113E-03
   0.355E+00 0.178E+03 0.126E+03   0.141E+01 -.175E+03 -.125E+03   -.760E+00 -.363E+01 -.220E+01   -.174E-02 0.900E-03 0.989E-04
   -.210E+02 0.617E+02 -.155E+02   0.240E+02 -.593E+02 0.121E+02   -.297E+01 -.256E+01 0.173E+01   0.129E-02 0.102E-02 0.581E-03
   0.959E+02 0.235E+02 -.402E+02   -.972E+02 -.295E+02 0.393E+02   -.520E+00 0.372E+01 0.461E+00   0.894E-03 -.581E-04 -.324E-03
   -.169E+02 -.159E+02 0.501E+01   0.210E+02 0.140E+02 -.412E+01   -.363E+01 0.125E+01 -.636E+00   0.437E-03 -.177E-02 0.134E-03
   0.747E+02 0.704E+02 0.192E+03   -.770E+02 -.696E+02 -.192E+03   0.322E+01 -.998E-01 -.136E+01   -.110E-02 -.125E-02 -.531E-04
   -.299E+02 -.304E+03 0.127E+03   0.332E+02 0.303E+03 -.124E+03   -.171E+01 0.256E+01 -.364E+01   -.900E-03 0.105E-02 0.998E-03
   0.677E+02 -.553E+00 0.694E+02   -.653E+02 0.131E+01 -.705E+02   -.210E+01 -.629E+00 0.874E+00   -.525E-03 -.918E-03 0.568E-04
   -.176E+02 -.583E+02 0.577E+01   0.166E+02 0.595E+02 -.161E+01   0.110E+01 0.890E+00 -.225E+01   -.599E-03 -.720E-04 0.169E-03
   -.933E+02 -.196E+03 -.618E+02   0.950E+02 0.198E+03 0.593E+02   -.129E+01 0.192E+01 0.129E+01   0.179E-02 0.525E-03 0.109E-02
   -.851E+01 0.819E+02 0.108E+03   0.109E+02 -.832E+02 -.108E+03   0.519E-01 0.135E+01 0.138E+00   -.327E-03 -.119E-02 -.692E-03
   -.224E+03 -.694E+01 0.152E+03   0.219E+03 0.718E+01 -.151E+03   0.402E+01 0.119E+01 -.387E+01   0.851E-03 -.101E-02 0.376E-03
   0.114E+03 0.244E+02 -.305E+02   -.109E+03 -.251E+02 0.333E+02   -.440E+01 0.949E+00 -.206E+01   -.165E-02 -.146E-03 0.488E-03
   0.104E+03 -.590E+02 0.154E+03   -.995E+02 0.569E+02 -.150E+03   -.740E+01 0.249E+01 -.476E+01   0.217E-02 0.861E-04 -.165E-03
   0.602E+02 0.118E+03 -.194E+03   -.583E+02 -.116E+03 0.192E+03   -.186E+01 -.289E+01 0.321E+01   -.311E-03 0.570E-03 -.545E-03
   -.292E+03 0.105E+02 0.515E+02   0.285E+03 -.115E+02 -.495E+02   0.669E+01 0.413E+00 -.205E+01   0.688E-03 0.136E-03 -.569E-03
   0.838E+02 -.324E+02 0.194E+02   -.819E+02 0.358E+02 -.178E+02   -.208E+01 -.276E+01 -.137E+01   -.165E-02 0.815E-03 -.362E-03
   0.840E+02 0.104E+03 0.112E+03   -.893E+02 -.101E+03 -.114E+03   0.341E+01 -.381E+01 0.779E+00   -.264E-03 0.601E-03 -.674E-03
   0.348E+01 -.878E+02 0.957E+02   -.433E+01 0.896E+02 -.918E+02   0.101E+01 -.177E+01 -.321E+01   -.255E-03 0.185E-02 0.411E-04
   0.216E+03 -.861E+02 -.532E+02   -.213E+03 0.854E+02 0.537E+02   -.320E+01 0.141E+01 -.108E+01   -.953E-03 -.406E-04 0.747E-04
   0.899E+02 -.211E+02 0.155E+03   -.896E+02 0.211E+02 -.152E+03   -.109E+01 0.559E+00 -.304E+01   0.127E-03 -.785E-03 0.638E-03
   0.106E+02 0.889E+01 -.380E+02   -.113E+02 -.132E+02 0.387E+02   -.258E+01 0.145E+01 0.184E+01   0.792E-03 -.116E-02 0.377E-03
   0.133E+03 -.590E+02 0.707E+01   -.134E+03 0.574E+02 -.797E+01   -.183E-01 0.313E+01 0.114E+01   -.946E-04 0.568E-03 -.291E-03
   -.234E+03 0.820E+02 -.120E+03   0.232E+03 -.826E+02 0.120E+03   0.351E+01 -.556E+00 0.319E+01   0.135E-02 0.435E-03 -.341E-03
   -.931E+02 0.423E+02 -.675E+02   0.834E+02 -.364E+02 0.552E+02   0.839E+01 -.351E+01 0.959E+01   0.369E-03 0.181E-03 -.814E-05
   -.151E+02 0.598E+02 -.869E+01   0.117E+02 -.575E+02 0.934E+00   0.396E+01 -.321E+00 0.573E+01   0.360E-04 -.441E-03 -.575E-04
   0.112E+03 0.243E+02 -.202E+02   -.113E+03 -.169E+02 0.179E+02   -.118E+02 -.119E+02 0.293E+01   -.201E-03 0.369E-03 0.741E-04
   0.467E+01 0.385E+02 -.710E+02   -.101E+02 -.331E+02 0.635E+02   0.107E+01 -.305E+01 0.321E+01   -.328E-03 -.940E-04 -.141E-03
   0.410E+02 -.495E+02 0.798E+01   -.394E+02 0.392E+02 -.445E+01   -.360E+01 0.819E+01 -.421E+01   -.257E-03 0.399E-03 0.189E-03
   0.141E+02 0.258E+02 -.113E+03   -.795E+01 -.269E+02 0.989E+02   -.547E+01 0.128E+01 0.105E+02   0.338E-03 0.107E-04 -.279E-03
   -.167E+01 -.250E+02 0.940E+02   -.421E+01 0.257E+02 -.897E+02   0.822E+01 0.161E+00 -.698E+01   0.436E-03 -.107E-03 -.124E-03
   0.450E+02 0.585E+02 0.612E+02   -.490E+02 -.514E+02 -.556E+02   0.489E+01 -.122E+02 -.544E+01   -.426E-03 -.589E-03 -.678E-04
   0.109E+03 -.461E+02 -.654E+02   -.101E+03 0.405E+02 0.560E+02   -.925E+01 0.843E+01 0.140E+02   -.641E-03 -.267E-03 -.365E-04
   0.982E+02 0.944E+02 -.995E+02   -.933E+02 -.905E+02 0.102E+03   -.555E+01 -.832E+01 -.562E-03   -.428E-03 0.112E-03 0.321E-03
   0.526E+02 0.126E+02 0.504E+02   -.478E+02 -.754E+01 -.456E+02   -.638E+01 -.662E+01 -.891E+01   -.123E-03 -.283E-03 -.104E-04
   0.146E+02 -.129E+03 -.156E+02   -.916E+01 0.129E+03 0.127E+02   -.635E+01 0.478E+01 0.146E+01   -.547E-03 0.842E-03 0.219E-04
   0.438E+02 -.566E+02 -.269E+02   -.395E+02 0.553E+02 0.287E+02   -.449E+01 0.119E+01 -.717E+01   0.551E-03 0.111E-03 0.336E-03
   -.940E+01 -.146E+02 -.558E+02   0.146E+02 0.884E+01 0.530E+02   -.232E+01 0.556E+01 0.597E+01   0.159E-03 -.346E-03 0.144E-03
   -.101E+02 0.821E+02 -.346E+02   0.931E+01 -.743E+02 0.280E+02   0.423E+00 -.916E+01 0.108E+02   -.396E-03 0.185E-03 0.394E-03
   -.108E+02 0.711E+02 0.592E+02   0.193E+02 -.717E+02 -.540E+02   -.515E+01 -.422E+00 -.742E+01   0.613E-03 0.142E-03 -.522E-03
   -.166E+02 0.452E+02 -.107E+02   0.841E+01 -.415E+02 0.135E+02   0.420E+01 -.245E+01 -.371E+01   -.464E-03 0.166E-03 0.113E-03
   0.434E+02 -.408E+02 -.561E+02   -.345E+02 0.377E+02 0.534E+02   -.164E+02 0.458E+01 0.104E+02   -.659E-03 0.591E-04 -.271E-03
   0.667E+02 -.402E+02 -.485E+01   -.565E+02 0.315E+02 0.190E+02   -.134E+02 0.126E+02 -.107E+02   0.303E-03 0.573E-03 0.220E-03
   -.672E+02 -.776E+02 0.479E+01   0.624E+02 0.731E+02 -.610E+01   0.807E+01 0.380E+01 -.529E+00   0.306E-03 0.650E-04 0.507E-03
   -.823E+02 0.228E+02 -.130E+02   0.793E+02 -.262E+02 0.109E+02   0.145E+02 0.509E+01 0.447E+00   0.304E-03 -.403E-03 -.239E-03
   0.116E+01 0.869E+01 -.705E+02   -.189E+02 -.582E+01 0.681E+02   0.174E+02 -.525E+01 0.619E+01   -.615E-03 -.460E-03 -.666E-04
   -.354E+02 0.997E+00 0.182E+02   0.383E+02 -.406E+01 -.191E+02   -.115E+01 0.798E+01 0.352E+00   0.613E-03 -.101E-03 -.274E-03
   -.906E+02 0.305E+01 -.234E+02   0.805E+02 -.806E+01 0.290E+02   0.478E+01 0.921E+01 -.365E+01   0.584E-05 -.208E-03 0.451E-03
   0.507E+02 0.284E+02 0.590E+02   -.440E+02 -.276E+02 -.576E+02   -.218E+01 -.579E+01 -.452E+01   -.398E-03 -.581E-04 -.358E-03
   -.228E+02 0.605E+02 0.328E+02   0.292E+02 -.467E+02 -.361E+02   0.595E+01 -.179E+02 0.171E+01   0.398E-03 0.328E-03 0.203E-04
   -.520E+02 0.132E+02 0.595E+02   0.483E+02 -.136E+02 -.648E+02   0.606E+01 0.318E+00 0.993E+01   0.642E-03 -.918E-04 -.249E-03
   -.116E+03 -.320E+02 -.450E+02   0.144E+03 0.272E+02 0.451E+02   -.268E+02 0.471E+01 -.682E+01   0.517E-03 0.701E-03 0.213E-03
   -.131E+02 -.194E+02 0.526E+01   0.261E+02 0.402E+02 -.161E+02   -.127E+02 -.206E+02 0.119E+02   -.111E-02 0.507E-03 0.731E-03
   0.177E+02 -.267E+02 0.163E+03   -.626E+01 0.391E+02 -.177E+03   -.133E+02 -.116E+02 0.148E+02   -.480E-03 -.562E-03 -.352E-03
   -.943E+02 -.229E+02 0.623E+02   0.115E+03 0.164E+02 -.661E+02   -.207E+02 0.569E+01 0.307E+01   0.173E-03 -.293E-03 -.183E-03
   0.104E+03 0.101E+02 0.735E+02   -.115E+03 -.310E+01 -.982E+02   0.110E+02 -.810E+01 0.262E+02   -.208E-04 -.637E-03 -.651E-04
   -.832E+02 0.158E+02 -.307E+02   0.933E+02 -.598E+01 0.328E+02   -.961E+01 -.103E+02 -.198E+01   0.298E-03 -.234E-03 -.131E-05
[...]
   0.106E+03 0.132E+03 -.470E+02   -.110E+03 -.147E+03 0.296E+02   0.407E+01 0.169E+02 0.190E+02   -.414E-03 0.696E-03 0.804E-04
   0.326E+02 -.381E+02 0.110E+03   -.362E+02 0.653E+02 -.102E+03   0.353E+01 -.244E+02 -.701E+01   0.449E-03 -.709E-03 -.584E-04
   0.715E+02 -.140E+03 -.530E+02   -.898E+02 0.146E+03 0.576E+02   0.202E+02 -.267E+01 -.337E+01   0.443E-03 0.814E-03 0.420E-03
   0.261E+02 0.937E+02 -.796E+02   -.204E+02 -.113E+03 0.946E+02   -.666E+01 0.227E+02 -.178E+02   -.499E-03 0.795E-04 -.171E-03
   -.840E+02 -.989E+02 0.624E+02   0.723E+02 0.925E+02 -.836E+02   0.144E+02 0.769E+01 0.224E+02   0.406E-03 0.142E-03 0.635E-03
   -.515E+02 -.381E+01 0.134E+03   0.544E+02 0.101E+02 -.157E+03   -.415E+01 -.654E+01 0.260E+02   0.829E-03 -.294E-03 -.116E-02
   0.725E+02 -.255E+02 0.797E+02   -.771E+02 0.208E+02 -.930E+02   0.455E+01 0.546E+01 0.163E+02   -.327E-03 -.344E-03 -.409E-03
   0.458E+02 -.130E+03 0.233E+02   -.520E+02 0.170E+03 -.348E+02   0.862E+01 -.345E+02 0.859E+01   0.219E-03 0.340E-03 0.160E-03
   -.135E+03 -.664E+02 -.263E+02   0.145E+03 0.792E+02 0.430E+02   -.976E+01 -.958E+01 -.164E+02   0.553E-03 -.156E-03 -.752E-03
   -.130E+03 -.266E+02 -.233E+02   0.143E+03 0.387E+02 0.293E+02   -.138E+02 -.140E+02 -.561E+01   0.665E-03 -.681E-03 0.370E-03
   -.731E+02 -.420E+02 0.150E+03   0.544E+02 0.479E+02 -.174E+03   0.152E+02 -.578E+01 0.201E+02   0.859E-03 -.144E-03 -.161E-03
   0.216E+02 -.815E+02 0.703E+02   -.346E+02 0.986E+02 -.708E+02   0.142E+02 -.185E+02 0.133E+01   0.122E-03 -.968E-04 -.425E-04
   -.210E+01 0.129E+03 -.116E+03   0.359E+01 -.151E+03 0.132E+03   -.201E+01 0.229E+02 -.184E+02   0.633E-04 -.810E-03 -.836E-05
   -.518E+02 0.142E+02 -.771E+02   0.515E+02 -.309E+02 0.826E+02   0.176E+00 0.202E+02 -.570E+01   0.494E-03 0.561E-04 -.270E-03
   0.571E+02 0.751E+02 -.446E+02   0.199E-12 0.426E-13 -.512E-12   -.571E+02 -.751E+02 0.446E+02   -.118E-02 -.150E-02 -.145E-02

 POSITION                                       TOTAL-FORCE (eV/Angst)
      4.75001     11.14704      3.66580         1.205933      3.009161      0.607296
      6.05849      9.40713      0.71337        -0.218603     -0.155391     -0.717047
      3.60902      7.83858      3.27960        -0.051296     -0.430474      1.884114
      1.48529     10.51230      6.98717         0.093091      0.362826     -0.701673
     12.58751      3.17039      7.75313         0.999460     -0.451652     -1.066343
      7.54287      4.32516      6.42869         0.064008     -0.112032     -1.678840
      4.66122      1.94980      6.06189        -1.769016     -2.203320     -0.435928
      9.09042      8.43600      9.78638         0.467096     -0.626582      0.246888
      0.91030     10.76828     11.61150         0.872040      0.716069     -0.456063
     11.14634      5.80369      5.89386         1.561540      1.487075     -0.503581
      2.13367      0.94949      1.83998         0.345523      0.126828     -0.265081
     10.41230      0.39167      1.57936         0.030168      2.063900      1.908873
      4.66252      1.35030     10.19163         0.448139      3.180699     -1.167465
     11.35088     12.43883      7.76381         2.401234      0.042558      0.331618
      8.38126      9.98747      6.29378        -0.852412      1.428194     -3.148476
     12.70019      1.80800     11.13525         0.560474      0.185034      0.706842
      6.25263      4.83556     11.70659        -2.861371      0.408561     -0.463398
     10.43716      7.50784      2.85840         0.070866     -1.221113      0.789852
      7.14167      6.64688      3.36417        -0.160023     -0.601887     -0.078164
     10.79317      5.70695     11.97394        -0.257756      0.715584      0.301137
      1.84817      7.69115      0.57516        -1.884794     -0.752108     -1.121738
      2.16689      5.26656     10.17396         0.161757      0.076327      0.732554
     12.61183      9.90007      2.54343        -0.102703      0.688299     -0.598579
      9.94141     10.78880     12.89254        -0.802020      0.551568     -0.068120
      4.27048     11.66217     11.71345        -3.260839     -2.842683      2.481390
      1.71557      4.57252      1.77188        -0.424664      1.525748      0.236316
      7.31961      1.13155      7.23743         1.746959     -1.199682      2.789142
      2.90748      3.03931     12.36333        -1.267759      2.307181     -2.741495
      4.03102     12.27974      7.91545         0.501761      2.015473     -2.023527
      1.87288      4.60764      5.35364       -13.559928     -4.512136      0.683152
     10.16438      2.77009      4.13570        -4.394310      2.362916     -4.342657
      9.69706      4.45705      8.14807        -1.925599     -2.148298     -0.679252
      8.23489     10.76300      2.85344         0.658301      0.223781     -3.473570
      3.95369      7.94895     11.32071         2.348319      0.864630     -2.682584
      1.46099     12.92998      9.27502         0.947468     -4.987838      0.119456
      0.48918      2.48730      3.98523        -1.491103      2.901205      4.515787
      1.03126      8.85996      4.60252        -0.690085     -4.398494      2.785305
      2.77984     11.13471      1.62528        -1.634880     -1.588086     -4.082376
     12.22118      5.15084      9.59699        -0.884384      5.035392     -1.381463
      4.81387      7.29548      8.49711        -0.196842     -0.061813     -5.348562
      4.65051      9.77987      6.25937         2.879216     -0.249806      3.094032
      9.78761      1.04934     10.75017        -0.336683     -1.369338      4.206211
      5.00869      6.54767      0.98439         3.323816     -1.008469     -2.295870
      8.34291      3.25109     12.10823        -4.026922      1.227850     -0.925794
     10.23588      3.95497      1.05167        -7.443878      1.491070      7.666407
      3.59792      4.63002      7.31032        -3.219968      3.932545      3.415865
      7.63571      7.10266      7.21647         3.289242     -0.609746     -1.840402
      8.92324     11.53012      8.92870        11.573562      1.713647     -1.621749
      0.35295     12.51025      4.41259        -0.345653     -2.374033      3.712883
      7.26796      0.96188      3.87552         1.719154      4.917688     -0.570445
      7.23346     11.69919     10.75524        -5.353097      4.208900      1.914712
     11.28106      8.48146     12.83421         4.606106     -4.950701     -3.167871
      4.33207      4.68176      4.59288        12.374874     -4.151731     -1.579372
      5.17448      1.88081      2.73324         2.376516     -0.071331      4.576936
      4.84257      4.30949      6.40536         1.283388     -0.058849     -6.741525
      9.51179      2.55664     11.18772         0.336446      0.238515      0.978158
     12.12803      9.69431     12.12798        -1.844679      0.844631      1.285114
      4.32674     10.58616      1.61162        -0.048349     -0.844664     -0.798398
      3.39821     12.75089      6.44557        -0.090544     -1.057047      1.534697
      5.28635      0.57057      7.97247         0.438847     -0.527665      0.135914
[...]
      1.11707      1.04149      3.97195         0.029747     -5.830814      1.934069
      1.12916      8.02896      3.11362         0.930020      1.323532      1.584246
      3.84125      9.43054     11.75094        -0.066971      2.830473      1.075097
      3.61172      6.09257      8.14672         1.956001      2.848362      1.319926
      1.60678      2.78330      5.55387        -0.961149      3.508888     -2.752263
      7.27287      6.48970      5.70483         2.612667      1.317280      1.181482
      9.27374     11.84606      7.25637        -1.272405     -0.286556      3.073669
     10.27034      8.00394     11.45921        -0.069332      0.770118      3.023241
      3.01963      5.28629      4.78762         2.377259      5.767064     -2.889386
      5.49523      7.57355      2.13701        -0.077277      3.187680      0.406041
      8.49620      8.51005      7.64149        -1.332868     -1.907860      0.474222
      4.13638      2.06679      1.65341        -3.567765      0.084806     -3.921466
      9.19918      4.14856      4.51299         1.115382     -1.368329      0.759034
      4.16685     10.59565      7.95994        -0.519274      0.718944     -2.019867
      8.25683      9.04895      3.48313        -0.119670      3.504723     -0.229477
    total drift:                                0.011589      0.008851      0.002914

  FREE ENERGIE OF THE ION-ELECTRON SYSTEM (eV)
  free  energy   TOTEN  =      -917.99798045 eV

  energy  without entropy=     -917.97693907  energy(sigma->0) =     -917.98745976