 vasp.5.4.4.18Apr17-6-g9f103f2a35 (build Oct 31 2019 15:01:46) complex

 executed on             LinuxIFC date 2024.04.30  00:02:12

 INCAR:
 POTCAR:    PAW_PBE Ca_sv 06Sep2000
 POTCAR:    PAW_PBE Si 05Jan2001
 POTCAR:    PAW_PBE O 08Apr2002
 POTCAR:    PAW_PBE Ca_sv 06Sep2000
   VRHFIN =Ca: 3s3p4s

   TITEL  = PAW_PBE Ca_sv 06Sep2000
   POMASS =   40.078; ZVAL   =   10.000    mass and valenz
   ENMAX  =  266.622; ENMIN  =  199.967 eV

   TITEL  = PAW_PBE Si 05Jan2001
   POMASS =   28.085; ZVAL   =    4.000    mass and valenz
   ENMAX  =  245.345; ENMIN  =  184.009 eV

   TITEL  = PAW_PBE O 08Apr2002
   POMASS =   16.000; ZVAL   =    6.000    mass and valenz
   ENMAX  =  400.000; ENMIN  =  300.000 eV

 Optimization of the real space projectors (new method)

 maximal supplied QI-value         = 16.25
 optimisation between [QCUT,QGAM] = [ 12.51, 25.03] = [ 43.85,175.40] Ry
 Optimized for a Real-space Cutoff    1.47 Angstroem

   l    n(q)    QCUT    max X(q) W(low)/X(q) W(high)/X(q)  e(spline)
   0     11    12.514    11.817    0.25E-04    0.32E-05    0.87E-07
   0     11    12.514     8.461    0.39E-04    0.59E-05    0.18E-06
   1     11    12.514     3.957    0.97E-05    0.57E-05    0.28E-07
   1     11    12.514     4.314    0.42E-04    0.14E-04    0.23E-06
   2     10    12.514    14.565    0.79E-04    0.50E-03    0.16E-05
   2     10    12.514    14.552    0.75E-04    0.48E-03    0.15E-05
 Optimization of the real space projectors (new method)

[...]

   l    n(q)    QCUT    max X(q) W(low)/X(q) W(high)/X(q)  e(spline)
   0      9    12.501   159.560    0.10E-03    0.83E-04    0.71E-07
   0      9    12.501   115.863    0.99E-04    0.81E-04    0.70E-07
   1      8    12.501    88.339    0.20E-03    0.25E-03    0.76E-07
   1      8    12.501    48.592    0.20E-03    0.24E-03    0.75E-07
 Optimization of the real space projectors (new method)

 maximal supplied QI-value         = 24.76
 optimisation between [QCUT,QGAM] = [ 12.38, 25.00] = [ 42.90,175.06] Ry
 Optimized for a Real-space Cutoff    1.16 Angstroem

   l    n(q)    QCUT    max X(q) W(low)/X(q) W(high)/X(q)  e(spline)
   0      9    12.378    20.381    0.16E-03    0.67E-05    0.31E-06
   0      9    12.378    15.268    0.17E-03    0.81E-05    0.33E-06
   1      8    12.378     5.964    0.20E-03    0.16E-03    0.30E-06
   1      8    12.378     5.382    0.18E-03    0.14E-03    0.26E-06
  PAW_PBE Ca_sv 06Sep2000               :
  PAW_PBE Si 05Jan2001                  :
  PAW_PBE O 08Apr2002                   :

 POSCAR: Ca Si  O
  positions in direct lattice
 exchange correlation table for  LEXCH =        8
   RHO(1)=    0.500       N(1)  =     2000
   RHO(2)=  100.500       N(2)  =     4000

 ion  position               nearest neighbor table
   1  0.096  0.522  0.056-  74 1.93 108 2.48  50 2.91   6 2.93  21 3.06  10 3.12   2 3.16
   2  0.324  0.572  0.172-  74 1.85 100 2.23 113 2.28 121 2.43   1 3.16
   3  0.273  0.836  0.007-  70 2.19 104 2.19  67 2.39 118 2.52  82 2.53  40 3.04
   4  0.056  0.613  0.661- 130 2.02  90 2.02 129 2.33  89 2.43  86 2.50  10 2.96  53 2.99
   5  0.308  0.606  0.487- 121 2.07 131 2.16  68 2.26 130 2.26 111 2.34  41 3.08  25 3.16
   6  0.901  0.570  0.920-  90 2.21 108 2.25 129 2.44  99 2.54   1 2.93  22 3.03
   7  0.075  0.203  0.116- 128 2.27  60 2.28 134 2.31 115 2.45  13 2.95
   8  0.780  0.778  0.141- 105 1.93 103 2.06  79 2.32  77 2.34  31 2.85  50 3.04
   9  0.906  0.784  0.454-  81 2.02 125 2.31  93 2.33  62 2.35  33 2.62
  10  0.219  0.605  0.844-  70 2.09  97 2.14  87 2.40  90 2.51   4 2.96  40 3.11   1 3.12  41 3.14

  11  0.939  0.937  0.991- 118 2.15 133 2.32 115 2.36  60 2.39  29 3.14
  12  0.562  0.511  0.948- 127 1.82  92 2.14 106 2.26  45 2.64  34 2.85  46 2.95
  13  0.291  0.100  0.066-  82 1.96  72 2.31  60 2.42 109 2.53   7 2.95  35 3.07  51 3.07
  14  0.248  0.345  0.377-  75 2.20  37 2.25 116 2.39  91 2.42 121 2.51
  15  0.836  0.035  0.549-  62 1.78  57 2.54  63 2.55  33 2.92
  16  0.539  0.401  0.400- 102 2.12 121 2.49  52 2.86  18 3.12
  17  0.480  0.881  0.728-  67 2.07 119 2.24  66 2.41  96 2.41  45 2.76
  18  0.566  0.645  0.320- 100 2.15 101 2.23 135 2.26  31 3.01  36 3.06  16 3.12
  19  0.593  0.110  0.471-  57 2.20  80 2.39  96 2.47  20 2.76  39 2.89  30 3.00
  20  0.711  0.168  0.285-  65 1.89  57 2.15  80 2.19  63 2.30  64 2.35 107 2.49  19 2.76  44 2.88
                            47 3.02  51 3.03
  21  0.096  0.714  0.221-  74 2.08  79 2.21  50 2.85   1 3.06
  22  0.747  0.709  0.779- 114 2.15 129 2.39  66 2.49 122 2.50   6 3.03  29 3.03
  23  0.844  0.216  0.894-  99 2.11  95 2.16  85 2.25 134 2.25  48 3.07
  24  0.541  0.343  0.745- 124 2.32 102 2.42  92 2.48  41 2.62
  25  0.293  0.863  0.533-  55 1.93 119 2.14  89 2.15  33 3.03  49 3.05  40 3.07   5 3.16
  26  0.106  0.124  0.728-  78 2.06  85 2.13 132 2.51
  27  0.128  0.995  0.285- 128 2.05 117 2.32  44 2.98  33 3.09
  28  0.534  0.967  0.100-  73 1.59  82 1.62 126 1.87 105 2.09  71 2.39  51 3.00  46 3.00  31 3.07
                            54 3.14
  29  0.952  0.851  0.746- 133 1.63 125 1.70 129 1.74  69 1.75  40 2.98  22 3.03  33 3.14  11 3.14

  30  0.379  0.139  0.593-  96 1.56  98 1.63  76 1.70  84 1.71  35 2.88  19 3.00  39 3.04
  31  0.649  0.879  0.309-  93 1.75 105 1.76 101 1.86  57 2.02   8 2.85  36 2.98  18 3.01  28 3.07

[...]

  33  0.052  0.930  0.521-  55 1.52  62 1.62  78 1.66 125 1.69   9 2.62  15 2.92  25 3.03  27 3.09
                            29 3.14
  34  0.666  0.384  0.117- 107 1.61 127 1.70  65 2.03 135 2.26  43 2.30 120 2.45  12 2.85  51 2.90

[...]

  51  0.505  0.208  0.148- 120 1.60  59 1.65  65 1.72 126 1.97  34 2.90  28 3.00  20 3.03  39 3.06
                            13 3.07
  52  0.722  0.335  0.535-  88 1.47  80 1.50 102 1.50  58 2.18  38 2.61  48 2.71  16 2.86
  53  0.083  0.378  0.587-  86 1.45  91 1.59 132 1.62 130 2.30  32 2.57   4 2.99  37 3.10  48 3.13

  54  0.608  0.102  0.892-  95 1.42 110 1.52 126 1.86  71 1.94  35 2.88  28 3.14
  55  0.149  0.873  0.465-  33 1.52  25 1.93
  56  0.510  0.749  0.508-  36 1.67
  57  0.717  0.016  0.377-  31 2.02  20 2.15  19 2.20  44 2.46  15 2.54
  58  0.771  0.284  0.701-  48 1.61  52 2.18
  59  0.499  0.128  0.258-  51 1.65  39 1.71
  60  0.105  0.032  0.042- 118 1.63   7 2.28  11 2.39  13 2.42
  61  0.647  0.621  0.556-  38 1.55  36 1.78
  62  0.939  0.975  0.463-  33 1.62  15 1.78   9 2.35
  63  0.878  0.110  0.356-  47 1.56  44 1.73  20 2.30  15 2.55
  64  0.788  0.032  0.170-  44 1.61 115 1.93  20 2.35
  65  0.608  0.270  0.225-  51 1.72  20 1.89  34 2.03
  66  0.660  0.845  0.652-  36 1.80  17 2.41  22 2.49
  67  0.381  0.804  0.845-  45 1.83  17 2.07   3 2.39  40 2.48
  68  0.318  0.733  0.351-  49 1.49   5 2.26
  69  0.058  0.926  0.809-  29 1.75  40 1.99
  70  0.172  0.768  0.874-  40 1.64  10 2.09   3 2.19
  71  0.685  0.989  0.975-  54 1.94  28 2.39
  72  0.283  0.071  0.877-  35 1.52  13 2.31
  73  0.578  0.848  0.066-  28 1.59  46 1.63 105 1.81
  74  0.199  0.632  0.108-   2 1.85   1 1.93  21 2.08
  75  0.182  0.414  0.222-  37 1.86  14 2.20
  76  0.326  0.071  0.482-  30 1.70  39 1.87
  77  0.786  0.618  0.250-  50 1.72   8 2.34
  78  0.084  0.052  0.576-  33 1.66  26 2.06
  79  0.944  0.679  0.127-  50 1.63  21 2.21   8 2.32
  80  0.731  0.249  0.446-  52 1.50  20 2.19  19 2.39
  81  0.872  0.650  0.549-  38 1.98   9 2.02
  82  0.401  0.982  0.084-  28 1.62  13 1.96   3 2.53
  83  0.945  0.218  0.494-  47 1.59
  84  0.442  0.253  0.537-  30 1.71
  85  0.015  0.240  0.825-  32 1.71  26 2.13  23 2.25
  86  0.981  0.423  0.632-  53 1.45  48 1.84  32 2.20   4 2.50
  87  0.189  0.411  0.873-  42 1.93  32 2.03  10 2.40
  88  0.798  0.426  0.508-  52 1.47  38 1.76  48 2.54
  89  0.200  0.751  0.636-  40 1.98  25 2.15   4 2.43
  90  0.033  0.525  0.801-  32 1.81   4 2.02   6 2.21  10 2.51
  91  0.070  0.391  0.457-  53 1.59  37 1.67  14 2.42
  92  0.540  0.546  0.776-  41 1.84  45 2.08  12 2.14  24 2.48
  93  0.720  0.803  0.409-  36 1.74  31 1.75   9 2.33
  94  0.386  0.968  0.353-  39 1.60  49 1.81
  95  0.671  0.194  0.853-  54 1.42  23 2.16
  96  0.463  0.043  0.613-  30 1.56  17 2.41  19 2.47
  97  0.361  0.631  0.742-  41 1.65  45 2.07  10 2.14
  98  0.341  0.188  0.712-  30 1.63  35 1.64
  99  0.875  0.378  0.838-  48 1.61  32 2.10  23 2.11   6 2.54
 100  0.454  0.702  0.195-  46 1.83  18 2.15   2 2.23  49 2.27
 101  0.509  0.820  0.330-  49 1.85  31 1.86  18 2.23
 102  0.599  0.343  0.554-  52 1.50  16 2.12  24 2.42
 103  0.651  0.695  0.066-  46 1.44   8 2.06
 104  0.302  0.839  0.186-  49 1.47   3 2.19
 105  0.677  0.897  0.168-  31 1.76  73 1.81   8 1.93  28 2.09
 106  0.435  0.647  0.964-  45 1.54  46 1.97  12 2.26
 107  0.752  0.281  0.118-  43 1.51  34 1.61  20 2.49
 108  0.896  0.492  0.089-  50 1.65  43 1.85   6 2.25   1 2.48
 109  0.370  0.240  0.932-  42 1.75  35 1.76  13 2.53
 110  0.509  0.108  0.813-  54 1.52  35 1.61
 111  0.148  0.581  0.382-  37 1.52   5 2.34
 112  0.015  0.520  0.266-  50 1.63  37 1.65
 113  0.322  0.471  0.013-  42 1.43   2 2.28
[...]
 121  0.371  0.512  0.358-   5 2.07   2 2.43  16 2.49  14 2.51
 122  0.802  0.522  0.710-  48 1.74  38 1.78  22 2.50
 123  0.872  0.322  0.278-  47 1.80  43 1.83
 124  0.392  0.439  0.819-  41 1.72  42 1.79  24 2.32
 125  0.997  0.841  0.613-  33 1.69  29 1.70   9 2.31
 126  0.534  0.103  0.027-  54 1.86  28 1.87  51 1.97
 127  0.690  0.447  0.994-  34 1.70  12 1.82
 128  0.058  0.149  0.295-  47 1.84  27 2.05   7 2.27
 129  0.945  0.712  0.784-  29 1.74   4 2.33  22 2.39   6 2.44
 130  0.194  0.531  0.614-   4 2.02   5 2.26  53 2.30
 131  0.428  0.511  0.580-  41 1.45   5 2.16
 132  0.137  0.327  0.699-  53 1.62  32 1.72  26 2.51
 133  0.854  0.908  0.821-  29 1.63  11 2.32
 134  0.919  0.290  0.048-  43 1.47  23 2.25   7 2.31
 135  0.550  0.509  0.192-  34 2.26  18 2.26

IMPORTANT INFORMATION: All symmetrisations will be switched off!
NOSYMM: (Re-)initialisation of all symmetry stuff for point group C_1.

Automatic generation of k-mesh.
 generate k-points for:    2    2    2
Space group operators:
 irot       det(A)        alpha          n_x          n_y          n_z        tau_x        tau_y        tau_z
    1     1.000000     0.000000     1.000000     0.000000     0.000000     0.000000     0.000000     0.000000

 Subroutine IBZKPT returns following result:

 Found      8 irreducible k-points:

 Following reciprocal coordinates:
            Coordinates               Weight
  0.000000  0.000000  0.000000      1.000000
  0.500000  0.000000  0.000000      1.000000
  0.000000  0.500000  0.000000      1.000000
  0.500000  0.500000  0.000000      1.000000
  0.000000  0.000000  0.500000      1.000000
  0.500000  0.000000  0.500000      1.000000
  0.000000  0.500000  0.500000      1.000000
  0.500000  0.500000  0.500000      1.000000

 Following cartesian coordinates:
            Coordinates               Weight
  0.000000  0.000000  0.000000      1.000000
  0.041344  0.000000  0.000000      1.000000
  0.000000  0.041344  0.000000      1.000000
  0.041344  0.041344  0.000000      1.000000
  0.000000  0.000000  0.041344      1.000000
  0.041344  0.000000  0.041344      1.000000
  0.000000  0.041344  0.041344      1.000000
[...]
     0.000000000  0.000000000 12.093787620     0.000000000  0.000000000  0.082687081

  length of vectors
    12.093787620 12.093787620 12.093787620     0.082687081  0.082687081  0.082687081

 FORCES acting on ions
    electron-ion (+dipol)            ewald-force                    non-local-force                 convergence-correction
   0.834E+02 0.227E+03 0.958E+02   -.777E+02 -.228E+03 -.917E+02   -.527E+01 -.218E+01 -.435E+01   -.482E-03 -.113E-03 -.426E-03
   -.113E+03 0.227E+03 -.597E+02   0.118E+03 -.228E+03 0.630E+02   0.527E+00 -.192E+01 0.475E+00   0.887E-03 -.522E-03 0.182E-03
   0.123E+02 -.937E+02 0.477E+02   -.122E+02 0.931E+02 -.464E+02   0.586E+00 0.829E+00 -.618E+00   0.100E-02 -.136E-02 -.809E-03
   0.114E+03 -.903E+02 0.197E+03   -.112E+03 0.926E+02 -.198E+03   -.335E+01 0.130E+01 -.152E+01   -.189E-03 0.842E-05 0.626E-03
   -.168E+02 0.463E+01 -.778E+02   0.160E+02 -.780E+01 0.743E+02   0.427E-01 0.457E+01 0.379E+01   0.252E-03 -.223E-03 -.311E-03
   0.154E+03 -.111E+03 -.687E+02   -.153E+03 0.108E+03 0.655E+02   -.275E+01 0.280E+01 0.210E+01   -.304E-03 -.209E-03 0.105E-03
   -.166E+03 -.221E+03 0.129E+03   0.157E+03 0.217E+03 -.125E+03   0.706E+01 0.370E+01 -.358E+01   0.297E-02 0.539E-02 -.128E-02
   -.208E+03 0.462E+02 0.771E+02   0.205E+03 -.526E+02 -.769E+02   0.616E+01 0.341E+01 -.955E+00   -.520E-03 -.482E-02 -.109E-02
   0.270E+02 0.164E+03 0.802E+02   -.304E+02 -.166E+03 -.786E+02   0.310E+01 0.154E+01 -.357E+01   -.644E-04 -.600E-03 0.146E-02
   0.484E+02 0.582E+02 -.590E+02   -.451E+02 -.574E+02 0.554E+02   -.228E+01 -.234E+01 0.316E+01   -.276E-03 -.301E-05 -.453E-04
   0.178E+03 0.602E+01 0.208E+03   -.174E+03 -.251E+01 -.207E+03   -.398E+01 -.238E+01 -.647E+00   -.410E-03 -.367E-02 -.653E-02
   -.750E+02 0.109E+03 -.271E+02   0.734E+02 -.108E+03 0.287E+02   -.308E+01 -.280E-01 -.796E+00   0.547E-03 -.403E-03 0.106E-02
   0.923E+02 -.240E+03 -.535E+02   -.879E+02 0.235E+03 0.481E+02   -.468E+01 0.568E+01 0.427E+01   0.191E-02 0.106E-02 -.537E-03
   -.987E+02 0.202E+03 -.102E+03   0.109E+03 -.207E+03 0.977E+02   -.423E+01 0.920E+00 0.490E+01   0.501E-03 0.842E-03 0.123E-03
   0.240E+03 -.740E+02 -.504E+03   -.238E+03 0.776E+02 0.499E+03   -.530E+01 0.408E+00 0.730E+01   -.282E-03 0.637E-03 0.313E-02
   0.365E+01 -.207E+02 0.913E+02   -.109E+02 0.208E+02 -.916E+02   0.419E+01 0.437E+00 -.157E+01   0.288E-03 0.578E-03 -.609E-03
   -.264E+03 -.121E+03 0.429E+02   0.261E+03 0.123E+03 -.436E+02   0.412E+01 -.274E+00 -.854E+00   0.395E-03 0.477E-03 -.244E-03
   -.226E+03 0.197E+03 -.159E+03   0.220E+03 -.197E+03 0.152E+03   0.543E+01 -.153E+01 0.609E+01   -.343E-03 -.182E-02 -.789E-03
   0.686E+02 0.699E+02 -.244E+03   -.713E+02 -.708E+02 0.247E+03   0.768E+00 0.679E+00 -.619E+00   -.645E-03 0.648E-03 0.215E-02
   0.542E+02 -.660E+02 0.592E+02   -.488E+02 0.648E+02 -.610E+02   -.140E+01 -.679E+00 0.789E+00   -.287E-02 0.503E-02 0.296E-02
   0.102E+03 -.144E+03 -.157E+03   -.980E+02 0.142E+03 0.153E+03   -.215E+01 0.350E+01 0.473E+01   0.674E-03 -.215E-02 0.138E-03
   0.139E+02 -.876E+02 0.683E+01   -.169E+02 0.944E+02 -.786E+01   0.240E+01 -.485E+01 -.185E+00   0.678E-03 -.582E-04 0.348E-03
   0.387E+02 0.304E+03 0.498E+02   -.389E+02 -.299E+03 -.492E+02   0.869E-02 -.583E+01 0.588E+00   -.828E-03 0.119E-02 -.307E-02
   -.923E+02 0.155E+03 0.174E+02   0.932E+02 -.156E+03 -.203E+02   0.443E+00 -.834E+00 0.191E+01   0.841E-03 -.425E-03 -.240E-03
   -.169E+03 -.676E+02 0.209E+02   0.167E+03 0.684E+02 -.177E+02   0.626E+01 -.450E+00 -.298E+01   -.122E-03 -.233E-03 0.478E-03
   0.119E+02 0.571E+01 -.422E+02   -.116E+02 -.661E+01 0.406E+02   0.172E+01 0.205E-01 0.235E+01   -.890E-03 0.570E-04 -.700E-03
   -.193E+03 0.322E+01 -.495E+02   0.190E+03 -.115E+01 0.505E+02   0.446E+01 -.297E+01 -.956E+00   0.299E-02 -.845E-03 0.330E-02
   -.261E+02 -.740E+02 -.240E+02   0.181E+02 0.675E+02 0.185E+02   0.868E+01 0.904E+01 0.273E+01   -.106E-02 0.244E-04 -.118E-03
   0.693E+02 -.661E+02 0.147E+02   -.717E+02 0.670E+02 -.567E+01   0.418E+01 -.198E+01 -.629E+01   -.234E-03 -.253E-04 -.139E-03
   0.826E+02 -.671E+02 -.515E+01   -.720E+02 0.622E+02 0.162E+01   -.947E+01 0.583E+01 -.342E+00   0.285E-03 -.769E-04 -.635E-04
   0.156E+02 -.270E+02 -.541E+02   -.170E+02 0.272E+02 0.510E+02   -.110E+01 0.267E+01 0.381E+01   -.974E-03 -.903E-03 0.101E-02
   -.540E+01 0.523E+02 -.614E+02   0.105E+02 -.573E+02 0.622E+02   -.147E+01 0.511E+01 0.261E+01   -.183E-03 0.178E-03 -.657E-04
   -.155E+02 -.294E+02 -.440E+02   0.202E+02 0.348E+02 0.420E+02   -.476E+01 0.444E+00 0.623E+01   0.106E-04 0.322E-04 0.575E-03
   0.540E+02 -.671E+02 -.481E+02   -.470E+02 0.701E+02 0.470E+02   -.131E+02 0.310E+00 0.290E+01   0.434E-03 0.130E-02 0.545E-03
   -.237E+02 -.835E+01 0.194E+02   0.129E+02 0.390E+01 -.181E+02   0.942E+01 0.702E+01 -.130E+01   0.226E-03 0.238E-04 -.265E-03
   -.611E+02 -.422E+02 -.481E+02   0.470E+02 0.443E+02 0.510E+02   0.944E+01 -.944E+00 0.334E+00   -.518E-04 -.200E-03 0.201E-03
   0.580E+02 0.102E+03 -.175E+02   -.544E+02 -.835E+02 0.173E+02   -.721E+01 -.153E+02 -.479E+01   0.127E-03 0.118E-03 0.921E-04
   0.735E+01 0.190E+02 0.487E+02   -.819E+01 -.103E+02 -.486E+02   0.927E+01 -.688E+01 0.410E+00   -.827E-04 -.253E-03 0.698E-04
   -.426E+02 -.805E+02 -.199E+02   0.304E+02 0.786E+02 0.180E+02   0.121E+02 -.306E+00 0.495E+01   0.181E-03 0.169E-03 0.338E-03
   0.437E+02 -.933E+02 0.201E+01   -.396E+02 0.883E+02 -.354E+01   -.291E+01 0.349E+01 -.237E+01   0.351E-05 -.197E-03 -.227E-03
   0.584E+01 0.930E+02 0.368E+02   -.421E+01 -.819E+02 -.478E+02   -.266E+01 -.623E+01 0.192E+02   0.364E-04 0.765E-04 -.142E-03
   0.229E+02 0.155E+03 -.100E+02   -.263E+02 -.141E+03 0.173E+02   0.193E+01 -.212E+02 -.163E+02   0.590E-05 0.290E-03 0.167E-03
   -.255E+02 -.106E+03 -.710E+02   0.249E+02 0.916E+02 0.615E+02   0.387E+01 0.191E+02 0.155E+02   -.105E-02 0.196E-02 0.892E-04
   0.325E+02 0.492E+02 -.348E+02   -.272E+02 -.480E+02 0.230E+02   -.576E+01 0.301E+01 0.117E+02   0.624E-03 -.121E-02 0.383E-02
   -.792E+02 -.351E+02 0.109E+03   0.756E+02 0.407E+02 -.984E+02   0.267E+01 -.133E+01 -.153E+02   -.265E-04 -.138E-03 -.388E-04
   0.895E+02 0.294E+02 0.319E+02   -.724E+02 -.261E+02 -.252E+02   -.265E+02 -.186E+01 -.352E+01   -.103E-03 -.862E-03 0.827E-04
   -.963E+02 -.159E+03 0.237E+01   0.934E+02 0.147E+03 0.690E+01   0.559E+01 0.121E+02 -.103E+02   0.229E-04 0.915E-03 0.115E-02
   0.176E+02 0.453E+02 0.787E+02   -.252E+02 -.496E+02 -.665E+02   0.727E+01 0.668E+01 -.118E+02   -.951E-04 -.421E-04 0.556E-04
   -.258E+02 -.102E+03 -.424E+02   0.139E+02 0.901E+02 0.365E+02   0.194E+02 0.144E+02 0.816E+01   0.116E-03 -.468E-03 0.141E-03
   0.754E+02 0.419E+02 -.115E+03   -.789E+02 -.365E+02 0.111E+03   -.184E+01 -.401E+01 0.590E+01   -.511E-03 -.749E-03 -.143E-03
   0.870E+02 -.148E+02 0.169E+02   -.863E+02 0.240E+02 -.189E+02   0.153E+01 -.742E+01 -.762E-01   -.277E-03 0.606E-03 0.295E-04
   -.402E+02 0.119E+02 -.905E+02   0.320E+02 -.130E+02 0.775E+02   0.798E+01 -.524E+01 0.170E+02   -.190E-03 0.855E-04 0.235E-03
   -.993E+02 0.114E+03 0.834E+02   0.937E+02 -.108E+03 -.754E+02   0.147E+02 -.610E+01 -.981E+01   -.105E-03 0.314E-05 0.108E-03
   -.658E+02 0.108E+03 0.178E+02   0.721E+02 -.970E+02 -.224E+02   -.543E+01 -.213E+02 0.154E+02   0.879E-04 0.213E-03 -.104E-02
   0.371E+02 0.307E+02 0.968E+02   -.153E+02 -.487E+02 -.112E+03   -.241E+02 0.171E+02 0.100E+02   0.383E-03 -.248E-03 0.786E-03
   0.194E+02 -.254E+02 -.101E+03   -.450E+02 0.221E+02 0.968E+02   0.274E+02 0.411E+01 0.475E+01   0.130E-04 -.259E-03 0.234E-04
   0.796E+02 0.132E+03 -.112E+03   -.705E+02 -.129E+03 0.113E+03   -.121E+02 -.782E+01 -.158E+01   -.114E-02 -.164E-03 0.299E-02
   0.551E+02 0.183E+03 0.323E+02   -.726E+02 -.210E+03 -.243E+02   0.171E+02 0.271E+02 -.124E+02   -.927E-04 -.985E-03 0.611E-05
   0.610E+02 -.507E+01 -.198E+02   -.476E+02 -.519E+01 0.251E+02   -.150E+02 0.753E+01 -.336E+01   -.977E-03 0.251E-03 0.255E-03
   -.373E+02 -.131E+03 0.162E+03   0.376E+02 0.143E+03 -.172E+03   0.134E+01 -.137E+02 0.107E+02   0.263E-02 0.794E-04 -.238E-02
[...]
   0.102E+03 -.231E+02 -.201E+02   -.100E+03 0.386E+02 0.377E+02   -.373E+01 -.168E+02 -.195E+02   0.106E-03 -.121E-03 0.265E-03
   -.382E+02 -.163E+03 -.644E+02   0.272E+02 0.175E+03 0.737E+02   0.131E+02 -.124E+02 -.988E+01   -.955E-03 0.276E-02 -.552E-03
   0.431E+02 0.148E+03 0.361E+02   -.431E+02 -.145E+03 -.303E+02   -.254E+00 -.608E+01 -.571E+01   0.138E-03 0.599E-04 0.203E-03
   0.650E+02 -.841E+01 -.692E+02   -.611E+02 -.942E+01 0.661E+02   -.551E+01 0.180E+02 0.418E+01   -.614E-04 0.108E-03 0.640E-03
   -.445E+02 -.548E+02 0.560E+02   0.382E+02 0.578E+02 -.572E+02   0.704E+01 -.139E+01 0.315E+01   -.725E-03 0.224E-03 -.146E-03
   -.120E+03 0.454E+02 0.366E+02   0.135E+03 -.400E+02 -.516E+02   -.953E+01 -.900E+01 0.175E+02   0.445E-03 -.577E-04 0.181E-02
   -.123E+03 -.165E+03 -.783E+02   0.132E+03 0.159E+03 0.772E+02   -.930E+01 0.101E+02 0.168E+01   0.151E-02 0.195E-02 0.250E-02
   0.609E+02 -.772E+02 -.691E+02   -.574E+02 0.588E+02 0.735E+02   -.458E+01 0.206E+02 -.408E+01   -.293E-03 -.224E-03 0.219E-03
   -.675E+02 0.147E+03 0.515E+02   0.758E+02 -.143E+03 -.508E+02   -.886E+01 -.764E+01 -.122E+01   -.917E-04 -.214E-04 0.970E-05
   -.851E+02 0.101E+03 0.682E+02   0.930E+02 -.101E+03 -.109E+03   -.558E+01 -.264E+01 0.350E+02   0.853E-04 -.972E-04 -.310E-03
   -.159E+03 0.141E+03 0.619E+02   0.190E+03 -.155E+03 -.493E+02   -.299E+02 0.127E+02 -.146E+02   -.307E-03 0.350E-04 -.140E-03
   0.160E+03 -.142E+03 0.342E+02   -.184E+03 0.155E+03 -.201E+02   0.238E+02 -.132E+02 -.159E+02   -.512E-03 0.300E-03 -.135E-02
   -.109E+03 0.371E+02 0.700E+02   0.125E+03 -.537E+02 -.951E+02   -.901E+01 0.135E+02 0.209E+02   -.707E-03 0.293E-02 -.657E-03
   -.535E+02 0.132E+03 -.808E+01   0.475E+02 -.129E+03 0.709E+01   0.837E+01 -.559E+01 0.298E+00   0.865E-03 -.563E-03 -.716E-04
   -.729E+02 0.560E+02 -.109E+03   -.483E-12 -.284E-12 0.119E-12   0.730E+02 -.560E+02 0.109E+03   0.100E-02 -.333E-02 0.140E-01

 POSITION                                       TOTAL-FORCE (eV/Angst)
      1.16211      6.31354      0.67178         0.445309     -3.273638     -0.280594
      3.91913      6.92324      2.08382         5.964954     -3.097987      3.805820
      3.29981     10.11629      0.08739         0.608051      0.254698      0.644779
      0.68013      7.41439      7.99456        -1.523775      3.575550     -3.056800
      3.73017      7.32688      5.88623        -0.794045      1.401945      0.230303
     10.89693      6.88922     11.12745        -0.972089     -0.186561     -1.056993
      0.90588      2.45347      1.39693        -2.149021     -0.235690      0.639647
      9.43021      9.40644      1.71000         3.190372     -2.957804     -0.804211
     10.96132      9.47575      5.49577        -0.282877     -0.578382     -2.049752
      2.64568      7.31311     10.20357         0.968001     -1.500565     -0.469696
     11.35340     11.32841     11.98301        -0.112041      1.127283     -0.223760
      6.80200      6.18087     11.46502        -4.660211      1.135126      0.887424
      3.51754      1.21137      0.79304        -0.326508      0.819915     -1.149264
      3.00056      4.17168      4.56294         5.777282     -3.750559      0.200742
     10.11276      0.42856      6.63813        -3.614344      4.010905      2.683659
      6.51795      4.84888      4.83985        -3.027200      0.494915     -1.871217
      5.80021     10.64911      8.80217         1.071939      1.848768     -1.491969
      6.85074      7.79658      3.87083        -0.581306     -1.098560     -0.489924
      7.17229      1.32702      5.69661        -1.951360     -0.139386      2.322997
      8.60063      2.03719      3.44858         4.006450     -1.925325     -1.009821
      1.16512      8.63265      2.66681         1.611288      1.881361      1.668591
      9.03807      8.57101      9.41854        -0.689207      1.891191     -1.218270
     10.20641      2.61751     10.81166        -0.216602     -1.179310      1.132779
      6.54234      4.15299      9.01498         1.420247     -2.102591     -0.931369
      3.53806     10.43469      6.44990         4.389994      0.401989      0.198175
      1.27756      1.50092      8.80958         1.956040     -0.878358      0.656848
      1.54964     12.03264      3.45204         0.889084     -0.893147      0.038109
      6.45328     11.69027      1.21355         0.749861      2.481430     -2.716649
     11.50826     10.28951      9.02619         1.796688     -1.166878      2.784265
      4.58563      1.68486      7.16955         1.196969      0.956688     -3.871737
      7.84916     10.63386      3.73888        -2.442855      2.892438      0.761986
      0.53667      4.53606      9.63287         3.640502      0.091068      3.406765
      0.62420     11.25180      6.29849        -0.116161      5.924616      4.230010
      8.06019      4.64260      1.41683        -6.049575      3.304853      1.801657
      4.59988      1.64309     10.04630        -1.432496      2.562453      0.045687
      7.81548      9.25635      6.37974        -4.714538      1.238602      3.198995
      1.33096      5.63323      4.21053        -3.623013      3.372533     -5.005979
      9.05002      6.59326      6.95053         8.421926      1.828577      0.463297
      4.72313      1.20341      4.17189        -0.200366     -2.243071      2.969187
      2.38206     10.26986      9.28831         1.263035     -1.510782     -3.901540
      4.99220      6.19218      8.45096        -1.029576      4.795563      8.244844
      4.00510      4.58694     11.35929        -1.485492     -7.178654     -9.033994
     10.32448      4.24722      1.57942         3.245997      5.139251      5.988237
     10.67932      0.06633      3.13562        -0.443384      4.215846     -0.080478
      5.80453      8.32947     10.29687        -0.975748      4.335444     -5.131559
      6.46668      8.71293      0.84007        -9.348774      1.438805      3.137522
     11.40010      2.67924      4.38299         2.738568      0.155099     -1.044725
     10.32648      4.69207      8.55091        -0.301699      2.427662      0.450871
      4.36674     10.07971      3.53626         7.506352      2.935852      2.327255
     11.00332      6.90755      2.41275        -5.362197      1.388132      1.720286
      6.11313      2.52119      1.78551         2.234416      1.812599     -2.107873
      8.72614      4.05185      6.46477        -0.197106     -6.347383      4.021668
      1.00411      4.57561      7.10285         9.156708     -0.512088     -1.793212
      7.35073      1.23914     10.78168         0.898885    -10.465859     10.931317
      1.79912     10.55730      5.62737        -2.279403     -0.886383     -5.102957
      6.17014      9.05783      6.14228         1.814108      0.837330      1.012729
      8.67421      0.19683      4.55707        -2.983571     -4.552179      0.265740
      9.32246      3.44054      8.47278        -0.457948      0.628050     -4.390833
      6.02888      1.55133      3.11719        -1.602295     -2.727048      1.934669
      1.26563      0.38287      0.50330         1.678355     -1.190684      0.236384
[...]
      4.48112      6.18684      4.32584         1.213287     -3.093793     -0.539648
      9.70259      6.31203      8.58731        -1.783296     -1.232304     -1.864642
     10.54764      3.89312      3.35657         2.109782     -0.563316     -0.519511
      4.74199      5.30795      9.90201        -0.333926     -3.165213      0.160974
     12.05285     10.16722      7.41606        -1.658797      0.154380      1.144977
      6.45896      1.24142      0.32395         0.722656      1.629747      1.961750
      8.35004      5.40296     12.01887         4.910345     -3.625972      2.459166
      0.70652      1.79971      3.56506        -0.625654      4.410838      0.611094
     11.43161      8.61282      9.47864        -1.018990      2.283516      0.241748
      2.34843      6.41843      7.42710        -0.580220     -4.172251     -0.566976
      5.17153      6.18154      7.01039         2.242469     -2.773869     -5.545136
      1.65239      3.95913      8.45144         0.636751     -1.377049     -2.051000
     10.33146     10.97854      9.92779        -0.321717     -0.272987     -1.817191
     11.11166      3.50792      0.57778         7.073007     -3.085347     -4.194305
      6.65505      6.16080      2.32153         2.325161     -2.624636     -0.698230
    total drift:                                0.041571     -0.000086      0.011056

  FREE ENERGIE OF THE ION-ELECTRON SYSTEM (eV)
  free  energy   TOTEN  =      -867.11718359 eV

  energy  without entropy=     -867.08767339  energy(sigma->0) =     -867.10242849