 vasp.5.4.4.18Apr17-6-g9f103f2a35 (build Oct 31 2019 15:01:46) complex

 executed on             LinuxIFC date 2024.04.30  09:29:32

 INCAR:
 POTCAR:    PAW_PBE Sc_sv 07Sep2000
 POTCAR:    PAW_PBE Cl 06Sep2000
 POTCAR:    PAW_PBE C 08Apr2002
 POTCAR:    PAW_PBE Sc_sv 07Sep2000
   VRHFIN =Sc: 3p4s3d

   TITEL  = PAW_PBE Sc_sv 07Sep2000
   POMASS =   44.956; ZVAL   =   11.000    mass and valenz
   ENMAX  =  222.660; ENMIN  =  166.995 eV

 POTCAR:    PAW_PBE Cl 06Sep2000
   VRHFIN =Cl: s2p5

   TITEL  = PAW_PBE Cl 06Sep2000
   POMASS =   35.453; ZVAL   =    7.000    mass and valenz
   ENMAX  =  262.472; ENMIN  =  196.854 eV

 POTCAR:    PAW_PBE C 08Apr2002
   VRHFIN =C: s2p2

   TITEL  = PAW_PBE C 08Apr2002
   POMASS =   12.011; ZVAL   =    4.000    mass and valenz
   ENMAX  =  400.000; ENMIN  =  300.000 eV

 Optimization of the real space projectors (new method)

 maximal supplied QI-value         = 15.12
 optimisation between [QCUT,QGAM] = [ 12.55, 25.10] = [ 44.09,176.36] Ry
 Optimized for a Real-space Cutoff    1.56 Angstroem

   l    n(q)    QCUT    max X(q) W(low)/X(q) W(high)/X(q)  e(spline)
   0     12    12.548     2.962    0.12E-05    0.11E-06    0.46E-07
   0     12    12.548    26.414    0.30E-04    0.15E-05    0.76E-07
   1     11    12.548     3.969    0.45E-05    0.12E-05    0.60E-07
   1     11    12.548     5.137    0.15E-04    0.18E-04    0.36E-06
   2     11    12.548   143.970    0.20E-03    0.19E-03    0.76E-06
   2     11    12.548   121.201    0.20E-03    0.19E-03    0.76E-06
 Optimization of the real space projectors (new method)

[...]

   l    n(q)    QCUT    max X(q) W(low)/X(q) W(high)/X(q)  e(spline)
   0      9    12.501   168.010    0.44E-04    0.61E-04    0.77E-07
   0      9    12.501   164.674    0.43E-04    0.60E-04    0.75E-07
   1      8    12.501    69.222    0.11E-03    0.13E-03    0.91E-07
   1      8    12.501    56.786    0.11E-03    0.13E-03    0.90E-07
 Optimization of the real space projectors (new method)

 maximal supplied QI-value         = 25.13
 optimisation between [QCUT,QGAM] = [ 12.32, 24.88] = [ 42.47,173.37] Ry
 Optimized for a Real-space Cutoff    1.16 Angstroem

   l    n(q)    QCUT    max X(q) W(low)/X(q) W(high)/X(q)  e(spline)
   0      9    12.315   115.676    0.19E-03    0.80E-05    0.34E-06
   0      9    12.315    87.132    0.19E-03    0.82E-05    0.34E-06
   1      8    12.315     4.429    0.18E-03    0.13E-03    0.22E-06
   1      8    12.315     2.733    0.14E-03    0.10E-03    0.18E-06
  PAW_PBE Sc_sv 07Sep2000               :
  PAW_PBE Cl 06Sep2000                  :
  PAW_PBE C 08Apr2002                   :

 POSCAR: Sc Cl  C
  positions in cartesian coordinates
 exchange correlation table for  LEXCH =        8
   RHO(1)=    0.500       N(1)  =     2000
   RHO(2)=  100.500       N(2)  =     4000

 ion  position               nearest neighbor table
   1  0.080  0.164  0.545-  66 2.28  65 2.36  70 2.43  49 2.51  61 2.52  50 2.74  29 3.18  18 3.21
                            17 3.38  16 3.38  13 3.39
   2  0.093  0.419  0.547-  71 2.20  50 2.45  66 2.46  51 2.47  67 2.49  62 2.62  30 3.20  19 3.21
                            18 3.24   6 3.37   7 3.37
   3  0.088  0.671  0.543-  72 2.22  67 2.37  68 2.46  51 2.60  52 2.61  63 2.68  20 3.07  31 3.23
                            19 3.24   4 3.35  15 3.36   7 3.41   8 3.43
   4  0.085  0.913  0.540-  68 2.29  69 2.35  65 2.41  52 2.66  49 2.69  64 2.78  20 3.09  32 3.26
                            15 3.32   3 3.35  17 3.37   8 3.40
   5  0.340  0.166  0.543-  74 2.17  70 2.39  69 2.39  49 2.61  54 2.61  53 2.73  22 3.14  21 3.15
                            17 3.31   8 3.35  10 3.42
   6  0.338  0.421  0.543-  70 2.31  75 2.35  71 2.38  55 2.54  54 2.64  50 2.84  22 3.12  23 3.20
                            18 3.22   2 3.37
   7  0.333  0.667  0.542-  76 2.33  72 2.35  71 2.37  55 2.50  51 2.53  56 2.66  19 3.17  24 3.20
                            23 3.21   2 3.37   3 3.41
   8  0.335  0.920  0.545-  73 2.25  72 2.30  53 2.37  69 2.45  52 2.71  56 2.75  20 3.20  21 3.25
                             5 3.35  24 3.38  12 3.40   4 3.40   3 3.43
   9  0.589  0.164  0.549-  78 2.23  73 2.35  74 2.40  58 2.59  53 2.67  57 2.68  25 3.24  12 3.28
                            26 3.29  13 3.40
  10  0.588  0.413  0.547-  74 2.31  79 2.33  58 2.61  75 2.63  59 2.68  54 2.69  26 3.00  27 3.14
                            14 3.30  22 3.30   5 3.42
  11  0.589  0.682  0.548-  76 2.26  80 2.29  59 2.51  75 2.54  60 2.58  55 2.61  27 3.15  28 3.21
                            23 3.26  16 3.35  12 3.38
  12  0.583  0.924  0.550-  73 2.28  76 2.39  77 2.51  60 2.56  57 2.65  56 2.66  25 3.23   9 3.28
                            28 3.31  24 3.36  11 3.38  13 3.38   8 3.40
  13  0.834  0.163  0.548-  77 2.32  78 2.42  66 2.43  57 2.61  61 2.65  62 2.74  30 3.00  25 3.21
                            29 3.35  12 3.38   1 3.39   9 3.40  16 3.43
  14  0.831  0.420  0.548-  79 2.27  67 2.39  78 2.47  63 2.50  58 2.57  62 2.88  31 3.13  30 3.13
                            26 3.21  10 3.30  15 3.39
  15  0.845  0.672  0.543-  68 2.26  79 2.29  80 2.44  63 2.50  64 2.57  59 2.79  27 3.07  31 3.16
                            32 3.19   4 3.32   3 3.36  14 3.39  16 3.42
  16  0.838  0.917  0.541-  80 2.21  77 2.37  65 2.41  61 2.60  64 2.67  60 2.70  28 3.14  29 3.19
                            32 3.28  11 3.35   1 3.38  15 3.42  13 3.43
  17  0.177  0.094  0.447-  69 2.36  65 2.41  70 2.42  33 2.55  36 2.55  37 2.59  22 3.25  21 3.26
                             5 3.31  18 3.33   4 3.37   1 3.38  29 3.41
  18  0.165  0.329  0.454-  66 2.31  70 2.36  71 2.36  34 2.56  38 2.60  33 2.62   1 3.21   6 3.22
                             2 3.24  29 3.33  17 3.33  22 3.39  19 3.41
  19  0.165  0.576  0.454-  71 2.27  67 2.39  34 2.51  72 2.53  35 2.56  39 2.69   7 3.17   2 3.21
                             3 3.24  18 3.41
  20  0.167  0.827  0.456-  72 2.24  68 2.30  69 2.36  35 2.50  40 2.54  36 2.98   3 3.07   4 3.09
                             8 3.20
  21  0.407  0.082  0.451-  69 2.24  74 2.47  73 2.58  40 2.58  41 2.60  37 2.66   5 3.15   8 3.25
                            17 3.26  22 3.40
  22  0.412  0.330  0.456-  70 2.25  75 2.39  74 2.46  38 2.56  37 2.66  42 2.72   6 3.12   5 3.14
                            17 3.25  10 3.30  26 3.37  18 3.39  21 3.40
  23  0.427  0.590  0.454-  75 2.16  76 2.41  43 2.50  71 2.57  38 2.82  39 2.85   6 3.20   7 3.21
                            11 3.26  24 3.32  27 3.36  28 3.40
  24  0.424  0.829  0.451-  76 2.34  44 2.44  73 2.51  39 2.53  72 2.57  40 2.69   7 3.20  28 3.28
                            23 3.32  12 3.36   8 3.38
  25  0.672  0.084  0.456-  77 2.25  78 2.29  73 2.46  44 2.47  45 2.57  41 2.70  13 3.21  12 3.23
                             9 3.24  30 3.26  28 3.32
  26  0.660  0.340  0.458-  79 2.33  74 2.34  42 2.44  78 2.47  46 2.52  41 2.72  10 3.00  14 3.21
                             9 3.29  31 3.33  27 3.36  22 3.37
  27  0.669  0.588  0.462-  75 2.22  80 2.29  79 2.33  47 2.49  42 2.69  43 2.88  15 3.07  10 3.14
                            11 3.15  32 3.35  23 3.36  26 3.36
  28  0.668  0.841  0.455-  77 2.32  76 2.36  80 2.38  48 2.55  43 2.64  44 2.68  16 3.14  11 3.21
                            24 3.28  12 3.31  25 3.32  23 3.40
  29  0.926  0.085  0.452-  65 2.25  66 2.33  77 2.41  33 2.55  48 2.60  45 2.62   1 3.18  16 3.19
                            18 3.33  13 3.35  30 3.41  17 3.41
  30  0.907  0.320  0.464-  78 2.26  66 2.28  67 2.37  45 2.57  46 2.68  34 2.77  13 3.00  14 3.13
                             2 3.20  25 3.26  29 3.41  31 3.42
  31  0.911  0.570  0.456-  67 2.24  79 2.30  68 2.44  35 2.52  46 2.56  47 2.71  14 3.13  15 3.16
                             3 3.23  26 3.33  30 3.42
  32  0.915  0.823  0.448-  68 2.23  36 2.46  80 2.49  47 2.50  65 2.52  48 2.68  15 3.19   4 3.26
                            16 3.28  27 3.35
  33  0.084  0.167  0.390-  17 2.55  29 2.55  18 2.62
  34  0.079  0.412  0.397-  19 2.51  18 2.56  30 2.77
  35  0.077  0.662  0.400-  20 2.50  31 2.52  19 2.56
  36  0.069  0.928  0.391-  32 2.46  17 2.55  20 2.98
  37  0.341  0.178  0.386-  17 2.59  21 2.66  22 2.66
  38  0.328  0.402  0.392-  22 2.56  18 2.60  23 2.82
  39  0.329  0.676  0.388-  24 2.53  19 2.69  23 2.85
  40  0.324  0.911  0.394-  20 2.54  21 2.58  24 2.69
  41  0.581  0.168  0.395-  21 2.60  25 2.70  26 2.72
  42  0.595  0.421  0.398-  26 2.44  27 2.69  22 2.72
  43  0.579  0.675  0.392-  23 2.50  28 2.64  27 2.88
  44  0.580  0.932  0.396-  24 2.44  25 2.47  28 2.68
  45  0.836  0.173  0.397-  25 2.57  30 2.57  29 2.62
  46  0.819  0.399  0.400-  26 2.52  31 2.56  30 2.68
  47  0.812  0.653  0.397-  27 2.49  32 2.50  31 2.71
  48  0.826  0.918  0.393-  28 2.55  29 2.60  32 2.68
  49  0.168  0.087  0.601-   1 2.51   5 2.61   4 2.69
  50  0.157  0.337  0.609-   2 2.45   1 2.74   6 2.84
  51  0.171  0.583  0.601-   2 2.47   7 2.53   3 2.60
  52  0.162  0.832  0.607-   3 2.61   4 2.66   8 2.71
  53  0.409  0.059  0.605-   8 2.37   9 2.67   5 2.73
  54  0.411  0.328  0.606-   5 2.61   6 2.64  10 2.69
  55  0.409  0.584  0.601-   7 2.50   6 2.54  11 2.61
  56  0.412  0.825  0.610-  12 2.66   7 2.66   8 2.75
  57  0.679  0.088  0.614-  13 2.61  12 2.65   9 2.68
  58  0.670  0.331  0.609-  14 2.57   9 2.59  10 2.61
  59  0.661  0.591  0.605-  11 2.51  10 2.68  15 2.79
  60  0.674  0.847  0.607-  12 2.56  11 2.58  16 2.70
  61  0.924  0.074  0.605-   1 2.52  16 2.60  13 2.65
  62  0.934  0.336  0.612-   2 2.62  13 2.74  14 2.88
  63  0.911  0.584  0.603-  14 2.50  15 2.50   3 2.68
  64  0.911  0.827  0.607-  15 2.57  16 2.67   4 2.78
  65  0.008  0.006  0.494-  29 2.25   1 2.36   4 2.41  16 2.41  17 2.41  32 2.52
  66  0.003  0.245  0.500-  30 2.28   1 2.28  18 2.31  29 2.33  13 2.43   2 2.46
  67  0.997  0.501  0.500-  31 2.24   3 2.37  30 2.37  14 2.39  19 2.39   2 2.49
  68  0.997  0.753  0.495-  32 2.23  15 2.26   4 2.29  20 2.30  31 2.44   3 2.46
  69  0.249  0.002  0.494-  21 2.24   4 2.35  17 2.36  20 2.36   5 2.39   8 2.45
  70  0.256  0.254  0.501-  22 2.25   6 2.31  18 2.36   5 2.39  17 2.42   1 2.43
  71  0.240  0.495  0.500-   2 2.20  19 2.27  18 2.36   7 2.37   6 2.38  23 2.57
  72  0.247  0.755  0.502-   3 2.22  20 2.24   8 2.30   7 2.35  19 2.53  24 2.57
  73  0.499  0.997  0.504-   8 2.25  12 2.28   9 2.35  25 2.46  24 2.51  21 2.58
  74  0.498  0.246  0.505-   5 2.17  10 2.31  26 2.34   9 2.40  22 2.46  21 2.47
  75  0.499  0.508  0.495-  23 2.16  27 2.22   6 2.35  22 2.39  11 2.54  10 2.63
  76  0.505  0.756  0.503-  11 2.26   7 2.33  24 2.34  28 2.36  12 2.39  23 2.41
  77  0.756  0.006  0.498-  25 2.25  28 2.32  13 2.32  16 2.37  29 2.41  12 2.51
  78  0.741  0.242  0.503-   9 2.23  30 2.26  25 2.29  13 2.42  14 2.47  26 2.47
  79  0.755  0.504  0.503-  14 2.27  15 2.29  31 2.30  27 2.33  10 2.33  26 2.33
  80  0.749  0.756  0.502-  16 2.21  27 2.29  11 2.29  28 2.38  15 2.44  32 2.49

  LATTYP: Found a hexagonal cell.
 ALAT       =    13.7939866762
 C/A-ratio  =     2.0161119278

  Lattice vectors:

 A1 = (  13.7939866800,   0.0000000000,   0.0000000000)
 A2 = (  -6.8969933400,  11.9459428800,   0.0000000000)
[...]
     0.000000000  0.000000000 27.810221070     0.000000000  0.000000000  0.035958003

  length of vectors
    13.793986680 13.793986676 27.810221070     0.083710429  0.083710429  0.035958003

 FORCES acting on ions
    electron-ion (+dipol)            ewald-force                    non-local-force                 convergence-correction
   -.442E+02 -.960E+01 -.107E+04   0.445E+02 0.953E+01 0.107E+04   0.403E+00 0.212E+00 0.420E+01   0.939E-05 -.255E-04 -.413E-04
   0.388E+02 0.134E+02 -.108E+04   -.390E+02 -.138E+02 0.107E+04   -.664E+00 -.152E+00 0.312E+01   -.282E-05 -.155E-04 0.930E-05
   0.116E+02 0.130E+02 -.105E+04   -.105E+02 -.135E+02 0.105E+04   -.976E+00 -.112E+00 0.443E+01   0.238E-04 -.181E-04 -.533E-05
   0.138E+02 -.331E+02 -.989E+03   -.145E+02 0.343E+02 0.984E+03   0.718E-01 -.328E+00 0.491E+01   -.450E-04 0.537E-04 -.198E-04
   0.179E+02 0.131E+02 -.107E+04   -.187E+02 -.123E+02 0.107E+04   -.166E+00 -.943E+00 0.468E+01   -.423E-04 0.173E-04 -.155E-04
   -.211E+02 0.122E+02 -.104E+04   0.209E+02 -.126E+02 0.104E+04   -.141E-01 -.217E-01 0.480E+01   -.436E-05 -.284E-04 -.277E-05
   -.501E+01 -.235E+02 -.970E+03   0.466E+01 0.241E+02 0.967E+03   0.235E+00 -.192E+00 0.345E+01   -.564E-05 -.918E-05 -.116E-05
   0.825E+01 0.167E+02 -.103E+04   -.676E+01 -.175E+02 0.102E+04   -.106E+01 -.281E+00 0.397E+01   0.193E-04 0.514E-05 -.330E-04
   0.328E+02 0.234E+01 -.114E+04   -.327E+02 -.272E+01 0.114E+04   -.749E+00 -.258E-01 0.503E+01   0.164E-05 -.120E-04 -.201E-04
   0.592E+02 -.186E+02 -.113E+04   -.595E+02 0.184E+02 0.113E+04   -.626E+00 0.486E+00 0.397E+01   -.535E-04 -.201E-04 0.350E-04
   -.183E+00 0.411E+02 -.113E+04   0.501E+00 -.406E+02 0.113E+04   -.222E+00 -.796E+00 0.401E+01   -.294E-05 -.822E-05 0.227E-04
   0.790E+01 0.948E+01 -.115E+04   -.874E+01 -.102E+02 0.114E+04   0.713E+00 0.286E+00 0.401E+01   -.261E-05 0.440E-05 -.196E-04
   -.400E+01 -.189E+02 -.114E+04   0.426E+01 0.184E+02 0.114E+04   0.657E-01 0.481E+00 0.429E+01   0.264E-04 0.537E-05 -.236E-04
   -.458E+02 0.319E+02 -.114E+04   0.467E+02 -.315E+02 0.114E+04   0.260E+00 -.742E+00 0.433E+01   0.524E-04 -.174E-04 0.129E-04
   0.291E+02 -.136E+02 -.104E+04   -.297E+02 0.140E+02 0.104E+04   -.380E+00 -.196E+00 0.392E+01   -.109E-04 0.276E-04 0.406E-04
   -.239E+02 -.369E+01 -.977E+03   0.237E+02 0.362E+01 0.972E+03   0.331E+00 0.482E+00 0.457E+01   0.354E-04 0.426E-04 -.165E-04
   -.146E+02 0.237E+02 0.117E+04   0.136E+02 -.255E+02 -.117E+04   0.370E+00 0.669E+00 -.418E+01   -.453E-04 -.486E-05 0.718E-04
   -.166E+01 -.385E+02 0.108E+04   0.128E+01 0.391E+02 -.107E+04   0.274E+00 -.229E+00 -.430E+01   0.816E-06 -.120E-04 0.418E-04
   -.168E+02 -.149E+02 0.111E+04   0.164E+02 0.136E+02 -.110E+04   0.961E-01 0.124E+01 -.422E+01   -.103E-04 -.132E-04 0.257E-04
   0.107E+02 -.224E+02 0.109E+04   -.103E+02 0.230E+02 -.108E+04   -.546E+00 0.185E+00 -.499E+01   0.119E-04 0.950E-06 0.112E-04
   -.566E+02 -.759E+00 0.114E+04   0.571E+02 0.336E-02 -.113E+04   0.644E+00 0.625E+00 -.411E+01   0.162E-04 -.610E-05 0.225E-04
   -.379E+02 -.309E+02 0.104E+04   0.367E+02 0.321E+02 -.103E+04   0.146E+01 -.376E+00 -.429E+01   -.317E-04 -.796E-05 0.514E-04
   0.497E+02 0.217E+02 0.112E+04   -.482E+02 -.222E+02 -.112E+04   -.187E+01 0.829E-01 -.442E+01   0.171E-05 -.209E-05 0.188E-04
   0.390E+02 -.131E+01 0.112E+04   -.397E+02 0.195E+01 -.111E+04   -.574E+00 0.199E-01 -.387E+01   -.150E-04 0.127E-04 0.196E-04
   0.514E+02 -.116E+02 0.104E+04   -.516E+02 0.121E+02 -.103E+04   -.624E+00 -.234E-01 -.453E+01   0.929E-06 -.489E-05 0.123E-04
   -.609E+01 0.525E+02 0.988E+03   0.674E+01 -.537E+02 -.984E+03   0.303E+00 -.170E+00 -.342E+01   0.974E-05 -.305E-04 -.376E-04
   0.379E+02 0.385E+01 0.919E+03   -.391E+02 -.376E+01 -.915E+03   0.512E+00 -.190E+00 -.452E+01   -.165E-04 0.156E-04 -.430E-04
   0.155E+01 0.183E+02 0.108E+04   -.441E+00 -.181E+02 -.107E+04   -.599E+00 -.260E+00 -.466E+01   0.156E-04 0.114E-04 0.419E-05
   0.185E+02 0.109E+02 0.112E+04   -.183E+02 -.112E+02 -.112E+04   -.711E+00 0.137E+00 -.451E+01   0.361E-04 -.193E-04 0.558E-04
   -.636E+01 -.422E+02 0.879E+03   0.669E+01 0.428E+02 -.876E+03   0.252E-01 0.493E+00 -.435E+01   0.151E-04 0.336E-05 0.381E-06
   -.902E+01 -.105E+02 0.110E+04   0.994E+01 0.103E+02 -.109E+04   -.716E+00 0.567E+00 -.469E+01   0.275E-04 -.107E-04 -.309E-04
   0.121E+02 -.912E+01 0.120E+04   -.116E+02 0.104E+02 -.119E+04   -.959E+00 -.236E+00 -.381E+01   -.140E-04 0.486E-04 0.617E-05
   0.197E+02 -.149E+02 0.149E+04   -.197E+02 0.149E+02 -.149E+04   -.957E-01 0.355E+00 0.198E+01   -.738E-05 -.328E-05 0.966E-05
   0.254E+02 -.310E+01 0.143E+04   -.256E+02 0.300E+01 -.143E+04   0.824E-01 0.110E+00 0.189E+01   -.190E-04 -.897E-05 0.976E-05
   0.100E+02 0.617E+01 0.143E+04   -.996E+01 -.612E+01 -.143E+04   -.138E+00 -.115E+00 0.112E+01   -.269E-05 -.111E-04 0.121E-04
   -.369E+02 0.303E+02 0.147E+04   0.366E+02 -.302E+02 -.147E+04   0.121E+01 -.530E+00 0.165E+01   -.233E-04 -.585E-05 0.194E-04
   -.278E+02 -.305E+01 0.150E+04   0.278E+02 0.332E+01 -.151E+04   0.131E+00 -.655E+00 0.276E+01   -.935E-06 0.115E-06 0.301E-04
   0.527E+01 -.497E+02 0.145E+04   -.522E+01 0.494E+02 -.146E+04   -.195E+00 0.109E+01 0.249E+01   -.722E-05 -.536E-05 0.190E-04
   -.392E+00 0.313E+02 0.148E+04   0.261E+00 -.312E+02 -.148E+04   0.419E+00 -.626E+00 0.274E+01   -.279E-05 0.532E-05 0.169E-04
   -.122E+01 0.266E+01 0.144E+04   0.116E+01 -.280E+01 -.144E+04   0.207E+00 0.389E+00 0.204E+01   0.831E-05 -.496E-05 0.198E-04
   -.995E+01 -.430E+01 0.142E+04   0.101E+02 0.438E+01 -.143E+04   -.217E+00 -.640E-01 0.262E+01   0.123E-04 0.829E-05 0.197E-04
   0.236E+02 -.153E+02 0.143E+04   -.232E+02 0.154E+02 -.143E+04   -.121E+01 -.951E-01 0.195E+01   0.171E-04 0.113E-04 0.217E-04
   -.180E+02 0.145E+02 0.146E+04   0.181E+02 -.145E+02 -.146E+04   0.149E+00 -.925E-02 0.233E+01   0.139E-04 0.476E-05 0.223E-04
   -.462E+01 -.447E+01 0.145E+04   0.442E+01 0.466E+01 -.146E+04   0.769E+00 -.734E+00 0.123E+01   -.254E-06 0.407E-05 0.676E-05
   0.732E+01 -.143E+02 0.144E+04   -.742E+01 0.146E+02 -.145E+04   0.104E+00 -.396E+00 0.196E+01   -.424E-05 0.167E-04 0.261E-05
   -.269E+02 0.179E+00 0.142E+04   0.269E+02 -.480E+00 -.143E+04   0.453E+00 0.847E+00 0.192E+01   0.105E-04 -.526E-05 0.125E-04
   -.148E+02 0.135E+02 0.145E+04   0.145E+02 -.138E+02 -.145E+04   0.100E+01 0.584E+00 0.144E+01   -.103E-04 -.224E-05 0.180E-04
   0.662E+01 0.116E+02 0.146E+04   -.670E+01 -.116E+02 -.146E+04   0.122E+00 -.975E-01 0.209E+01   0.836E-05 -.344E-05 0.980E-05
   -.158E+02 0.935E+01 -.141E+04   0.157E+02 -.928E+01 0.141E+04   0.391E+00 -.507E+00 -.199E+01   -.695E-05 0.522E-05 -.128E-04
   -.519E+02 0.167E+02 -.147E+04   0.516E+02 -.167E+02 0.147E+04   0.154E+01 -.425E+00 -.240E+01   -.488E-05 0.336E-05 -.128E-04
   0.199E+02 -.183E+02 -.143E+04   -.198E+02 0.183E+02 0.143E+04   -.614E+00 0.478E+00 -.152E+01   0.644E-05 -.132E-04 -.184E-04
   0.112E+02 -.681E+01 -.146E+04   -.113E+02 0.690E+01 0.146E+04   -.863E-01 -.108E+00 -.278E+01   -.526E-05 0.107E-05 -.390E-05
   0.209E+02 -.364E+02 -.146E+04   -.210E+02 0.359E+02 0.146E+04   -.149E+00 0.199E+01 -.131E+01   -.526E-05 0.645E-05 -.107E-06
   0.368E+01 -.508E+01 -.144E+04   -.390E+01 0.503E+01 0.145E+04   0.457E+00 0.336E+00 -.249E+01   -.455E-05 0.350E-05 -.109E-04
   -.222E+02 0.145E+02 -.142E+04   0.220E+02 -.146E+02 0.142E+04   0.657E+00 -.169E-01 -.159E+01   0.344E-05 -.370E-05 -.869E-05
   0.789E+01 0.816E+01 -.147E+04   -.800E+01 -.831E+01 0.147E+04   0.200E+00 0.376E+00 -.293E+01   0.605E-05 -.933E-05 -.121E-04
   0.530E+01 -.633E+01 -.150E+04   -.511E+01 0.638E+01 0.150E+04   -.463E+00 -.914E-01 -.275E+01   0.782E-05 -.106E-05 -.159E-04
   0.173E+02 -.259E+01 -.148E+04   -.172E+02 0.263E+01 0.148E+04   -.404E+00 0.697E-01 -.214E+01   -.492E-05 0.514E-05 -.974E-05
   -.520E+01 0.182E+02 -.143E+04   0.512E+01 -.180E+02 0.143E+04   0.483E+00 -.698E+00 -.223E+01   -.423E-05 0.598E-05 -.945E-05
   -.158E+02 0.721E+01 -.146E+04   0.159E+02 -.707E+01 0.146E+04   -.454E-01 -.472E+00 -.232E+01   0.852E-05 -.307E-05 -.107E-04
[...]
   -.180E+02 0.874E+01 -.105E+02   0.178E+02 -.863E+01 0.103E+02   0.625E-01 -.417E+00 0.539E+00   0.552E-05 -.820E-05 0.727E-07
   -.952E+01 0.526E+01 0.496E+02   0.926E+01 -.495E+01 -.499E+02   0.573E+00 -.659E+00 0.104E+01   -.374E-05 0.282E-05 0.410E-07
   0.832E+01 0.368E+01 0.399E+02   -.847E+01 -.367E+01 -.402E+02   0.356E+00 -.259E-01 0.698E+00   -.744E-05 0.387E-05 0.583E-05
   0.846E+01 0.133E+02 -.317E+02   -.842E+01 -.131E+02 0.321E+02   0.254E-01 -.289E+00 -.108E+01   -.135E-05 -.288E-05 0.794E-05
   -.271E+02 -.856E+01 0.209E+02   0.266E+02 0.828E+01 -.208E+02   0.141E+01 0.940E+00 -.537E+00   -.238E-05 -.227E-05 0.764E-05
   -.305E+02 -.840E+00 -.620E+01   0.302E+02 0.104E+01 0.670E+01   0.736E+00 -.819E+00 -.123E+01   0.400E-05 -.451E-05 0.145E-05
   0.116E+02 -.504E+01 -.382E+01   -.116E+02 0.491E+01 0.427E+01   0.220E+00 0.265E+00 -.948E+00   0.266E-05 -.223E-05 -.319E-05
   -.116E+02 0.901E+01 -.341E+02   0.117E+02 -.913E+01 0.345E+02   0.239E+00 0.100E+01 -.133E+01   -.562E-05 0.108E-05 0.230E-05
   -.107E+02 0.132E+02 0.206E+02   0.104E+02 -.130E+02 -.214E+02   0.527E+00 -.988E+00 0.178E+01   -.331E-06 -.102E-05 0.335E-05
   0.917E+01 -.135E+01 -.230E+02   -.909E+01 0.144E+01 0.234E+02   -.693E+00 -.177E+00 -.151E+01   -.176E-05 -.155E-05 0.652E-05
   -.264E+01 0.597E+01 0.580E+01   0.273E+01 -.580E+01 -.602E+01   -.179E+00 -.580E+00 0.717E+00   0.662E-05 0.230E-05 0.540E-05
   0.121E+02 -.108E+02 -.229E+02   -.124E+02 0.104E+02 0.226E+02   0.952E+00 0.984E+00 0.849E+00   0.824E-05 0.347E-05 -.349E-05
   0.880E+01 -.973E+00 -.306E+02   -.866E+01 0.116E+01 0.306E+02   -.752E+00 -.873E+00 -.255E-01   0.887E-06 0.677E-05 -.252E-05
   -.818E+01 0.206E+01 -.811E+01   0.789E+01 -.198E+01 0.836E+01   0.615E+00 -.500E+00 -.854E+00   0.266E-05 0.379E-05 0.210E-05
   -.121E+01 0.371E+00 0.532E+01   0.657E-13 0.853E-13 -.489E-11   0.122E+01 -.371E+00 -.533E+01   -.101E-05 -.149E-04 0.238E-03

 POSITION                                       TOTAL-FORCE (eV/Angst)
     -0.01951      1.95635     15.15864         0.642518      0.138110     -0.810030
     -1.60651      5.00164     15.21834        -0.892367     -0.531806     -0.621809
     -3.42201      8.02122     15.11345         0.184760     -0.587666      0.179201
     -5.12205     10.90901     15.02193        -0.609511      0.909538     -0.132046
      3.54786      1.97876     15.11378        -1.029646     -0.157926      0.242899
      1.75931      5.02433     15.09743        -0.265167     -0.429720      0.003359
     -0.01202      7.97148     15.08012        -0.121431      0.442466     -0.033996
     -1.72189     10.99584     15.14317         0.422048     -1.066838     -0.940823
      6.99041      1.96115     15.27266        -0.665470     -0.408702     -0.761375
      5.26518      4.93259     15.20262        -0.933894      0.215437      0.597993
      3.42282      8.14281     15.22844         0.096180     -0.333628     -0.447010
      1.67734     11.03454     15.29031        -0.130763     -0.460521     -0.823867
     10.38775      1.94457     15.23996         0.325553     -0.001409     -0.035785
      8.56069      5.01467     15.22738         1.121973     -0.342513     -0.055282
      7.01564      8.02806     15.09579        -0.985213      0.263968      0.421860
      5.23774     10.95012     15.03609         0.168571      0.409532      0.148405
      1.79848      1.12358     12.43720        -0.617200     -1.081793      1.482285
      0.00890      3.92721     12.62373        -0.103597      0.441687      0.619591
     -1.69557      6.88205     12.62024        -0.243572     -0.023457      0.579203
     -3.40299      9.87402     12.66777        -0.136894      0.761807     -0.353067
      5.05146      0.98095     12.53761         1.160356     -0.130701      0.688676
      3.39893      3.94766     12.66951         0.303387      0.874959      0.065101
      1.82236      7.04297     12.61346        -0.328134     -0.463782      0.010808
      0.13205      9.89788     12.53389        -1.181823      0.654191      1.751595
      8.68862      0.99794     12.68717        -0.794663      0.476162      0.840328
      6.76323      4.06120     12.74797         0.948321     -1.423482      0.099368
      5.16911      7.01860     12.85731        -0.656883     -0.098086     -0.856819
      3.40907     10.05037     12.64314         0.511013     -0.128459      0.583093
     12.18849      1.01616     12.56651        -0.556535     -0.202234      0.682998
     10.29851      3.82822     12.91115         0.348557      1.078284     -1.223320
      8.63773      6.81287     12.67001         0.208293      0.394779      0.035520
      6.94669      9.83569     12.46942        -0.452636      1.084940      0.914524
      0.00488      1.99043     10.85188        -0.155855      0.330847     -0.058119
     -1.75632      4.92563     11.05342        -0.098370      0.011753     -0.156171
     -3.50077      7.90893     11.11814        -0.089476     -0.056189     -0.901414
     -5.44887     11.08306     10.86983         0.931773     -0.478996     -0.376416
      3.47524      2.12432     10.73120         0.156131     -0.377431      0.675157
      1.75835      4.79945     10.90196        -0.144903      0.805610      0.292541
     -0.12140      8.07554     10.79588         0.287855     -0.485352      0.608892
     -1.81691     10.88015     10.96325         0.145495      0.247036     -0.098138
      6.85934      2.00452     10.97399        -0.107120      0.016396      0.428088
      5.30095      5.03074     11.05715        -0.840793     -0.051613     -0.028560
      3.32771      8.06802     10.90229         0.196908     -0.068975      0.301226
      1.57701     11.13634     11.01335         0.571134     -0.538011     -0.691624
     10.34221      2.06363     11.03803         0.000203     -0.137765     -0.117270
      8.54589      4.77177     11.11942         0.431334      0.546677     -0.134454
      6.69715      7.79749     11.05022         0.670150      0.342680     -0.532427
      5.06031     10.96088     10.92649         0.035334     -0.082411     -0.071126
      1.72009      1.04057     16.72254         0.316397     -0.442382      0.147927
     -0.15672      4.03056     16.94112         1.169818     -0.333991     -0.358287
     -1.65919      6.96881     16.71206        -0.509646      0.422956      0.581857
     -3.49826      9.93737     16.89070        -0.129237     -0.021026     -0.589234
      5.23562      0.70690     16.83789        -0.244295      1.490869      0.684921
      3.40069      3.92357     16.85240         0.238882      0.286245     -0.291683
      1.61499      6.98039     16.70546         0.490516     -0.079753      0.504335
     -0.00971      9.85046     16.96886         0.091463      0.220257     -0.689314
      8.75604      1.04927     17.06532        -0.265918     -0.047706     -0.596315
      6.95646      3.95723     16.93005        -0.294866      0.108681     -0.034835
      5.04196      7.05972     16.81199         0.404232     -0.499840     -0.047990
      3.45976     10.11514     16.88441         0.088850     -0.334941     -0.191657
[...]
     -1.64646      2.93184     13.89152        -0.449718      0.150590      0.449490
     10.30139      5.98088     13.91226        -0.111402     -0.303829      0.329749
      8.56379      8.99804     13.76038         0.314720     -0.345916      0.769102
      3.42588      0.02529     13.73846         0.208939     -0.017877      0.465869
      1.77240      3.03825     13.92267         0.059157     -0.056150     -0.716212
     -0.09746      5.91306     13.90299         0.889386      0.652814     -0.448017
     -1.80256      9.01677     13.97333         0.469887     -0.615745     -0.729614
      0.00520     11.91466     14.02160         0.243920      0.128265     -0.491279
      5.17186      2.93560     14.04430         0.282984      0.888109     -0.863522
      3.37951      6.07022     13.75763         0.183531     -0.706627      1.057254
      1.75718      9.02941     13.98360        -0.610915     -0.087302     -1.095189
     10.38042      0.07670     13.85743        -0.086833     -0.409705      0.500574
      8.55065      2.88630     13.98279         0.703256      0.635444      0.565756
      6.93402      6.01932     13.99689        -0.612690     -0.687178      0.017480
      5.11160      9.03026     13.95297         0.332243     -0.413850     -0.599021
    total drift:                                0.007042     -0.000498     -0.003905

  FREE ENERGIE OF THE ION-ELECTRON SYSTEM (eV)
  free  energy   TOTEN  =      -525.39446137 eV

  energy  without entropy=     -525.39446137  energy(sigma->0) =     -525.39446137