 vasp.5.4.4.18Apr17-6-g9f103f2a35 (build Mar 16 2023 09:39:13) complex

 executed on             LinuxIFC date 2024.04.30  09:47:19

 INCAR:
 POTCAR:    PAW_PBE Ca_sv 06Sep2000
 POTCAR:    PAW_PBE Si 05Jan2001
 POTCAR:    PAW_PBE O 08Apr2002
 POTCAR:    PAW_PBE Ca_sv 06Sep2000
   VRHFIN =Ca: 3s3p4s

   TITEL  = PAW_PBE Ca_sv 06Sep2000
   POMASS =   40.078; ZVAL   =   10.000    mass and valenz
   ENMAX  =  266.622; ENMIN  =  199.967 eV

   TITEL  = PAW_PBE Si 05Jan2001
   POMASS =   28.085; ZVAL   =    4.000    mass and valenz
   ENMAX  =  245.345; ENMIN  =  184.009 eV

   TITEL  = PAW_PBE O 08Apr2002
   POMASS =   16.000; ZVAL   =    6.000    mass and valenz
   ENMAX  =  400.000; ENMIN  =  300.000 eV

 Optimization of the real space projectors (new method)

 maximal supplied QI-value         = 16.25
 optimisation between [QCUT,QGAM] = [ 12.51, 25.03] = [ 43.85,175.40] Ry
 Optimized for a Real-space Cutoff    1.47 Angstroem

   l    n(q)    QCUT    max X(q) W(low)/X(q) W(high)/X(q)  e(spline)
   0     11    12.514    11.817    0.25E-04    0.32E-05    0.87E-07
   0     11    12.514     8.461    0.39E-04    0.59E-05    0.18E-06
   1     11    12.514     3.957    0.97E-05    0.57E-05    0.28E-07
   1     11    12.514     4.314    0.42E-04    0.14E-04    0.23E-06
   2     10    12.514    14.565    0.79E-04    0.50E-03    0.16E-05
   2     10    12.514    14.552    0.75E-04    0.48E-03    0.15E-05
 Optimization of the real space projectors (new method)

[...]

   l    n(q)    QCUT    max X(q) W(low)/X(q) W(high)/X(q)  e(spline)
   0      9    12.501   159.560    0.10E-03    0.83E-04    0.71E-07
   0      9    12.501   115.863    0.99E-04    0.81E-04    0.70E-07
   1      8    12.501    88.339    0.20E-03    0.25E-03    0.76E-07
   1      8    12.501    48.592    0.20E-03    0.24E-03    0.75E-07
 Optimization of the real space projectors (new method)

 maximal supplied QI-value         = 24.76
 optimisation between [QCUT,QGAM] = [ 12.38, 25.00] = [ 42.90,175.06] Ry
 Optimized for a Real-space Cutoff    1.16 Angstroem

   l    n(q)    QCUT    max X(q) W(low)/X(q) W(high)/X(q)  e(spline)
   0      9    12.378    20.381    0.16E-03    0.67E-05    0.31E-06
   0      9    12.378    15.268    0.17E-03    0.81E-05    0.33E-06
   1      8    12.378     5.964    0.20E-03    0.16E-03    0.30E-06
   1      8    12.378     5.382    0.18E-03    0.14E-03    0.26E-06
  PAW_PBE Ca_sv 06Sep2000               :
  PAW_PBE Si 05Jan2001                  :
  PAW_PBE O 08Apr2002                   :

 POSCAR: Ca Si  O
  positions in direct lattice
 exchange correlation table for  LEXCH =        8
   RHO(1)=    0.500       N(1)  =     2000
   RHO(2)=  100.500       N(2)  =     4000

 ion  position               nearest neighbor table
   1  0.959  0.618  0.776- 105 2.24 110 2.34
   2  0.701  0.496  0.895-  72 2.40  85 2.42 128 2.52 121 2.54  37 2.92  40 3.02
   3  0.601  0.002  0.393-
   4  0.543  0.438  0.107- 112 2.23  94 2.24 109 2.28 128 2.53
   5  0.327  0.160  0.534- 100 2.22 101 2.30  97 2.32  58 2.48  90 2.52  48 3.12
   6  0.965  0.721  0.226- 124 2.15 120 2.26 111 2.33   8 3.02
   7  0.076  0.491  0.259- 126 2.20  69 2.24  67 2.25 103 2.54  43 2.77
   8  0.163  0.749  0.118- 111 2.03 113 2.10 126 2.33  35 2.99   6 3.02
   9  0.359  0.549  0.413- 108 2.23  99 2.39  38 3.14
  10  0.783  0.803  0.941-  71 2.29  57 2.42  86 2.54
  11  0.945  0.194  0.497-  80 2.17 102 2.25  77 2.34  63 2.46 123 2.51  49 2.82  46 2.94
  12  0.875  0.189  0.227-  80 1.90  70 2.18  61 2.21  49 2.86
  13  0.903  0.374  0.027-  93 2.30  72 2.31  60 2.34 106 2.49
  14  0.382  0.588  0.910-  55 2.20  78 2.50  30 3.15
  15  0.793  0.938  0.687-  82 2.21  86 2.38  62 2.57  51 2.97  31 3.06
  16  0.620  0.144  0.170- 127 2.01  61 2.23 109 2.27  92 2.34  44 3.03
  17  0.555  0.489  0.607-  99 2.18  81 2.39 121 2.56
  18  0.299  0.978  0.967-  66 2.22 119 2.30  56 2.40  53 3.00
  19  0.908  0.528  0.547- 103 2.24 105 2.28 116 2.50  50 3.16
  20  0.135  0.277  0.937-  84 2.12 106 2.51 118 2.56  28 2.88
  21  0.603  0.625  0.280- 104 2.05  65 2.48 112 2.51
  22  0.856  0.166  0.871-  60 2.12  74 2.13  64 2.31 106 2.54  44 3.13
  23  0.688  0.756  0.491-  62 2.24 131 2.28  95 2.33  51 3.05
  24  0.512  0.844  0.738-  88 2.06  62 2.28  78 2.37  53 2.95
  25  0.393  0.244  0.873- 118 2.18  68 2.31  66 2.55  37 2.72  53 3.06
  26  0.215  0.209  0.218-  67 2.07  84 2.31  70 2.56  58 2.57  43 2.95  28 3.01
  27  0.096  0.032  0.362-  96 1.98 129 2.23  63 2.32  47 2.78
  28  0.057  0.131  0.076- 106 1.65  84 1.67  70 1.67 134 1.69  20 2.88  26 3.01
  29  0.220  0.419  0.744- 118 1.60  87 1.65  79 1.68  76 1.85  46 2.99
  30  0.365  0.630  0.678-  78 1.56  98 1.67  99 1.74  76 1.78  41 3.09  14 3.15
  31  0.715  0.144  0.623- 135 1.52  64 1.57 102 1.70 125 1.77  48 3.05  15 3.06  49 3.11
  32  0.985  0.373  0.749-  74 1.59  79 1.68 105 1.75 123 1.76  46 2.99
  33  0.461  0.818  0.298-  83 1.62  75 1.63 104 1.73  95 1.77  36 2.78
  34  0.001  0.896  0.009- 107 1.58  57 1.60 111 1.62 134 1.80
  35  0.126  0.556  0.009- 126 1.64  93 1.64  55 1.72 132 2.23   8 2.99
  36  0.455  0.967  0.151- 119 1.61  75 1.62 127 1.65 130 1.79  33 2.78
  37  0.545  0.366  0.812- 121 1.59 128 1.71  68 1.73 114 1.77  48 2.69  25 2.72   2 2.92  44 3.05

  38  0.381  0.607  0.185- 108 1.54 113 1.61  94 1.64 104 2.48   9 3.14
  39  0.135  0.779  0.839-  56 1.59 132 1.66 115 1.66 107 1.88
  40  0.772  0.583  0.092- 112 1.52  71 1.59  72 1.71 120 1.84   2 3.02
  41  0.144  0.673  0.620- 110 1.52  98 1.62 122 1.65 115 1.83  30 3.09
  42  0.867  0.938  0.453-  82 1.55 131 1.60  63 1.75  89 2.03
  43  0.166  0.349  0.382-  67 1.62  58 1.68  69 1.69  77 1.78   7 2.77  46 2.94  26 2.95
  44  0.661  0.249  0.972- 114 1.53 109 1.64  60 1.65  92 1.67  16 3.03  37 3.05  22 3.13  54 3.14

[...]

  54  0.572  0.033  0.940-  59 1.57  73 1.61  92 1.73 130 1.76  53 3.08  44 3.14
  55  0.254  0.574  0.014-  35 1.72  14 2.20
  56  0.221  0.860  0.855-  39 1.59  18 2.40
  57  0.890  0.941  0.989-  34 1.60  10 2.42
  58  0.261  0.267  0.397-  43 1.68   5 2.48  26 2.57
  59  0.493  0.072  0.861-  54 1.57  53 1.67
  60  0.776  0.284  0.945-  44 1.65  22 2.12  13 2.34
  61  0.730  0.150  0.297-  49 1.68  12 2.21  16 2.23
  62  0.653  0.811  0.647-  51 1.86  23 2.24  24 2.28  15 2.57
  63  0.925  0.042  0.394-  42 1.75  27 2.32  11 2.46
  64  0.790  0.139  0.713-  31 1.57  22 2.31
  65  0.560  0.446  0.312-  45 1.62  21 2.48
  66  0.302  0.079  0.835-  53 1.69  18 2.22  25 2.55
  67  0.132  0.331  0.267-  43 1.62  26 2.07   7 2.25
  68  0.447  0.332  0.734-  37 1.73  48 1.80  25 2.31
  69  0.162  0.475  0.402-  43 1.69   7 2.24
  70  0.032  0.152  0.198-  28 1.67  12 2.18  26 2.56
  71  0.754  0.699  0.076-  40 1.59  10 2.29
  72  0.844  0.535  0.997-  40 1.71  13 2.31   2 2.40
  73  0.647  0.947  0.901-  54 1.61
  74  0.946  0.291  0.826-  32 1.59  22 2.13
  75  0.493  0.857  0.186-  36 1.62  33 1.63
  76  0.312  0.523  0.739-  30 1.78  29 1.85
  77  0.084  0.298  0.474-  46 1.62  43 1.78  11 2.34
  78  0.410  0.699  0.761-  30 1.56  24 2.37  14 2.50
  79  0.101  0.408  0.784-  32 1.68  29 1.68
  80  0.868  0.238  0.360-  49 1.64  12 1.90  11 2.17
  81  0.688  0.465  0.488-  45 1.71  17 2.39
  82  0.883  0.988  0.557-  42 1.55  15 2.21
  83  0.373  0.896  0.332-  33 1.62  47 1.67
  84  0.173  0.175  0.053-  28 1.67  20 2.12  26 2.31
  85  0.686  0.644  0.790-  51 1.63   2 2.42
  86  0.851  0.787  0.763-  51 1.84  15 2.38  10 2.54
  87  0.205  0.384  0.626-  29 1.65  46 1.75
  88  0.383  0.930  0.738-  53 1.53  24 2.06
  89  0.970  0.829  0.426-  52 1.64  42 2.03
  90  0.421  0.137  0.696-  53 1.74  48 1.77   5 2.52
  91  0.772  0.608  0.395-  50 1.54
  92  0.641  0.128  0.996-  44 1.67  54 1.73  16 2.34
  93  0.055  0.456  0.018-  35 1.64  13 2.30
  94  0.464  0.585  0.097-  38 1.64   4 2.24
  95  0.575  0.804  0.366-  33 1.77  23 2.33
  96  0.239  0.043  0.322-  47 1.60  27 1.98
  97  0.180  0.192  0.623-  46 1.58   5 2.32
  98  0.264  0.688  0.631-  41 1.62  30 1.67
  99  0.431  0.590  0.572-  30 1.74  17 2.18   9 2.39
 100  0.469  0.245  0.553-  48 1.58   5 2.22
 101  0.342  0.990  0.505-  47 1.63   5 2.30
 102  0.777  0.176  0.517-  49 1.61  31 1.70  11 2.25
 103  0.930  0.507  0.381-  50 1.63  19 2.24   7 2.54
 104  0.471  0.691  0.325-  33 1.73  21 2.05  38 2.48
 105  0.909  0.473  0.708-  32 1.75   1 2.24  19 2.28
 106  0.979  0.203  0.012-  28 1.65  13 2.49  20 2.51  22 2.54
 107  0.027  0.841  0.907-  34 1.58  39 1.88
 108  0.362  0.512  0.250-  38 1.54   9 2.23
 109  0.630  0.292  0.084-  44 1.64  16 2.27   4 2.28
 110  0.065  0.593  0.638-  41 1.52   1 2.34
 111  0.031  0.825  0.102-  34 1.62   8 2.03   6 2.33
 112  0.679  0.532  0.135-  40 1.52   4 2.23  21 2.51
 113  0.299  0.695  0.176-  38 1.61   8 2.10
[...]
 121  0.642  0.390  0.747-  37 1.59   2 2.54  17 2.56
 122  0.096  0.718  0.515-  52 1.59  41 1.65
 123  0.005  0.304  0.638-  46 1.68  32 1.76  11 2.51
 124  0.096  0.718  0.320-  52 1.74   6 2.15
 125  0.630  0.228  0.682-  48 1.66  31 1.77
 126  0.101  0.586  0.125-  35 1.64   7 2.20   8 2.33
 127  0.518  0.046  0.223-  36 1.65  16 2.01
 128  0.523  0.435  0.918-  37 1.71   2 2.52   4 2.53
 129  0.180  0.893  0.404-  47 1.75  52 1.79  27 2.23
 130  0.491  0.969  0.022-  54 1.76  36 1.79
 131  0.770  0.883  0.410-  42 1.60  23 2.28
 132  0.153  0.664  0.884-  39 1.66  35 2.23
 133  0.750  0.435  0.295-  45 1.67  50 1.68
 134  0.068  0.009  0.041-  28 1.69  34 1.80
 135  0.648  0.054  0.600-  31 1.52

IMPORTANT INFORMATION: All symmetrisations will be switched off!
NOSYMM: (Re-)initialisation of all symmetry stuff for point group C_1.

Automatic generation of k-mesh.
 generate k-points for:    2    2    2
Space group operators:
 irot       det(A)        alpha          n_x          n_y          n_z        tau_x        tau_y        tau_z
    1     1.000000     0.000001     1.000000     0.000000     0.000000     0.000000     0.000000     0.000000

 Subroutine IBZKPT returns following result:

 Found      8 irreducible k-points:

 Following reciprocal coordinates:
            Coordinates               Weight
  0.000000  0.000000  0.000000      1.000000
  0.500000  0.000000  0.000000      1.000000
  0.000000  0.500000  0.000000      1.000000
  0.500000  0.500000  0.000000      1.000000
  0.000000  0.000000  0.500000      1.000000
  0.500000  0.000000  0.500000      1.000000
  0.000000  0.500000  0.500000      1.000000
  0.500000  0.500000  0.500000      1.000000

 Following cartesian coordinates:
            Coordinates               Weight
  0.000000  0.000000  0.000000      1.000000
  0.037563  0.000000  0.000000      1.000000
  0.000000  0.037563  0.000000      1.000000
  0.037563  0.037563  0.000000      1.000000
  0.000000  0.000000  0.037563      1.000000
  0.037563  0.000000  0.037563      1.000000
  0.000000  0.037563  0.037563      1.000000
  0.037563  0.037563  0.037563      1.000000

 SYSTEM =  unknown system
 POSCAR =  Ca Si  O

 Startparameter for this run:
   NWRITE =      2    write-flag & timer
   PREC   = a         normal or accurate (medium, high low for compatibility)
   ISTART =      0    job   : 0-new  1-cont  2-samecut
[...]
     0.000000000  0.000000000 13.310935620     0.000000000  0.000000000  0.075126199

  length of vectors
    13.310935620 13.310935620 13.310935620     0.075126199  0.075126199  0.075126199

 FORCES acting on ions
    electron-ion (+dipol)            ewald-force                    non-local-force                 convergence-correction
   0.958E+01 -.140E+03 -.196E+03   -.907E+01 0.140E+03 0.188E+03   -.322E+00 0.126E+01 0.673E+01   -.333E-03 0.545E-03 -.156E-03
   0.479E+01 -.163E+03 0.366E+02   -.419E+01 0.165E+03 -.408E+02   -.380E+00 -.175E+01 0.254E+01   -.107E-03 -.280E-03 0.120E-03
   0.101E+03 -.169E+02 -.176E+02   -.995E+02 0.126E+02 0.170E+02   -.124E+01 0.311E+01 0.858E+00   -.444E-03 0.576E-04 -.125E-02
   0.250E+03 0.142E+03 -.599E+02   -.246E+03 -.137E+03 0.619E+02   -.380E+01 -.407E+01 -.730E+00   -.997E-03 -.875E-03 0.926E-03
   -.717E+00 0.110E+03 0.120E+03   0.443E+00 -.110E+03 -.118E+03   -.280E+00 -.608E+00 -.144E+01   0.604E-03 0.372E-03 -.408E-03
   0.195E+03 -.222E+03 -.241E+01   -.193E+03 0.222E+03 0.340E+01   -.330E+01 0.107E+01 -.722E+00   -.218E-03 -.353E-03 -.955E-04
   -.306E+02 -.220E+01 0.457E+02   0.334E+02 0.316E+01 -.423E+02   -.305E+01 0.138E+00 -.270E+01   0.754E-03 0.203E-03 0.554E-03
   -.152E+03 -.201E+03 0.489E+02   0.154E+03 0.197E+03 -.456E+02   0.753E+00 0.303E+01 -.284E+01   0.998E-03 0.663E-03 -.149E-04
   0.562E+02 0.129E+02 -.950E+02   -.567E+02 -.129E+02 0.906E+02   -.227E+00 -.853E-01 0.367E+01   0.969E-05 -.108E-02 -.244E-02
   0.109E+03 -.808E+02 -.930E+02   -.107E+03 0.835E+02 0.952E+02   -.174E+01 -.156E+01 -.188E+01   -.492E-03 0.101E-02 0.973E-04
   -.143E+03 0.107E+03 -.188E+03   0.140E+03 -.107E+03 0.185E+03   0.291E+01 -.459E+00 0.340E+01   -.301E-04 0.613E-03 -.138E-03
   0.345E+02 0.126E+03 0.285E+03   -.304E+02 -.130E+03 -.279E+03   -.307E+01 0.176E+01 -.871E+01   -.226E-03 -.559E-03 0.237E-03
   -.118E+02 0.282E+01 -.141E+03   0.140E+02 -.172E+00 0.134E+03   -.134E+01 -.226E+01 0.523E+01   -.156E-03 0.126E-03 -.443E-03
   -.122E+03 -.136E+03 -.418E+02   0.117E+03 0.136E+03 0.440E+02   0.418E+01 0.328E+00 -.164E+01   -.245E-03 -.354E-03 0.187E-02
   -.116E+03 -.106E+02 -.155E+03   0.118E+03 0.111E+02 0.151E+03   -.204E+01 0.247E+00 0.380E+01   -.753E-03 -.284E-03 0.752E-03
   0.700E+02 0.653E+02 -.650E+02   -.706E+02 -.649E+02 0.664E+02   0.167E+01 0.860E+00 -.164E+01   -.194E-02 -.540E-03 -.187E-03
   0.168E+02 -.747E+02 0.381E+02   -.129E+02 0.740E+02 -.414E+02   -.154E+01 -.549E+00 0.272E+01   0.115E-02 -.131E-02 -.610E-03
   0.931E+02 0.821E+02 -.522E+02   -.953E+02 -.827E+02 0.502E+02   0.799E+00 -.281E+00 0.192E+01   0.796E-03 0.732E-03 0.152E-02
   0.177E+02 -.330E+01 0.387E+02   -.183E+02 0.578E+01 -.383E+02   0.113E+00 -.140E+01 -.412E+00   -.175E-03 0.372E-03 -.563E-03
   -.133E+03 0.546E+02 0.273E+02   0.131E+03 -.548E+02 -.269E+02   0.853E+00 0.150E+01 -.200E+01   0.127E-02 -.884E-03 0.737E-03
   -.347E+02 -.163E+03 0.532E+02   0.336E+02 0.161E+03 -.525E+02   0.299E+01 0.976E+00 -.128E+01   -.299E-03 0.352E-03 -.256E-03
   -.959E+02 0.393E+03 0.344E+02   0.971E+02 -.387E+03 -.377E+02   -.396E+00 -.720E+01 0.229E+01   -.118E-02 -.741E-03 0.295E-03
   0.735E+02 0.156E+02 -.735E+01   -.714E+02 -.129E+02 0.428E+01   -.123E+01 -.340E+01 0.156E+01   0.680E-03 -.485E-04 -.815E-03
   -.139E+02 0.620E+02 -.173E+02   0.108E+02 -.635E+02 0.157E+02   0.379E+01 -.116E+00 0.178E+01   0.933E-03 0.220E-02 0.105E-02
   0.149E+03 0.262E+02 -.337E+03   -.154E+03 -.287E+02 0.329E+03   0.337E+01 0.626E+00 0.713E+01   0.159E-03 -.158E-02 0.105E-02
   -.368E+03 0.186E+02 0.957E+02   0.364E+03 -.184E+02 -.929E+02   0.531E+01 -.169E+01 -.203E+01   0.205E-02 -.111E-03 -.492E-03
   0.747E+02 0.550E+02 -.509E+02   -.759E+02 -.581E+02 0.491E+02   -.246E+01 0.286E+01 0.153E+01   0.678E-03 0.619E-03 -.916E-03
   0.161E+02 0.935E+02 0.199E+02   -.158E+02 -.912E+02 -.190E+02   -.152E+00 -.435E+01 -.336E+00   0.693E-03 -.264E-03 0.110E-04
   -.319E+02 -.905E+02 -.994E+01   0.321E+02 0.770E+02 0.746E+01   0.961E+00 0.139E+02 0.112E+00   -.882E-04 -.291E-03 0.491E-04
   -.348E+02 -.274E+02 0.446E+02   0.350E+02 0.337E+02 -.418E+02   -.279E+01 -.838E+01 -.569E+01   -.240E-03 -.161E-03 0.136E-03
   0.117E+01 -.261E+02 0.204E+02   -.384E+01 0.139E+02 -.131E+02   0.182E+01 0.151E+02 -.549E+01   -.332E-03 0.625E-04 0.257E-04
   0.351E+02 -.251E+01 0.429E+01   -.382E+02 -.167E+01 -.208E+01   0.178E+01 0.496E+01 -.536E+01   0.172E-04 0.174E-03 -.190E-03
   0.381E+02 -.325E+01 -.222E+02   -.331E+02 0.408E+01 0.227E+02   -.233E+01 -.357E+01 0.194E+01   0.114E-03 0.184E-03 -.750E-03
   0.137E+02 -.534E+02 -.381E+01   -.207E+02 0.506E+02 0.130E+01   0.677E+01 0.590E+01 0.349E+01   0.133E-03 0.873E-04 -.538E-05
   -.269E+01 -.113E+02 0.108E+03   0.634E+01 0.651E+01 -.941E+02   -.215E+00 0.509E+01 -.125E+02   0.145E-03 0.245E-03 0.116E-03
   -.197E+02 -.256E+02 0.154E+02   0.121E+02 0.233E+02 -.138E+02   0.588E+01 0.245E+01 -.383E+01   -.145E-03 0.232E-03 -.181E-03
   0.512E+02 -.700E+02 0.124E+01   -.412E+02 0.742E+02 -.425E+01   -.802E+01 -.377E+01 0.465E+01   -.912E-07 -.545E-03 0.212E-03
   -.354E+01 -.398E+02 0.179E+02   -.227E+01 0.351E+02 -.183E+02   0.475E+01 0.705E+01 -.147E+01   0.542E-04 -.252E-05 0.111E-03
   0.219E+02 -.716E+02 0.112E+02   -.116E+02 0.747E+02 -.126E+02   -.108E+02 -.794E+00 0.136E+01   -.138E-03 0.249E-03 0.481E-03
   -.244E+02 -.472E+02 0.389E+02   0.165E+02 0.536E+02 -.378E+02   0.131E+02 -.310E+01 -.377E+00   -.194E-03 0.292E-03 0.231E-03
   -.775E+02 -.623E+02 0.330E+02   0.686E+02 0.583E+02 -.315E+02   0.833E+01 0.975E+01 -.247E+00   -.425E-03 -.121E-03 0.330E-04
   -.257E+02 0.722E+02 0.506E+02   0.221E+02 -.653E+02 -.443E+02   0.777E+01 -.645E+01 -.952E+01   -.318E-03 -.199E-03 -.607E-04
   -.728E+02 -.180E+02 -.243E+02   0.770E+02 0.188E+02 0.200E+02   -.233E+01 -.816E+00 0.684E+01   0.303E-03 -.600E-04 -.206E-03
   -.288E+02 0.278E+02 -.411E+02   0.267E+02 -.251E+02 0.419E+02   0.435E+01 -.256E+01 0.274E+01   -.503E-03 -.376E-03 0.846E-04
   0.821E+02 0.348E+02 -.169E+02   -.835E+02 -.319E+02 0.182E+02   0.154E+01 -.352E-01 0.612E+00   -.298E-03 -.689E-04 -.128E-03
   -.245E+02 0.331E+02 -.229E+02   0.282E+02 -.417E+02 0.242E+02   -.136E+01 0.967E+01 0.821E+00   0.120E-03 0.216E-03 -.295E-03
   -.469E+02 0.339E+02 -.596E+02   0.484E+02 -.279E+02 0.626E+02   -.774E+00 -.806E+01 -.199E+01   0.382E-03 0.261E-03 -.702E-03
   -.133E+02 0.279E+02 0.417E+02   0.131E+02 -.291E+02 -.559E+02   -.757E+00 -.768E+00 0.118E+02   0.324E-05 -.302E-03 0.170E-03
   0.988E+02 0.183E+02 -.716E+01   -.954E+02 -.155E+02 0.397E+01   -.485E+01 -.849E+00 0.424E+00   -.485E-03 0.451E-04 0.770E-06
   -.315E+02 -.242E+01 0.509E+02   0.309E+02 0.643E+01 -.394E+02   0.226E+01 -.439E+01 -.134E+02   -.104E-03 0.179E-03 0.844E-04
   0.732E+02 -.514E+02 -.291E+02   -.655E+02 0.415E+02 0.285E+02   -.525E+01 0.997E+01 0.103E+01   0.272E-03 0.216E-03 0.307E-05
   -.658E+02 -.660E+02 -.372E+02   0.596E+02 0.580E+02 0.364E+02   0.634E+01 0.674E+01 -.293E+01   -.161E-03 -.782E-04 -.324E-03
   0.120E+02 0.708E+02 0.566E+02   -.218E+02 -.758E+02 -.572E+02   0.604E+01 0.109E+02 0.338E+00   0.971E-04 0.318E-03 0.471E-03
   -.435E+02 0.594E+02 -.569E+02   0.454E+02 -.690E+02 0.511E+02   0.227E-01 0.571E+01 0.824E+01   -.208E-03 -.122E-03 0.270E-03
   -.832E+02 0.592E+02 -.203E+02   0.102E+03 -.544E+02 0.278E+02   -.200E+02 -.675E+01 -.861E+01   0.928E-04 0.136E-03 0.906E-03
   -.403E+02 -.772E+02 0.583E+02   0.612E+02 0.975E+02 -.615E+02   -.203E+02 -.205E+02 0.502E+01   0.502E-03 0.105E-02 0.889E-03
   0.127E+03 -.963E+02 -.331E+02   -.151E+03 0.111E+03 0.292E+02   0.229E+02 -.154E+02 0.407E+01   -.907E-03 0.540E-04 -.240E-03
   -.225E+03 0.144E+02 0.390E+02   0.244E+03 -.287E+02 -.356E+02   -.200E+02 0.153E+02 -.378E+01   0.810E-03 -.320E-04 -.579E-03
   -.338E+02 0.672E+02 -.151E+02   0.298E+02 -.499E+02 0.929E+01   0.376E+01 -.164E+02 0.482E+01   0.102E-03 0.749E-04 0.338E-03
   -.181E+02 -.678E+01 -.165E+02   0.390E+02 0.164E+02 0.946E+01   -.227E+02 -.904E+01 0.815E+01   -.631E-03 0.124E-03 -.231E-03
[...]
   -.401E+02 -.654E+02 -.215E+01   0.259E+02 0.516E+02 0.218E+01   0.163E+02 0.140E+02 0.125E+01   -.685E-03 -.432E-03 -.350E-03
   0.829E+02 0.977E+02 -.259E+02   -.103E+03 -.105E+03 0.195E+02   0.198E+02 0.802E+01 0.755E+01   -.698E-04 0.576E-03 -.411E-03
   -.127E+03 -.344E+01 -.470E+02   0.134E+03 -.117E+02 0.358E+02   -.723E+01 0.169E+02 0.119E+02   0.226E-03 -.504E-03 -.440E-03
   -.606E+02 0.584E+01 0.415E+02   0.783E+02 0.774E+01 -.259E+02   -.191E+02 -.146E+02 -.169E+02   -.230E-03 -.320E-03 -.939E-04
   -.203E+01 -.189E+01 -.731E+01   -.890E+00 0.401E+01 0.287E+02   0.196E+01 0.850E+00 -.212E+02   0.102E-03 0.549E-03 0.451E-03
   0.642E+02 -.498E+02 -.833E+02   -.589E+02 0.618E+02 0.992E+02   -.620E+01 -.127E+02 -.152E+02   -.911E-03 -.149E-03 0.237E-03
   0.123E+03 -.126E+03 -.734E+02   -.128E+03 0.136E+03 0.916E+02   0.405E+01 -.997E+01 -.198E+02   -.114E-03 -.417E-03 0.667E-03
   -.456E+02 0.928E+02 -.106E+03   0.454E+02 -.935E+02 0.103E+03   -.113E+01 -.857E+00 0.521E+01   0.255E-03 -.369E-03 -.728E-03
   -.358E+02 0.138E+03 -.148E+02   0.282E+02 -.153E+03 0.821E+01   0.874E+01 0.169E+02 0.729E+01   -.325E-03 0.267E-03 0.201E-03
   0.141E+02 0.523E+01 0.163E+03   -.345E+02 -.191E+02 -.179E+03   0.198E+02 0.147E+02 0.166E+02   -.696E-03 -.487E-03 -.253E-03
   -.237E+02 0.571E+01 -.745E+01   0.363E+02 -.251E+02 0.955E+01   -.148E+02 0.180E+02 -.714E+00   -.654E-03 0.837E-05 0.778E-03
   -.362E+02 0.112E+03 0.928E+02   0.380E+02 -.126E+03 -.116E+03   -.250E+00 0.138E+02 0.237E+02   -.271E-03 0.968E-04 0.121E-03
   -.289E+02 0.526E+02 0.423E+02   0.418E+02 -.610E+02 -.440E+02   -.132E+02 0.875E+01 0.155E+01   0.102E-02 -.443E-03 0.366E-05
   0.156E+03 0.155E+03 0.499E+02   -.180E+03 -.181E+03 -.541E+02   0.214E+02 0.221E+02 0.215E+01   -.673E-03 -.292E-03 0.870E-04
   -.431E+02 -.104E+03 -.223E+02   0.114E-12 0.568E-13 0.497E-13   0.431E+02 0.104E+03 0.223E+02   -.313E-02 -.189E-02 -.892E-03

 POSITION                                       TOTAL-FORCE (eV/Angst)
     12.76923      8.22933     10.33169         0.193967      1.211221     -1.217937
      9.33594      6.59802     11.90669         0.213852      0.840966     -1.662633
      8.00210      0.02114      5.23316         0.479882     -1.183021      0.268578
      7.23323      5.82419      1.41819         0.017018      0.487388      1.276154
      4.34632      2.13244      7.10712        -0.553750      0.284862      0.120618
     12.84919      9.59981      3.01461        -0.768285      0.599733      0.271889
      1.01232      6.52939      3.44240        -0.219805      1.099077      0.766688
      2.16583      9.96833      1.57285         2.637862     -1.002954      0.508683
      4.78521      7.31388      5.49756        -0.719081     -0.110988     -0.734655
     10.41879     10.68672     12.52280         0.115453      1.203495      0.341929
     12.57331      2.58145      6.62063         0.398237     -1.141138      0.842772
     11.64855      2.51328      3.01618         1.034144     -1.841083     -2.618184
     12.02059      4.97904      0.35823         0.798232      0.382239     -1.137549
      5.08975      7.83027     12.11671        -0.508410      0.160204      0.567720
     10.55286     12.48310      9.14707         0.108029      0.728959     -0.022047
      8.25631      1.92287      2.26551         1.017371      1.287983     -0.148557
      7.38581      6.50329      8.07693         2.326527     -1.282076     -0.520221
      3.98343     13.01720     12.87205        -1.350970     -0.897853     -0.115677
     12.08120      7.03132      7.27449        -0.439036      1.081378      0.055590
      1.79573      3.68881     12.46589        -1.006510      1.248504     -1.670819
      8.02498      8.31857      3.72976         1.861639     -0.811507     -0.633234
     11.39417      2.21394     11.59918         0.800234     -1.343690     -0.999250
      9.15173     10.06286      6.54016         0.891617     -0.620074     -1.517650
      6.81218     11.23030      9.82842         0.695161     -1.575062      0.199086
      5.22706      3.24463     11.62056        -1.576989     -1.877671     -0.808365
      2.85890      2.77763      2.90726         0.748413     -1.490738      0.789913
      1.27415      0.42472      4.82428        -3.609999     -0.210020     -0.244176
      0.76199      1.74357      1.01368         0.090292     -2.006916      0.494893
      2.92663      5.57371      9.90332         1.086002      0.372222     -2.376534
      4.85579      8.38615      9.02317        -2.655443     -2.018278     -2.918408
      9.51454      1.92177      8.29337        -0.854391      2.878953      1.879104
     13.10872      4.96912      9.96583        -1.355602      0.769307     -3.148311
      6.13766     10.88674      3.96560         2.707353     -2.744995      2.399561
      0.00928     11.93212      0.11486        -0.208703      3.113747      0.983346
      1.68045      7.40057      0.11507         3.438045      0.340371      1.536880
      6.05695     12.87345      2.01595        -1.692932      0.171336     -2.215758
      7.25545      4.86790     10.80693         1.973307      0.448500      1.648646
      5.07215      8.07468      2.46804        -1.064126      2.367760     -1.871550
      1.79138     10.36994     11.16409        -0.402549      2.268593     -0.089195
     10.27528      7.75452      1.22534         5.157510      3.242409      0.731580
      1.91728      8.95668      8.25126        -0.487806      5.683486      1.207967
     11.54693     12.49075      6.02592         4.156522      0.458023     -3.286690
      2.20893      4.65075      5.09032         1.869800      0.022363      2.470618
      8.79462      3.32018     12.93721         2.170232      0.068572      3.550852
      8.75795      5.46231      5.00324         0.131763      2.840067      1.953326
      1.60423      3.84837      7.85649         2.365714      1.060236      2.128890
      3.86863     12.83499      5.28240         0.723317     -2.049470      1.049269
      6.74867      3.09094      8.84577        -0.973300     -1.982399     -2.352241
     10.05935      2.82459      5.37114        -1.444709      1.995138     -2.767220
     10.97913      7.08682      4.31852         1.701858     -0.386064     -1.906314
      9.83665      9.62107      9.47992         2.427198      0.078035      0.356564
      1.18990     10.60024      5.65681         0.211190     -1.325520     -3.758087
      5.41052      0.46233     10.34862        -3.846392      5.864880     -0.274476
      7.60964      0.44494     12.50718         1.946204     -3.843161      2.437928
      3.38096      7.64121      0.18448        -1.629691     -1.927524     -1.150587
      2.94045     11.45008     11.38738         0.627373     -0.144619      1.792627
     11.85300     12.52378     13.16813        -1.562800     -0.540316      0.239204
      3.47118      3.55588      5.27960        -0.716295      0.975766     -0.419188
      6.55707      0.96124     11.45661        -0.169758      0.952076     -1.001667
     10.33475      3.77484     12.57418        -1.777505      0.545797      1.072709
[...]
      8.54600      5.18925      9.94300        -0.630055      3.308303      0.727720
      1.27428      9.55885      6.85093         2.035404      0.253519      1.273553
      0.06322      4.04661      8.49177         0.081869      0.856914      1.104909
      1.28145      9.55623      4.26416         0.149901      1.694129      0.688512
      8.38898      3.03638      9.07800        -1.448192     -0.977648     -1.269629
      1.34519      7.79417      1.66790        -0.956737      2.971413      0.241472
      6.89100      0.61854      2.96590        -0.845858     -0.762774      0.692943
      6.96813      5.78454     12.21766        -0.667277      0.386452     -1.537732
      2.39728     11.88435      5.37358        -1.300299     -1.636496      1.358548
      6.52991     12.90046      0.29269         1.179786      2.124696      0.697941
     10.24789     11.74717      5.45548        -0.610782      0.834040      0.558563
      2.03539      8.84266     11.76126        -2.221594     -1.419372      1.386204
      9.98546      5.79630      3.92300         1.557070     -0.104737     -0.018882
      0.90615      0.12512      0.54000        -0.269796      0.307387     -0.165614
      8.63086      0.72452      7.98666        -1.858100     -4.085541     -2.011717
    total drift:                                0.028765     -0.022188     -0.006904

  FREE ENERGIE OF THE ION-ELECTRON SYSTEM (eV)
  free  energy   TOTEN  =      -943.09895205 eV

  energy  without entropy=     -943.09895205  energy(sigma->0) =     -943.09895205