 vasp.5.4.4.18Apr17-6-g9f103f2a35 (build Oct 31 2019 15:01:46) complex

 executed on             LinuxIFC date 2024.04.29  04:59:54

 INCAR:
 POTCAR:    PAW_PBE Ca_sv 06Sep2000
 POTCAR:    PAW_PBE Si 05Jan2001
 POTCAR:    PAW_PBE O 08Apr2002
 POTCAR:    PAW_PBE Ca_sv 06Sep2000
   VRHFIN =Ca: 3s3p4s

   TITEL  = PAW_PBE Ca_sv 06Sep2000
   POMASS =   40.078; ZVAL   =   10.000    mass and valenz
   ENMAX  =  266.622; ENMIN  =  199.967 eV

   TITEL  = PAW_PBE Si 05Jan2001
   POMASS =   28.085; ZVAL   =    4.000    mass and valenz
   ENMAX  =  245.345; ENMIN  =  184.009 eV

   TITEL  = PAW_PBE O 08Apr2002
   POMASS =   16.000; ZVAL   =    6.000    mass and valenz
   ENMAX  =  400.000; ENMIN  =  300.000 eV

 Optimization of the real space projectors (new method)

 maximal supplied QI-value         = 16.25
 optimisation between [QCUT,QGAM] = [ 12.51, 25.03] = [ 43.85,175.40] Ry
 Optimized for a Real-space Cutoff    1.47 Angstroem

   l    n(q)    QCUT    max X(q) W(low)/X(q) W(high)/X(q)  e(spline)
   0     11    12.514    11.817    0.25E-04    0.32E-05    0.87E-07
   0     11    12.514     8.461    0.39E-04    0.59E-05    0.18E-06
   1     11    12.514     3.957    0.97E-05    0.57E-05    0.28E-07
   1     11    12.514     4.314    0.42E-04    0.14E-04    0.23E-06
   2     10    12.514    14.565    0.79E-04    0.50E-03    0.16E-05
   2     10    12.514    14.552    0.75E-04    0.48E-03    0.15E-05
 Optimization of the real space projectors (new method)

[...]

   l    n(q)    QCUT    max X(q) W(low)/X(q) W(high)/X(q)  e(spline)
   0      9    12.501   159.560    0.10E-03    0.83E-04    0.71E-07
   0      9    12.501   115.863    0.99E-04    0.81E-04    0.70E-07
   1      8    12.501    88.339    0.20E-03    0.25E-03    0.76E-07
   1      8    12.501    48.592    0.20E-03    0.24E-03    0.75E-07
 Optimization of the real space projectors (new method)

 maximal supplied QI-value         = 24.76
 optimisation between [QCUT,QGAM] = [ 12.38, 25.00] = [ 42.90,175.06] Ry
 Optimized for a Real-space Cutoff    1.16 Angstroem

   l    n(q)    QCUT    max X(q) W(low)/X(q) W(high)/X(q)  e(spline)
   0      9    12.378    20.381    0.16E-03    0.67E-05    0.31E-06
   0      9    12.378    15.268    0.17E-03    0.81E-05    0.33E-06
   1      8    12.378     5.964    0.20E-03    0.16E-03    0.30E-06
   1      8    12.378     5.382    0.18E-03    0.14E-03    0.26E-06
  PAW_PBE Ca_sv 06Sep2000               :
  PAW_PBE Si 05Jan2001                  :
  PAW_PBE O 08Apr2002                   :

 POSCAR: Ca Si  O
  positions in direct lattice
 exchange correlation table for  LEXCH =        8
   RHO(1)=    0.500       N(1)  =     2000
   RHO(2)=  100.500       N(2)  =     4000

 ion  position               nearest neighbor table
   1  0.342  0.271  0.713-  97 2.09 112 2.11 120 2.46  45 3.03
   2  0.567  0.920  0.129-  91 2.10  89 2.17  87 2.29 128 2.34  40 2.62  38 2.93
   3  0.704  0.416  0.569-  55 2.11 130 2.31  85 2.39  52 2.90  16 3.01  51 3.14
   4  0.507  0.628  0.398- 131 1.88 122 2.51  14 3.16
   5  0.053  0.133  0.808- 126 2.25  79 2.49
   6  0.399  0.587  0.720- 132 2.14 105 2.30  77 2.44  54 3.00
   7  0.864  0.649  0.700- 117 2.19  55 2.36  67 2.44  44 2.76
   8  0.034  0.452  0.528- 133 2.24  98 2.24  90 2.42
   9  0.351  0.248  0.332-  74 1.96  70 2.55  42 2.95
  10  0.542  0.570  0.129-  99 2.03  84 2.24  46 2.92  41 3.02
  11  0.996  0.755  0.120- 102 2.34 101 2.48  37 3.10
  12  0.188  0.077  0.436-  95 1.88  66 2.17  42 2.71
  13  0.903  0.806  0.491-  58 2.25  69 2.26  80 2.56
  14  0.729  0.569  0.377-  68 2.14 125 2.31  47 3.05   4 3.16
  15  0.866  0.244  0.591- 114 1.79  79 2.25  98 2.31  82 2.53  31 3.07  51 3.09  52 3.11
  16  0.685  0.235  0.445- 130 2.02  82 2.21  61 2.33  51 2.95   3 3.01
  17  0.071  0.388  0.278- 133 2.35  65 2.51  47 3.13
  18  0.866  0.094  0.338- 121 2.13 115 2.30  61 2.41 124 2.43  39 3.13
  19  0.291  0.753  0.946-
  20  0.547  0.379  0.813-  85 1.87 120 2.17 113 2.51 116 2.54  52 2.69
  21  0.694  0.009  0.569-  80 2.48
  22  0.763  0.127  0.897- 107 2.36 108 2.46 113 2.51
  23  0.910  0.404  0.869- 129 2.14 106 2.43  73 2.45
  24  0.780  0.814  0.939- 109 2.26 134 2.48 101 2.54  28 3.00
  25  0.280  0.603  0.233- 103 2.14  56 2.47  72 2.48  34 3.01  43 3.11
  26  0.403  0.914  0.706-  63 2.25  77 2.37  30 2.83
  27  0.867  0.526  0.117- 119 2.31  68 2.48  86 2.57  47 2.96  46 3.10
  28  0.841  0.906  0.749-  80 1.60 107 1.61  67 1.74 123 2.44  24 3.00
  29  0.078  0.153  0.197-  65 1.60 121 1.68  78 1.72  60 2.32  33 2.65
  30  0.246  0.793  0.647-  57 1.53  77 1.71  63 1.79  64 1.95  26 2.83  35 3.07
  31  0.977  0.050  0.586- 124 1.54  79 1.68  15 3.07
  32  0.448  0.166  0.105-  83 1.67  94 1.72 104 1.81  93 1.83  40 2.94
  33  0.960  0.220  0.058-  60 1.55 108 1.70 129 1.78  78 2.09  29 2.65
  34  0.284  0.690  0.436- 131 1.45  72 1.52  64 1.64  25 3.01
  35  0.117  0.626  0.722-  90 1.56  71 1.59  75 1.69  57 1.70  50 2.40 106 2.43  53 2.83  30 3.07

  36  0.336  0.425  0.525- 132 1.48  59 1.71  74 1.84  97 2.36  42 2.76
  37  0.001  0.954  0.012- 109 1.56 126 1.67 102 1.95  11 3.10
  38  0.638  0.079  0.254-  81 1.47 128 1.64  61 1.74  94 2.29  49 2.87   2 2.93
  39  0.026  0.939  0.283-  66 1.47  69 1.59 102 2.03 121 2.03  18 3.13
  40  0.431  0.975  0.007- 135 1.62  91 1.80 104 1.85   2 2.62  32 2.94  48 3.09
  41  0.687  0.589  0.963-  84 1.49 134 1.69  92 1.74  86 1.79 116 2.50  54 2.72  46 2.91  10 3.02

[...]

  55  0.744  0.530  0.666-  44 1.79   3 2.11   7 2.36
  56  0.340  0.572  0.065-  43 1.86  25 2.47
  57  0.157  0.738  0.688-  30 1.53  35 1.70
  58  0.896  0.676  0.390-  47 1.85  13 2.25
  59  0.406  0.468  0.431-  36 1.71
  60  0.979  0.283  0.151-  33 1.55  29 2.32
  61  0.716  0.172  0.290-  38 1.74  16 2.33  18 2.41
  62  0.506  0.057  0.537-  49 1.75
  63  0.255  0.923  0.635-  30 1.79  26 2.25
  64  0.290  0.694  0.556-  34 1.64  30 1.95
  65  0.155  0.228  0.244-  29 1.60  17 2.51
  66  0.108  0.994  0.326-  39 1.47  12 2.17
  67  0.907  0.802  0.779-  28 1.74   7 2.44
  68  0.770  0.623  0.236-  46 1.71  14 2.14  27 2.48
  69  0.952  0.886  0.355-  39 1.59  13 2.26
  70  0.502  0.189  0.423-  49 1.51   9 2.55
  71  0.129  0.688  0.820-  35 1.59  50 1.68
  72  0.191  0.663  0.380-  34 1.52  25 2.48
  73  0.040  0.366  0.750-  53 1.52  23 2.45
  74  0.317  0.310  0.457-  42 1.61  36 1.84   9 1.96
  75  0.201  0.535  0.711-  35 1.69  53 1.95
  76  0.645  0.710  0.716-  44 1.50  54 1.94
  77  0.338  0.754  0.722-  30 1.71  26 2.37   6 2.44
  78  0.092  0.144  0.072-  29 1.72  33 2.09
  79  0.929  0.118  0.676-  31 1.68  15 2.25   5 2.49
  80  0.819  0.895  0.634-  28 1.60  21 2.48  13 2.56
  81  0.583  0.021  0.327-  38 1.47  49 1.81
  82  0.682  0.227  0.606-  52 1.63  16 2.21  15 2.53
  83  0.362  0.091  0.149-  32 1.67
  84  0.684  0.622  0.067-  41 1.49  46 1.52  10 2.24
  85  0.591  0.352  0.686-  52 1.71  20 1.87   3 2.39
  86  0.817  0.593  0.949-  41 1.79  27 2.57
  87  0.629  0.774  0.185-  46 1.72   2 2.29
  88  0.099  0.658  0.989-  50 1.59
  89  0.611  0.935  0.977-  48 1.78   2 2.17
  90  0.049  0.590  0.638-  35 1.56   8 2.42
  91  0.425  0.875  0.092-  40 1.80   2 2.10
  92  0.657  0.466  0.979-  41 1.74
  93  0.352  0.248  0.061-  32 1.83  45 1.92
  94  0.560  0.191  0.157-  32 1.72  38 2.29
  95  0.276  0.133  0.526-  12 1.88  42 1.92
  96  0.498  0.026  0.835-  48 1.76
  97  0.239  0.308  0.606-  42 1.56   1 2.09  36 2.36
  98  0.887  0.384  0.499-  51 1.46   8 2.24  15 2.31
  99  0.538  0.499  0.260-  10 2.03
 100  0.216  0.396  0.966-  43 1.67  45 2.03
 101  0.825  0.708  0.084-  46 1.74  11 2.48  24 2.54
 102  0.053  0.916  0.139-  37 1.95  39 2.03  11 2.34
 103  0.194  0.514  0.138-  43 1.47  25 2.14
 104  0.502  0.090  0.011-  32 1.81  40 1.85
 105  0.446  0.683  0.849-  54 1.68   6 2.30
 106  0.054  0.502  0.833-  50 1.68  53 1.75  23 2.43  35 2.43
 107  0.820  0.973  0.844-  28 1.61  22 2.36
 108  0.865  0.141  0.045-  33 1.70  22 2.46
 109  0.930  0.874  0.973-  37 1.56  24 2.26
 110  0.408  0.022  0.390-  49 1.49
 111  0.115  0.278  0.510-  42 1.47
 112  0.292  0.226  0.852-  45 1.49   1 2.11
 113  0.616  0.209  0.824-  52 1.86  20 2.51  22 2.51
 114  0.801  0.271  0.701-  52 1.69  15 1.79
[...]
 121  0.008  0.087  0.273-  29 1.68  39 2.03  18 2.13
 122  0.588  0.619  0.563-  44 1.57   4 2.51
 123  0.669  0.956  0.757-  48 1.71  28 2.44
 124  0.901  0.042  0.504-  31 1.54  18 2.43
 125  0.874  0.485  0.353-  47 1.66  51 1.78  14 2.31
 126  0.060  0.020  0.927-  37 1.67   5 2.25
 127  0.573  0.824  0.860-  48 1.54  54 2.07
 128  0.704  0.001  0.191-  38 1.64   2 2.34
 129  0.987  0.314  0.971-  33 1.78  23 2.14
 130  0.723  0.373  0.407-  51 1.75  16 2.02   3 2.31
 131  0.383  0.687  0.397-  34 1.45   4 1.88
 132  0.366  0.474  0.616-  36 1.48   6 2.14
 133  0.039  0.523  0.380-  47 1.75   8 2.24  17 2.35
 134  0.639  0.701  0.942-  41 1.69  54 1.85  24 2.48
 135  0.342  0.982  0.928-  40 1.62

IMPORTANT INFORMATION: All symmetrisations will be switched off!
NOSYMM: (Re-)initialisation of all symmetry stuff for point group C_1.

Automatic generation of k-mesh.
 generate k-points for:    2    2    2
Space group operators:
 irot       det(A)        alpha          n_x          n_y          n_z        tau_x        tau_y        tau_z
    1     1.000000     0.000000     1.000000     0.000000     0.000000     0.000000     0.000000     0.000000

 Subroutine IBZKPT returns following result:

 Found      8 irreducible k-points:

 Following reciprocal coordinates:
            Coordinates               Weight
  0.000000  0.000000  0.000000      1.000000
  0.500000  0.000000  0.000000      1.000000
  0.000000  0.500000  0.000000      1.000000
  0.500000  0.500000  0.000000      1.000000
  0.000000  0.000000  0.500000      1.000000
  0.500000  0.000000  0.500000      1.000000
  0.000000  0.500000  0.500000      1.000000
  0.500000  0.500000  0.500000      1.000000

 Following cartesian coordinates:
            Coordinates               Weight
  0.000000  0.000000  0.000000      1.000000
  0.036574  0.000000  0.000000      1.000000
  0.000000  0.036574  0.000000      1.000000
  0.036574  0.036574  0.000000      1.000000
  0.000000  0.000000  0.036574      1.000000
  0.036574  0.000000  0.036574      1.000000
  0.000000  0.036574  0.036574      1.000000
  0.036574  0.036574  0.036574      1.000000

 SYSTEM =  unknown system
 POSCAR =  Ca Si  O

 Startparameter for this run:
   NWRITE =      2    write-flag & timer
   PREC   = a         normal or accurate (medium, high low for compatibility)
   ISTART =      0    job   : 0-new  1-cont  2-samecut
   ICHARG =      2    charge: 1-file 2-atom 10-const
   ISPIN  =      1    spin polarized calculation?
   LNONCOLLINEAR =      F non collinear calculations
   LSORBIT =      F    spin-orbit coupling
   INIWAV =      1    electr: 0-lowe 1-rand  2-diag
   LASPH  =      F    aspherical Exc in radial PAW
   METAGGA=      F    non-selfconsistent MetaGGA calc.

 Electronic Relaxation 1
   ENCUT  =  600.0 eV  44.10 Ry    6.64 a.u.  27.30 27.30 27.30*2*pi/ulx,y,z
   ENINI  =  600.0     initial cutoff
   ENAUG  =  605.4 eV  augmentation charge cutoff
[...]
     0.000000000  0.000000000 13.670863650     0.000000000  0.000000000  0.073148268

  length of vectors
    13.670863650 13.670863650 13.670863650     0.073148268  0.073148268  0.073148268

 FORCES acting on ions
    electron-ion (+dipol)            ewald-force                    non-local-force                 convergence-correction
   -.901E+02 0.292E+03 0.938E+01   0.859E+02 -.290E+03 -.549E+01   0.551E+01 -.188E+01 -.318E+01   0.793E-03 -.551E-03 -.527E-02
   0.108E+03 -.174E+01 -.280E+03   -.104E+03 -.246E+01 0.279E+03   -.171E+01 0.325E+01 0.277E+01   -.100E-02 0.179E-02 0.914E-02
   0.181E+03 -.121E+03 0.410E+02   -.182E+03 0.123E+03 -.364E+02   0.255E-01 -.208E+01 -.343E+01   -.111E-02 -.211E-02 -.220E-02
   -.666E+02 -.210E+03 0.102E+03   0.627E+02 0.204E+03 -.101E+03   0.694E+01 0.250E+01 -.499E+00   -.425E-03 0.174E-02 0.134E-03
   -.219E+03 0.923E+02 0.367E+01   0.217E+03 -.960E+02 -.148E+01   0.215E+01 0.334E+01 -.164E+01   -.497E-03 0.101E-02 -.114E-02
   -.227E+02 -.118E+02 0.668E+02   0.200E+02 0.150E+02 -.651E+02   0.178E+01 -.179E+01 -.776E+00   -.173E-02 -.253E-02 -.561E-02
   -.189E+03 -.202E+02 -.651E+02   0.186E+03 0.241E+02 0.623E+02   0.354E+01 -.325E+01 0.336E+01   0.309E-03 -.461E-03 -.224E-02
   -.190E+03 -.590E+02 -.508E+02   0.188E+03 0.621E+02 0.482E+02   0.259E+01 -.219E+01 0.309E+01   0.292E-03 -.679E-03 -.958E-03
   -.645E+02 0.127E+02 0.357E+03   0.692E+02 -.148E+02 -.355E+03   -.211E+01 -.553E-01 -.530E+01   0.449E-02 -.796E-02 0.388E-02
   0.283E+03 0.101E+03 -.412E+02   -.283E+03 -.106E+03 0.447E+02   -.184E+01 0.385E+01 -.448E+01   -.425E-03 -.743E-03 0.430E-02
   -.228E+03 -.124E+03 -.143E+03   0.224E+03 0.123E+03 0.138E+03   0.244E+01 0.633E-01 0.342E+01   0.919E-03 0.397E-03 0.217E-02
   -.103E+02 0.316E+03 0.300E+02   0.110E+02 -.321E+03 -.298E+02   -.298E+01 0.106E+01 -.237E+01   0.783E-02 -.136E-02 -.165E-02
   -.140E+03 -.112E+03 0.317E+02   0.138E+03 0.109E+03 -.349E+02   0.197E+01 0.227E+01 0.338E+01   -.665E-03 0.838E-03 -.133E-02
   0.260E+03 -.168E+03 -.165E+02   -.254E+03 0.168E+03 0.985E+01   -.512E+01 0.105E-01 0.628E+01   -.128E-02 -.145E-03 0.577E-03
   -.266E+03 0.167E+03 0.141E+02   0.269E+03 -.169E+03 -.134E+02   0.129E+01 0.297E-01 -.552E+01   -.151E-02 -.636E-03 -.214E-02
   0.255E+03 0.174E+03 0.171E+03   -.260E+03 -.174E+03 -.177E+03   0.190E+01 -.305E+01 0.351E+01   -.645E-02 -.484E-02 0.470E-03
   -.204E+03 0.598E+02 0.114E+03   0.203E+03 -.591E+02 -.116E+03   0.971E+00 -.943E+00 0.913E+00   0.377E-03 -.120E-02 0.857E-03
   0.692E+02 0.230E+03 0.138E+03   -.685E+02 -.224E+03 -.139E+03   -.181E+01 -.473E+01 0.839E+00   -.173E-02 0.206E-03 0.116E-02
   0.673E+02 -.278E+03 -.239E+03   -.638E+02 0.274E+03 0.236E+03   -.237E+01 0.266E+01 0.184E+01   -.324E-02 -.206E-02 0.250E-02
   0.213E+02 0.717E+02 -.313E+03   -.238E+02 -.698E+02 0.318E+03   0.127E+01 0.529E+00 0.207E+01   -.286E-03 -.175E-02 -.257E-02
   0.158E+03 0.169E+03 0.144E+03   -.160E+03 -.170E+03 -.138E+03   0.124E+01 0.105E+01 -.457E+01   -.103E-01 0.404E-02 -.788E-02
   0.836E+01 -.133E+03 -.174E+03   -.101E+02 0.129E+03 0.175E+03   0.814E+00 0.258E+01 -.575E+00   0.225E-02 0.256E-02 0.604E-03
   0.208E+03 0.669E+02 -.104E+03   -.202E+03 -.686E+02 0.106E+03   -.606E+01 0.201E+01 -.235E+01   0.684E-03 -.987E-03 -.466E-03
   -.776E+02 -.121E+03 -.678E+02   0.799E+02 0.120E+03 0.693E+02   -.235E+01 0.611E+00 -.117E+01   0.191E-02 -.361E-03 0.128E-02
   -.103E+03 -.195E+03 -.567E+02   0.101E+03 0.192E+03 0.527E+02   0.263E+01 0.292E+01 0.353E+01   0.588E-03 0.856E-03 0.238E-02
   0.129E+02 -.183E+03 0.142E+03   -.172E+02 0.183E+03 -.141E+03   0.450E+01 0.130E+01 -.677E+00   -.846E-03 0.141E-02 -.156E-01
   -.324E+02 0.320E+03 0.670E+02   0.315E+02 -.312E+03 -.679E+02   -.294E+00 -.663E+01 -.367E+00   0.578E-03 -.107E-02 0.216E-02
   -.866E+02 -.461E+02 0.324E+02   0.875E+02 0.420E+02 -.320E+02   -.240E+00 0.864E+00 0.322E+00   0.977E-03 -.699E-04 -.139E-02
   -.595E+02 0.722E+02 0.497E+02   0.636E+02 -.671E+02 -.504E+02   -.452E+01 -.374E+01 -.112E+01   0.636E-03 -.194E-03 0.959E-03
   0.317E+02 -.162E+03 0.132E+03   -.331E+02 0.158E+03 -.122E+03   0.541E+01 0.465E+01 -.105E+02   0.251E-03 0.583E-03 -.215E-02
   -.220E+03 0.119E+03 -.399E+02   0.219E+03 -.119E+03 0.365E+02   0.259E+01 -.912E-01 0.632E+01   0.106E-03 0.236E-03 -.101E-02
   0.736E+01 -.929E+02 -.149E+02   -.843E+01 0.837E+02 0.184E+02   0.110E+01 0.710E+01 -.494E+01   -.806E-03 -.146E-03 0.374E-02
   0.259E+02 0.513E+02 0.549E+02   -.294E+02 -.451E+02 -.494E+02   0.390E+01 -.661E+01 -.924E+01   0.148E-03 0.123E-04 0.686E-03
   0.511E+02 -.146E+03 0.324E+02   -.499E+02 0.141E+03 -.361E+02   -.666E+01 0.523E+01 0.104E+02   0.680E-03 0.116E-02 -.338E-03
   0.449E+02 -.616E+02 0.391E+02   -.432E+02 0.635E+02 -.446E+02   0.146E+01 0.165E+00 0.120E+01   -.453E-06 -.222E-03 -.755E-03
   0.481E+02 0.229E+01 0.868E+02   -.347E+02 0.107E+02 -.824E+02   -.116E+02 -.148E+02 -.112E+02   0.496E-03 -.939E-03 -.642E-03
   -.878E+02 -.615E+02 -.684E+02   0.835E+02 0.549E+02 0.542E+02   0.682E+01 0.859E+01 0.133E+02   0.656E-04 0.378E-03 0.870E-03
   0.390E+02 -.493E+02 0.752E+02   -.302E+02 0.396E+02 -.707E+02   -.965E+00 0.165E+02 -.114E+02   -.220E-02 -.659E-05 0.299E-02
   -.290E+02 0.127E+03 0.909E+02   0.377E+02 -.122E+03 -.731E+02   -.106E+02 -.497E+01 -.208E+02   0.741E-03 0.426E-03 0.695E-03
   0.961E+02 -.359E+01 -.479E+02   -.106E+03 0.335E+01 0.434E+02   0.817E+01 0.164E+01 0.415E+01   0.400E-03 0.109E-03 0.598E-02
   0.199E+02 0.126E+03 0.981E+02   -.168E+02 -.126E+03 -.885E+02   0.293E-01 -.518E+01 -.156E+02   0.271E-03 -.151E-03 0.764E-03
   -.219E+01 0.941E+02 0.789E+02   -.504E+01 -.892E+02 -.670E+02   0.122E+02 -.101E+02 -.829E+01   0.152E-02 -.127E-02 -.838E-03
   -.570E+02 0.601E+02 -.203E+02   0.560E+02 -.587E+02 0.295E+02   0.693E+01 0.505E+00 -.178E+02   -.106E-03 -.351E-03 0.640E-03
   0.314E+02 -.121E+02 0.621E+02   -.361E+02 0.190E+02 -.631E+02   0.979E+01 -.912E+01 -.388E+01   -.218E-04 0.142E-04 -.161E-02
   -.111E+02 0.300E+02 -.157E+03   0.117E+02 -.367E+02 0.143E+03   0.163E+01 0.125E+02 0.189E+02   -.326E-03 0.363E-03 0.508E-03
   0.412E+02 -.136E+03 -.143E+03   -.393E+02 0.133E+03 0.140E+03   0.189E+01 0.741E+01 0.752E+01   -.401E-03 0.657E-04 0.149E-02
   -.506E+02 -.138E+03 0.492E+02   0.562E+02 0.135E+03 -.437E+02   -.192E+01 0.548E+01 -.206E+01   0.390E-04 -.818E-04 0.393E-03
   0.431E+02 -.102E+03 0.404E+02   -.451E+02 0.952E+02 -.417E+02   0.209E+01 0.110E+02 0.135E+01   0.275E-02 -.247E-02 -.119E-03
   -.114E+02 0.109E+03 0.345E+02   -.357E+01 -.105E+03 -.296E+02   0.173E+02 -.655E+01 -.110E+01   -.394E-02 -.252E-02 0.503E-02
   0.923E+02 -.117E+02 -.889E+02   -.810E+02 0.183E+02 0.931E+02   -.956E+01 -.433E+01 -.149E+01   -.726E-04 -.309E-03 0.115E-04
   0.532E+01 0.693E+01 0.198E+03   -.298E+01 -.135E+02 -.183E+03   -.686E+01 0.645E+01 -.211E+02   -.468E-03 -.571E-03 0.110E-03
   0.314E+02 0.598E+02 -.156E+03   -.336E+02 -.614E+02 0.150E+03   -.495E+00 -.101E+01 0.721E+01   -.315E-03 -.284E-03 -.205E-02
   -.133E+03 0.111E+03 -.838E+01   0.123E+03 -.116E+03 0.735E+01   0.139E+02 0.944E+01 0.179E+01   -.249E-04 -.188E-03 -.527E-03
   0.901E+01 -.721E+02 0.337E+02   -.165E+02 0.596E+02 -.291E+02   0.773E+01 0.192E+02 -.271E+01   0.172E-02 -.192E-03 -.113E-02
   -.444E+02 0.277E+02 -.101E+03   0.532E+02 -.416E+02 0.110E+03   -.956E+01 0.159E+02 -.798E+01   0.954E-04 -.565E-03 -.170E-02
   -.130E+03 -.379E+02 -.558E+02   0.145E+03 0.466E+02 0.530E+02   -.148E+02 -.940E+01 0.283E+01   -.480E-03 -.710E-03 0.175E-02
   0.106E+03 -.266E+03 0.122E+03   -.126E+03 0.271E+03 -.112E+03   0.180E+02 -.425E+01 -.145E+02   0.770E-04 -.581E-04 -.178E-02
   -.526E+02 -.170E+03 0.103E+02   0.469E+02 0.181E+03 -.183E+01   0.678E+01 -.142E+02 -.107E+02   -.234E-03 0.247E-03 0.196E-03
   -.356E+02 -.423E+01 0.155E+03   0.504E+02 0.934E+01 -.174E+03   -.171E+02 -.521E+01 0.209E+02   0.492E-03 -.108E-02 -.137E-03
   0.663E+02 -.488E+02 -.340E+01   -.639E+02 0.693E+02 0.246E+02   -.185E+01 -.198E+02 -.170E+02   0.265E-03 -.466E-03 0.961E-03
[...]
   0.148E+03 -.980E+02 0.138E+03   -.171E+03 0.961E+02 -.154E+03   0.222E+02 0.375E+00 0.133E+02   -.389E-03 0.457E-03 -.204E-02
   0.614E+02 -.604E+02 0.127E+03   -.490E+02 0.640E+02 -.142E+03   -.137E+02 -.330E+01 0.151E+02   0.194E-02 0.396E-03 -.529E-02
   -.427E+02 0.132E+03 0.415E+02   0.261E+02 -.138E+03 -.616E+02   0.133E+02 0.552E+01 0.168E+02   -.747E-03 0.441E-03 -.975E-03
   0.205E+02 0.166E+02 0.118E+03   -.267E+02 -.171E+02 -.112E+03   0.383E+01 -.204E+01 -.823E+01   -.232E-03 -.453E-03 0.428E-03
   -.177E+03 0.512E+02 0.293E+02   0.192E+03 -.409E+02 -.437E+02   -.169E+02 -.115E+02 0.159E+02   -.681E-03 0.779E-03 0.678E-03
   0.131E+03 -.269E+02 0.443E+02   -.136E+03 0.159E+01 -.345E+02   0.270E+01 0.220E+02 -.121E+02   0.197E-02 -.201E-02 -.869E-03
   -.145E+03 0.550E+02 0.239E+02   0.166E+03 -.721E+02 -.388E+02   -.215E+02 0.179E+02 0.151E+02   -.143E-02 0.865E-03 0.338E-02
   -.468E+02 0.556E+02 -.409E+02   0.590E+02 -.428E+02 0.344E+02   -.140E+02 -.155E+02 0.656E+01   0.220E-03 -.210E-03 0.486E-03
   0.204E+03 -.744E+02 0.254E+03   -.224E+03 0.785E+02 -.262E+03   0.227E+02 -.173E+01 0.812E+01   -.123E-02 -.155E-02 0.291E-03
   0.635E+01 -.252E+03 0.116E+03   0.239E+02 0.256E+03 -.128E+03   -.265E+02 -.280E+01 0.744E+01   0.518E-03 0.234E-02 0.125E-03
   -.427E+02 0.973E+01 0.423E+02   0.523E+02 0.680E+01 -.142E+02   -.855E+01 -.161E+02 -.237E+02   0.795E-04 -.948E-03 -.173E-02
   -.204E+03 -.141E+03 -.289E-01   0.219E+03 0.141E+03 0.931E+01   -.152E+02 -.167E+01 -.973E+01   0.201E-03 -.157E-03 0.143E-03
   0.945E+02 -.608E+02 -.538E+02   -.999E+02 0.849E+02 0.658E+02   0.501E+01 -.263E+02 -.162E+02   0.135E-02 -.630E-03 0.153E-02
   0.248E+03 -.351E+02 0.229E+02   -.271E+03 0.423E+02 -.435E+02   0.239E+02 -.874E+01 0.213E+02   -.468E-02 0.356E-03 0.296E-02
   -.592E+02 -.401E+02 0.169E+03   0.568E-13 -.476E-12 -.102E-11   0.592E+02 0.401E+02 -.169E+03   -.444E-03 -.380E-01 0.699E-02

 POSITION                                       TOTAL-FORCE (eV/Angst)
      4.66960      3.70871      9.75239         1.260970     -0.219890      0.700511
      7.75208     12.57688      1.76168         2.738562     -0.946367      1.839366
      9.62694      5.68873      7.78229        -0.986221      0.516033      1.118122
      6.93357      8.58130      5.43828         3.043727     -3.401803      0.514830
      0.72989      1.82071     11.04283         0.103016     -0.350041      0.548467
      5.45954      8.02390      9.84126        -0.883040      1.368244      0.889000
     11.81682      8.86714      9.56444         0.804552      0.648594      0.473187
      0.46179      6.17628      7.22136         0.609089      0.935166      0.496975
      4.79515      3.39128      4.53739         2.627932     -2.187340     -3.262920
      7.40596      7.79001      1.76658        -1.681144     -1.175027     -0.964364
     13.62048     10.32812      1.64498        -1.079498     -1.625206     -1.435319
      2.56404      1.05316      5.96314        -2.251547     -3.633625     -2.097042
     12.34362     11.02203      6.71175        -0.790422     -0.888242      0.128649
      9.97256      7.77501      5.14840         0.545333      0.179031     -0.367987
     11.83250      3.33388      8.07434         3.912466     -2.037289     -4.767704
      9.36094      3.21878      6.08044        -2.916293     -2.324871     -2.054059
      0.96861      5.30569      3.79926        -0.002698     -0.250777     -1.450727
     11.84298      1.28655      4.61399        -1.099165      0.733013     -0.442485
      3.97333     10.29581     12.93631         1.136556     -1.218195     -0.951629
      7.47246      5.18056     11.11277        -1.318247      2.480345      7.156137
      9.48680      0.11639      7.77977        -0.789852     -0.482964      2.255522
     10.43720      1.73795     12.26131        -0.895371     -1.045966      0.557696
     12.44343      5.52341     11.87619         0.418756      0.321095     -0.358552
     10.66814     11.13474     12.83229        -0.009802     -0.531841      0.324907
      3.83121      8.24654      3.18595         0.212276     -0.282038     -0.530825
      5.51205     12.49923      9.64874         0.227251      0.728888      0.664788
     11.85440      7.18456      1.59866        -1.129687      1.371282     -1.266916
     11.49173     12.38960     10.23416         0.691013     -3.183299      0.752517
      1.06706      2.09629      2.68691        -0.383770      1.334690     -1.784777
      3.36743     10.84211      8.85166         4.053272      1.145648     -0.370450
     13.36148      0.67823      8.00775         1.976757      0.140464      2.880204
      6.12631      2.27024      1.43300         0.024768     -2.127898     -1.386372
     13.12275      3.01229      0.79255         0.415414     -0.431942     -3.720062
      3.88090      9.42759      5.95508        -5.426448      0.306121      6.745038
      1.60083      8.55499      9.87487         3.112139      2.043505     -4.306609
      4.59535      5.80585      7.17425         1.813476     -1.803826     -6.775366
      0.01898     13.04689      0.16084         2.484627      2.049992     -0.894316
      8.71898      1.07622      3.47363         7.884888      6.780474     -6.796713
      0.35525     12.84258      3.87458        -1.964529     -0.009380     -2.936204
      5.88748     13.33285      0.08978        -1.511822      1.407765     -0.296061
      9.38507      8.05298     13.17179         3.116531     -5.259720     -6.058213
      3.01977      3.56343      6.88994         4.973303     -5.238321      3.621956
      3.19727      6.69594      0.56688         5.870563      1.874434     -8.575408
      9.18842      8.70586      8.73428         5.086033     -2.137301     -4.863647
      4.36428      4.02294     12.75297         2.232574      5.806507      4.418973
      9.78915      9.46158      2.01248         3.753179      4.736836      4.132211
     12.90089      7.86659      4.28323         3.682418      2.488323      3.506624
      8.03735     12.77807     11.61376         0.088162      4.671956      0.069503
      6.81614      1.07460      5.61926         2.245088     -2.926612      3.785618
      1.52904      8.08931     12.22800         1.739883      2.289126      2.761407
     11.63043      4.99604      5.47226        -4.528158     -0.101910     -6.704332
      9.27751      3.65943      9.81899        -2.732569     -2.650715      0.741202
      1.81205      5.80692     10.50728         3.402478      4.117989      0.752324
      7.75530      9.23506     11.34573         0.258070      6.708889      1.853029
     10.16610      7.25015      9.10088        -0.756561      2.056950      0.099513
      4.64286      7.81754      0.88837        -0.573078     -0.678832     -0.004036
      2.15089     10.09044      9.40216        -2.342434      0.709816     -4.042154
     12.24380      9.24406      5.33476         1.070218     -2.827033     -2.303371
      5.55201      6.39961      5.89245        -2.285377     -0.111540      1.094846
     13.37835      3.86809      2.06390         0.482419      0.643679      4.113127
[...]
      0.11009      1.18496      3.73112        -2.139101      2.365894     -3.758367
      8.03978      8.46688      7.69235        -1.423887     -1.540023     -2.671377
      9.14675     13.06423     10.34243        -1.241605      0.276469      0.173144
     12.31198      0.58053      6.89012        -3.384500      0.400605     -3.254007
     11.94602      6.62449      4.82002        -2.407055     -2.554650     -1.967054
      0.81493      0.27214     12.66822        -1.430187     -1.150855      1.541274
      7.82746     11.25977     11.75087        -2.025136     -3.376121     -2.200782
      9.62363      0.01914      2.61311        -1.198013      0.865926      0.191009
     13.49040      4.28670     13.27197        -1.795451     -2.636951      0.143173
      9.88170      5.10194      5.56106         2.295965      2.411375     -0.114425
      5.23036      9.38796      5.43234         3.806794      1.778767     -4.538953
      5.01018      6.48179      8.42209         1.058006      0.387942      4.390128
      0.53582      7.14337      5.20164         0.236828     -0.869862     -0.455818
      8.73031      9.58810     12.87808        -0.409421     -2.107704     -4.251454
      4.67540     13.42031     12.68766         0.572701     -1.536663      0.652079
    total drift:                                0.005072      0.010190      0.017121

  FREE ENERGIE OF THE ION-ELECTRON SYSTEM (eV)
  free  energy   TOTEN  =      -873.56273613 eV

  energy  without entropy=     -873.47399804  energy(sigma->0) =     -873.51836708