 vasp.5.4.4.18Apr17-6-g9f103f2a35 (build Mar 16 2023 09:39:13) complex

 executed on             LinuxIFC date 2024.04.30  10:13:59

 INCAR:
 POTCAR:    PAW_PBE Ca_sv 06Sep2000
 POTCAR:    PAW_PBE Si 05Jan2001
 POTCAR:    PAW_PBE O 08Apr2002
 POTCAR:    PAW_PBE Ca_sv 06Sep2000
   VRHFIN =Ca: 3s3p4s

   TITEL  = PAW_PBE Ca_sv 06Sep2000
   POMASS =   40.078; ZVAL   =   10.000    mass and valenz
   ENMAX  =  266.622; ENMIN  =  199.967 eV

   TITEL  = PAW_PBE Si 05Jan2001
   POMASS =   28.085; ZVAL   =    4.000    mass and valenz
   ENMAX  =  245.345; ENMIN  =  184.009 eV

   TITEL  = PAW_PBE O 08Apr2002
   POMASS =   16.000; ZVAL   =    6.000    mass and valenz
   ENMAX  =  400.000; ENMIN  =  300.000 eV

 Optimization of the real space projectors (new method)

 maximal supplied QI-value         = 16.25
 optimisation between [QCUT,QGAM] = [ 12.51, 25.03] = [ 43.85,175.40] Ry
 Optimized for a Real-space Cutoff    1.47 Angstroem

   l    n(q)    QCUT    max X(q) W(low)/X(q) W(high)/X(q)  e(spline)
   0     11    12.514    11.817    0.25E-04    0.32E-05    0.87E-07
   0     11    12.514     8.461    0.39E-04    0.59E-05    0.18E-06
   1     11    12.514     3.957    0.97E-05    0.57E-05    0.28E-07
   1     11    12.514     4.314    0.42E-04    0.14E-04    0.23E-06
   2     10    12.514    14.565    0.79E-04    0.50E-03    0.16E-05
   2     10    12.514    14.552    0.75E-04    0.48E-03    0.15E-05
 Optimization of the real space projectors (new method)

[...]

   l    n(q)    QCUT    max X(q) W(low)/X(q) W(high)/X(q)  e(spline)
   0      9    12.501   159.560    0.10E-03    0.83E-04    0.71E-07
   0      9    12.501   115.863    0.99E-04    0.81E-04    0.70E-07
   1      8    12.501    88.339    0.20E-03    0.25E-03    0.76E-07
   1      8    12.501    48.592    0.20E-03    0.24E-03    0.75E-07
 Optimization of the real space projectors (new method)

 maximal supplied QI-value         = 24.76
 optimisation between [QCUT,QGAM] = [ 12.38, 25.00] = [ 42.90,175.06] Ry
 Optimized for a Real-space Cutoff    1.16 Angstroem

   l    n(q)    QCUT    max X(q) W(low)/X(q) W(high)/X(q)  e(spline)
   0      9    12.378    20.381    0.16E-03    0.67E-05    0.31E-06
   0      9    12.378    15.268    0.17E-03    0.81E-05    0.33E-06
   1      8    12.378     5.964    0.20E-03    0.16E-03    0.30E-06
   1      8    12.378     5.382    0.18E-03    0.14E-03    0.26E-06
  PAW_PBE Ca_sv 06Sep2000               :
  PAW_PBE Si 05Jan2001                  :
  PAW_PBE O 08Apr2002                   :

 POSCAR: Ca Si  O
  positions in direct lattice
 exchange correlation table for  LEXCH =        8
   RHO(1)=    0.500       N(1)  =     2000
   RHO(2)=  100.500       N(2)  =     4000

 ion  position               nearest neighbor table
   1  0.128  0.981  0.994-  83 2.17  68 2.18 126 2.30
   2  0.455  0.240  0.304- 111 2.35  89 2.36 135 2.40  45 2.89
   3  0.772  0.285  0.713-  56 2.13  36 3.13
   4  0.879  0.795  0.772- 108 2.13  78 2.14  86 2.38  82 2.55  43 3.08
   5  0.434  0.789  0.238- 131 1.96 114 2.42 121 2.56
   6  0.598  0.381  0.539- 129 2.22  94 2.38 106 2.39  56 2.52 127 2.56  38 2.83
   7  0.006  0.348  0.367- 117 2.15  73 2.37  28 3.00  30 3.03
   8  0.598  0.419  0.065-  75 1.97 111 2.18 110 2.38  59 2.40 118 2.57  37 3.00  32 3.12
   9  0.100  0.404  0.856-  64 2.08  60 2.23  97 2.35  42 3.02  39 3.06
  10  0.732  0.906  0.473-  92 2.27 130 2.29 105 2.31  81 2.33  34 2.89  52 3.10
  11  0.132  0.008  0.712-  68 2.21  55 2.29 120 2.48  42 3.08
  12  0.346  0.627  0.827- 119 2.17 132 2.21 124 2.46
  13  0.151  0.526  0.133-  60 2.24 109 2.50
  14  0.602  0.576  0.350-  96 2.38 113 2.45
  15  0.213  0.216  0.158-  89 2.05 126 2.44  67 2.50  54 3.11
  16  0.450  0.886  0.711- 133 2.16  71 2.24
  17  0.207  0.795  0.594- 112 2.22 102 2.24 124 2.32  35 3.14
  18  0.917  0.259  0.034-  70 1.96  99 2.41  41 3.06  54 3.14
  19  0.933  0.670  0.217-  95 2.21 101 2.38  76 2.45  41 3.03  28 3.08
  20  0.010  0.119  0.436- 116 2.08  55 2.54 105 2.57
  21  0.769  0.573  0.965-  59 2.06  76 2.28 110 2.55  41 3.08
  22  0.873  0.034  0.957-  84 2.09  86 2.27  43 3.04
  23  0.846  0.694  0.502-  93 2.00  92 2.40  28 3.09
  24  0.097  0.312  0.632-  85 2.07  72 2.24  73 2.36  47 2.88  42 3.09
  25  0.333  0.146  0.851- 120 2.31  87 2.44 133 2.45
  26  0.758  0.145  0.298-  61 2.18  81 2.31 135 2.31
  27  0.590  0.973  0.226- 131 2.30  61 2.52  81 2.54 121 2.56  46 2.95  45 3.12
  28  0.849  0.509  0.361- 123 1.57  93 1.61  95 1.73  96 1.82  44 2.68   7 3.00  19 3.08  23 3.09
                            41 3.13
  29  0.910  0.541  0.740-  78 1.58  97 1.67  80 1.70 134 1.82  44 2.86
  30  0.234  0.347  0.357-  57 1.56  89 1.59  73 1.80 115 1.87   7 3.03  38 3.08
  31  0.700  0.810  0.072-  88 1.53  77 1.73 121 1.75  74 1.85  43 3.10
  32  0.391  0.378  0.963-  67 1.63  75 1.66 103 1.83 132 1.84  37 3.00   8 3.12
  33  0.553  0.678  0.932- 119 1.50  74 1.68  59 1.69 125 1.71  37 2.94
  34  0.880  0.931  0.315- 107 1.52 101 1.65  81 1.69 105 1.80  10 2.89
  35  0.172  0.803  0.827- 124 1.63  82 1.64  68 1.66  79 1.70  39 2.95  17 3.14
  36  0.672  0.186  0.901-  65 1.47  91 1.53 100 1.66  69 1.76  53 2.96  51 3.04   3 3.13
  37  0.429  0.568  0.078- 125 1.57 109 1.58  75 1.69 118 1.84  33 2.94  32 3.00   8 3.00
  38  0.410  0.448  0.466-  98 1.58 115 1.70 129 1.70 113 1.71   6 2.83  30 3.08
  39  0.067  0.626  0.908-  60 1.65  63 1.79  97 1.84  79 1.95  35 2.95   9 3.06
  40  0.616  0.687  0.587-  92 1.57 127 1.61  58 1.71  49 2.72
  41  0.885  0.464  0.134-  99 1.52 110 1.61  76 1.68  19 3.03  18 3.06  21 3.08  28 3.13
  42  0.037  0.190  0.820-  72 1.65  64 1.70  84 1.71 120 1.76   9 3.02  11 3.08  24 3.09
  43  0.921  0.814  0.999-  83 1.53  86 1.64  63 1.66  77 1.94  22 3.04   4 3.08  31 3.10
  44  0.870  0.445  0.551-  56 1.58 117 1.68  93 1.69  80 1.87  28 2.68  29 2.86
  45  0.560  0.181  0.123-  61 1.63 104 1.73 111 1.74  91 1.80   2 2.89  46 2.95  27 3.12
  46  0.418  0.014  0.093- 104 1.60 131 1.66  87 1.66  90 1.75  45 2.95  27 2.95
  47  0.312  0.292  0.638- 122 1.57  85 1.69 128 1.72  98 1.92  48 2.81  24 2.88
  48  0.357  0.088  0.609- 122 1.56  62 1.61 133 1.67 112 2.39  47 2.81
  49  0.438  0.692  0.487- 102 1.56 113 1.71  58 1.72 114 1.84  40 2.72
  50  0.587  0.103  0.459- 135 1.54 130 1.56 106 1.67  62 2.17
  51  0.527  0.313  0.780- 103 1.57 100 1.59  94 1.63 128 1.82  36 3.04
  52  0.949  0.916  0.558-  55 1.60 108 1.61  66 1.71 105 1.81  10 3.10
  53  0.593  0.980  0.933-  71 1.58  90 1.60  69 1.73  88 1.81  36 2.96
  54  0.007  0.116  0.198- 126 1.56 116 1.76  70 1.86 107 1.88  15 3.11  18 3.14
  55  0.005  0.015  0.596-  52 1.60  11 2.29  20 2.54
  56  0.773  0.405  0.607-  44 1.58   3 2.13   6 2.52
  57  0.173  0.383  0.263-  30 1.56
  58  0.497  0.737  0.593-  40 1.71  49 1.72
  59  0.615  0.575  0.975-  33 1.69  21 2.06   8 2.40
  60  0.102  0.525  0.972-  39 1.65   9 2.23  13 2.24
  61  0.666  0.135  0.163-  45 1.63  26 2.18  27 2.52
  62  0.440  0.120  0.527-  48 1.61  50 2.17
  63  0.974  0.719  0.938-  43 1.66  39 1.79
  64  0.075  0.263  0.917-  42 1.70   9 2.08
  65  0.765  0.247  0.902-  36 1.47
  66  0.018  0.830  0.492-  52 1.71
  67  0.329  0.306  0.040-  32 1.63  15 2.50
  68  0.178  0.925  0.849-  35 1.66   1 2.18  11 2.21
  69  0.683  0.056  0.877-  53 1.73  36 1.76
  70  0.889  0.169  0.146-  54 1.86  18 1.96
  71  0.560  0.939  0.827-  53 1.58  16 2.24
  72  0.976  0.238  0.723-  42 1.65  24 2.24
  73  0.154  0.331  0.465-  30 1.80  24 2.36   7 2.37
  74  0.662  0.735  0.962-  33 1.68  31 1.85
  75  0.455  0.450  0.041-  32 1.66  37 1.69   8 1.97
  76  0.908  0.568  0.066-  41 1.68  21 2.28  19 2.45
  77  0.824  0.794  0.106-  31 1.73  43 1.94
  78  0.890  0.652  0.701-  29 1.58   4 2.14
  79  0.176  0.722  0.926-  35 1.70  39 1.95
  80  0.956  0.450  0.662-  29 1.70  44 1.87
  81  0.760  0.972  0.313-  34 1.69  26 2.31  10 2.33  27 2.54
  82  0.069  0.772  0.767-  35 1.64   4 2.55
  83  0.998  0.892  0.034-  43 1.53   1 2.17
  84  0.986  0.078  0.858-  42 1.71  22 2.09
  85  0.226  0.355  0.707-  47 1.69  24 2.07
  86  0.836  0.870  0.930-  43 1.64  22 2.27   4 2.38
  87  0.334  0.055  0.009-  46 1.66  25 2.44
  88  0.653  0.905  0.029-  31 1.53  53 1.81
[...]
 121  0.613  0.791  0.169-  31 1.75   5 2.56  27 2.56
 122  0.284  0.180  0.613-  48 1.56  47 1.57
 123  0.812  0.399  0.343-  28 1.57
 124  0.269  0.780  0.756-  35 1.63  17 2.32  12 2.46
 125  0.447  0.654  0.999-  37 1.57  33 1.71
 126  0.097  0.076  0.135-  54 1.56   1 2.30  15 2.44
 127  0.628  0.569  0.560-  40 1.61   6 2.56
 128  0.408  0.275  0.723-  47 1.72  51 1.82
 129  0.510  0.405  0.399-  38 1.70   6 2.22
 130  0.591  0.997  0.509-  50 1.56  10 2.29
 131  0.447  0.910  0.154-  46 1.66   5 1.96  27 2.30
 132  0.327  0.472  0.884-  32 1.84  12 2.21
 133  0.401  0.041  0.716-  48 1.67  16 2.16  25 2.45
 134  0.828  0.458  0.809-  29 1.82
 135  0.592  0.130  0.346-  50 1.54  26 2.31   2 2.40

IMPORTANT INFORMATION: All symmetrisations will be switched off!
NOSYMM: (Re-)initialisation of all symmetry stuff for point group C_1.

Automatic generation of k-mesh.
 generate k-points for:    2    2    2
Space group operators:
 irot       det(A)        alpha          n_x          n_y          n_z        tau_x        tau_y        tau_z
    1     1.000000     0.000001     1.000000     0.000000     0.000000     0.000000     0.000000     0.000000

 Subroutine IBZKPT returns following result:

 Found      8 irreducible k-points:

 Following reciprocal coordinates:
            Coordinates               Weight
  0.000000  0.000000  0.000000      1.000000
  0.500000  0.000000  0.000000      1.000000
  0.000000  0.500000  0.000000      1.000000
  0.500000  0.500000  0.000000      1.000000
  0.000000  0.000000  0.500000      1.000000
  0.500000  0.000000  0.500000      1.000000
  0.000000  0.500000  0.500000      1.000000
  0.500000  0.500000  0.500000      1.000000

 Following cartesian coordinates:
            Coordinates               Weight
  0.000000  0.000000  0.000000      1.000000
  0.037563  0.000000  0.000000      1.000000
  0.000000  0.037563  0.000000      1.000000
  0.037563  0.037563  0.000000      1.000000
  0.000000  0.000000  0.037563      1.000000
  0.037563  0.000000  0.037563      1.000000
  0.000000  0.037563  0.037563      1.000000
  0.037563  0.037563  0.037563      1.000000

 SYSTEM =  unknown system
 POSCAR =  Ca Si  O

 Startparameter for this run:
   NWRITE =      2    write-flag & timer
   PREC   = a         normal or accurate (medium, high low for compatibility)
   ISTART =      0    job   : 0-new  1-cont  2-samecut
   ICHARG =      2    charge: 1-file 2-atom 10-const
   ISPIN  =      1    spin polarized calculation?
   LNONCOLLINEAR =      F non collinear calculations
   LSORBIT =      F    spin-orbit coupling
   INIWAV =      1    electr: 0-lowe 1-rand  2-diag
   LASPH  =      F    aspherical Exc in radial PAW
   METAGGA=      F    non-selfconsistent MetaGGA calc.

 Electronic Relaxation 1
   ENCUT  =  600.0 eV  44.10 Ry    6.64 a.u.  26.59 26.59 26.59*2*pi/ulx,y,z
   ENINI  =  600.0     initial cutoff
   ENAUG  =  605.4 eV  augmentation charge cutoff
[...]
     0.000000000  0.000000000 13.310935620     0.000000000  0.000000000  0.075126199

  length of vectors
    13.310935620 13.310935620 13.310935620     0.075126199  0.075126199  0.075126199

 FORCES acting on ions
    electron-ion (+dipol)            ewald-force                    non-local-force                 convergence-correction
   -.226E+03 0.125E+03 -.249E+03   0.224E+03 -.127E+03 0.247E+03   0.239E+01 0.186E+01 0.176E+01   0.124E-03 -.198E-02 0.203E-03
   0.173E+03 0.515E+02 -.162E+03   -.171E+03 -.473E+02 0.161E+03   -.983E+00 -.264E+01 0.179E+01   -.172E-03 0.185E-02 -.327E-03
   -.383E+02 0.250E+03 0.934E+02   0.379E+02 -.242E+03 -.914E+02   0.472E+00 -.643E+01 -.582E+00   -.236E-02 0.139E-02 0.283E-02
   0.141E+03 -.753E+02 0.480E+02   -.138E+03 0.749E+02 -.516E+02   -.237E+01 0.721E+00 0.397E+01   0.169E-02 0.759E-04 -.229E-03
   0.486E+03 0.664E+02 -.184E+03   -.479E+03 -.697E+02 0.182E+03   -.589E+01 -.126E+01 0.241E+01   -.349E-02 -.225E-02 0.935E-03
   -.658E+01 0.354E+02 0.227E+02   0.836E+01 -.373E+02 -.191E+02   -.132E+00 0.127E+01 -.150E+01   -.180E-02 0.855E-03 0.108E-02
   -.737E+02 -.428E+02 0.422E+02   0.760E+02 0.464E+02 -.403E+02   -.121E+01 -.234E+01 -.361E+01   0.774E-03 0.419E-03 -.446E-03
   -.142E+03 0.781E+01 -.555E+02   0.141E+03 -.445E+01 0.586E+02   0.444E+01 -.277E+01 -.252E+01   -.147E-02 0.689E-03 -.118E-02
   -.121E+03 -.963E+02 0.248E+02   0.122E+03 0.968E+02 -.214E+02   0.417E+00 0.495E+00 -.393E+01   0.279E-03 -.345E-03 0.907E-03
   0.131E+03 0.763E+01 -.107E+03   -.135E+03 -.362E+01 0.109E+03   0.203E+01 -.324E+01 -.137E+01   0.607E-03 -.222E-02 -.646E-03
   -.104E+02 0.593E+02 0.196E+03   0.107E+02 -.591E+02 -.196E+03   -.126E+00 0.253E+00 -.676E+00   0.211E-02 -.176E-02 -.226E-02
   0.849E+02 0.164E+02 0.206E+03   -.820E+02 -.156E+02 -.201E+03   -.301E+01 -.699E+00 -.359E+01   0.102E-02 0.154E-02 0.180E-02
   -.120E+03 -.252E+03 -.221E+03   0.125E+03 0.248E+03 0.219E+03   -.353E+01 0.286E+01 0.281E+01   0.273E-02 0.336E-02 0.964E-03
   0.378E+02 -.409E+02 0.976E+02   -.405E+02 0.429E+02 -.101E+03   0.159E+01 -.173E+01 0.162E+01   -.194E-02 0.709E-03 -.173E-02
   -.955E+01 0.135E+03 0.502E+02   0.119E+02 -.132E+03 -.473E+02   -.215E+01 -.222E+01 -.397E+01   0.188E-02 -.281E-03 0.227E-03
   -.327E+02 0.124E+03 0.141E+03   0.344E+02 -.120E+03 -.135E+03   -.118E+01 -.444E+01 -.425E+01   -.271E-02 0.114E-02 -.123E-02
   0.632E+02 0.180E+03 0.346E+03   -.591E+02 -.177E+03 -.347E+03   -.454E+01 -.256E+01 0.513E-01   -.596E-03 0.325E-02 -.537E-02
   -.411E+02 -.739E+02 0.716E+02   0.407E+02 0.773E+02 -.706E+02   0.338E+00 0.117E+00 -.408E+01   -.203E-02 -.824E-03 -.422E-03
   -.304E+03 -.174E+03 -.100E+03   0.299E+03 0.175E+03 0.103E+03   0.358E+01 0.234E+00 -.188E+01   0.146E-02 0.353E-02 0.112E-02
   -.135E+03 0.635E+02 -.144E+03   0.136E+03 -.698E+02 0.142E+03   -.182E+01 0.386E+01 0.326E+01   0.332E-02 -.507E-02 -.396E-04
   -.632E+02 -.421E+02 0.157E+03   0.592E+02 0.396E+02 -.156E+03   0.426E+01 0.213E+01 -.143E+01   -.157E-02 -.735E-04 0.266E-03
   0.620E+02 -.156E+02 -.144E+02   -.620E+02 0.106E+02 0.867E+01   -.181E+01 0.379E+01 0.563E+01   -.175E-03 -.566E-03 0.283E-03
   -.192E+03 -.120E+03 0.183E+02   0.192E+03 0.120E+03 -.159E+02   0.428E+00 0.307E+01 -.118E+01   0.193E-02 0.231E-02 -.103E-02
   -.174E+02 -.546E+02 0.191E+03   0.162E+02 0.568E+02 -.191E+03   -.105E+01 -.178E+01 -.174E+01   0.123E-02 -.230E-02 0.101E-02
   -.359E+02 0.512E+02 -.791E+02   0.337E+02 -.532E+02 0.779E+02   0.215E+01 0.164E+01 0.152E+01   0.165E-02 -.115E-03 -.800E-03
   -.142E+03 -.200E+03 -.205E+03   0.136E+03 0.196E+03 0.198E+03   0.538E+01 0.427E+01 0.538E+01   -.844E-03 -.165E-02 -.206E-02
   0.128E+03 0.155E+03 -.212E+03   -.124E+03 -.157E+03 0.209E+03   -.219E+01 0.833E+00 0.284E+01   -.347E-03 -.190E-02 -.110E-02
   -.708E+01 -.238E+02 0.367E+02   0.513E+01 0.185E+02 -.387E+02   0.935E+00 0.864E+01 -.263E+01   -.429E-03 0.107E-02 -.556E-03
   0.370E+02 -.313E+02 0.184E+02   -.370E+02 0.325E+02 -.187E+02   -.146E+01 -.573E+01 0.271E+01   -.687E-03 0.483E-03 0.579E-03
   -.365E+02 -.500E+02 -.120E+03   0.319E+02 0.501E+02 0.106E+03   0.464E+01 0.345E+01 0.160E+02   0.102E-02 0.191E-03 -.345E-03
   -.357E+02 0.627E+02 -.515E+02   0.267E+02 -.573E+02 0.519E+02   0.675E+01 -.104E+02 0.983E+00   0.589E-05 -.590E-03 0.338E-03
   0.857E+02 0.774E+01 0.603E+02   -.892E+02 -.473E+01 -.533E+02   0.260E+01 -.124E+00 -.881E+01   0.105E-02 -.306E-03 0.512E-04
   -.569E+01 -.523E+02 0.687E+02   0.146E+01 0.496E+02 -.722E+02   0.766E+01 -.949E+00 0.906E+01   0.710E-04 -.392E-03 0.578E-03
   -.398E+02 0.129E+03 0.164E+02   0.466E+02 -.127E+03 -.201E+02   -.636E+01 -.607E+01 0.536E+01   0.154E-02 -.174E-02 -.334E-03
   -.470E+02 0.202E+02 -.437E+02   0.456E+02 -.204E+02 0.367E+02   0.857E+00 0.296E+00 0.620E+01   -.179E-03 0.481E-03 -.498E-03
   -.149E+02 0.659E+02 0.645E+02   0.200E+02 -.589E+02 -.601E+02   -.954E+01 -.119E+02 -.706E+01   -.659E-03 0.680E-03 0.231E-03
   0.989E+02 -.536E+02 -.700E+02   -.101E+03 0.592E+02 0.750E+02   0.544E+01 -.682E+01 0.495E+00   -.266E-03 -.234E-04 0.973E-03
   0.972E+02 -.442E+02 -.215E+02   -.980E+02 0.424E+02 0.168E+02   0.486E+00 0.434E+01 -.801E+00   0.442E-03 0.156E-03 -.605E-03
   -.633E+02 -.465E+02 -.475E+01   0.650E+02 0.399E+02 0.883E+01   -.198E+01 0.836E+01 -.508E+01   0.120E-03 0.351E-03 0.390E-03
   0.358E+02 -.159E+02 -.116E+03   -.318E+02 0.141E+02 0.108E+03   -.590E+01 0.392E+00 0.734E+01   -.207E-04 -.232E-03 -.465E-03
   0.640E+01 -.241E+02 -.853E+02   -.437E+01 0.188E+02 0.739E+02   -.470E+01 0.801E+01 0.916E+01   -.389E-03 0.701E-03 -.324E-03
   0.521E+02 0.212E+02 0.238E+02   -.499E+02 -.209E+02 -.237E+02   0.238E+00 -.197E+01 0.138E+01   0.471E-03 -.536E-03 0.117E-03
   -.386E+02 0.684E+02 -.768E+02   0.416E+02 -.552E+02 0.724E+02   -.696E+01 -.140E+02 0.434E+01   0.746E-04 0.121E-03 0.729E-03
   -.505E+02 -.596E+02 0.243E+02   0.448E+02 0.473E+02 -.189E+02   0.801E+01 0.778E+01 -.208E+01   -.633E-03 0.558E-03 0.250E-03
   0.696E+02 -.136E+02 0.777E+01   -.578E+02 0.179E+02 -.176E+01   -.803E+01 -.723E+00 -.836E+01   0.817E-04 0.645E-03 -.830E-03
   0.181E+03 0.127E+03 -.665E+02   -.179E+03 -.123E+03 0.605E+02   -.156E+01 -.428E+01 -.202E+00   -.555E-03 -.392E-03 -.527E-03
   -.125E+02 -.731E+02 0.108E+03   0.957E+01 0.712E+02 -.963E+02   0.584E+01 0.854E+01 -.702E+01   0.103E-02 -.109E-02 0.339E-03
   0.285E+02 0.128E+03 0.114E+03   -.192E+02 -.125E+03 -.115E+03   -.590E+01 -.895E+01 -.761E+00   -.432E-03 -.760E-03 0.183E-03
   0.961E+02 -.743E+02 0.612E+02   -.105E+03 0.734E+02 -.578E+02   0.107E+02 0.596E+00 -.502E+01   -.107E-02 0.790E-03 -.125E-02
   0.274E+02 0.370E+02 -.528E+02   -.240E+02 -.374E+02 0.566E+02   -.631E+01 0.318E+01 0.420E+01   -.115E-02 -.391E-04 0.686E-03
   0.594E+02 -.345E+02 0.884E+02   -.496E+02 0.404E+02 -.849E+02   -.104E+02 -.388E+01 -.700E+01   -.809E-04 0.639E-04 0.478E-03
   -.513E+02 0.220E+02 0.321E+01   0.550E+02 -.233E+02 -.107E+01   -.156E+01 -.437E+00 -.514E+01   0.198E-02 -.132E-02 -.753E-03
   -.276E+01 0.696E+02 0.330E+02   -.409E+01 -.701E+02 -.437E+02   0.914E+01 -.115E+01 0.933E+01   -.257E-03 0.130E-03 -.857E-04
   -.115E+02 0.325E+02 -.151E+02   0.215E+02 -.347E+02 0.139E+02   -.133E+02 0.109E+01 0.575E+01   0.797E-04 -.121E-02 0.186E-03
   -.924E+01 -.689E+02 0.173E+02   0.183E+02 0.914E+02 -.782E+01   -.818E+01 -.212E+02 -.944E+01   0.287E-02 -.153E-02 -.756E-03
   0.724E+02 -.201E+02 0.316E+02   -.959E+02 0.152E+02 -.170E+02   0.220E+02 0.567E+01 -.161E+02   -.197E-02 0.103E-02 0.122E-02
   0.152E+02 -.180E+03 0.377E+02   -.272E+02 0.189E+03 -.613E+02   0.793E+01 -.615E+01 0.212E+02   0.134E-02 0.156E-02 -.112E-02
   0.720E+02 -.676E+02 -.777E+02   -.861E+02 0.834E+02 0.952E+02   0.165E+02 -.170E+02 -.169E+02   -.639E-03 0.349E-03 -.690E-03
   0.347E+02 0.183E+02 0.102E+03   -.305E+02 -.321E+02 -.916E+02   -.567E+01 0.117E+02 -.120E+02   -.868E-03 -.128E-02 0.281E-03
   -.920E+02 -.347E+02 -.904E+02   0.980E+02 0.150E+02 0.102E+03   -.612E+01 0.216E+02 -.112E+02   0.554E-03 0.108E-02 0.718E-03
[...]
   0.949E+02 0.773E+02 0.185E+03   -.122E+03 -.836E+02 -.191E+03   0.231E+02 0.765E+01 0.560E+01   0.609E-03 -.149E-02 0.561E-03
   0.118E+03 0.135E+03 0.384E+02   -.132E+03 -.166E+03 -.439E+02   0.134E+02 0.307E+02 0.529E+01   -.130E-02 0.913E-03 -.884E-03
   -.113E+03 0.561E+02 0.662E+02   0.133E+03 -.587E+02 -.789E+02   -.194E+02 0.192E+01 0.123E+02   0.588E-03 0.166E-02 -.106E-02
   0.178E+03 -.177E+03 -.534E+02   -.192E+03 0.197E+03 0.444E+02   0.131E+02 -.188E+02 0.897E+01   0.624E-04 -.402E-04 0.104E-02
   -.150E+03 0.166E+03 -.732E+02   0.174E+03 -.179E+03 0.617E+02   -.238E+02 0.134E+02 0.927E+01   0.216E-03 -.241E-02 0.962E-03
   0.114E+02 -.129E+02 -.108E+03   -.870E+01 -.168E+02 0.105E+03   -.228E+01 0.321E+02 0.332E+01   -.380E-03 -.150E-03 -.133E-03
   -.302E+02 -.320E+02 0.372E+02   0.313E+02 0.259E+02 -.302E+02   -.849E-01 0.597E+01 -.661E+01   0.938E-03 -.104E-02 0.480E-03
   -.676E+00 0.326E+02 0.114E+03   0.156E+02 -.377E+02 -.133E+03   -.157E+02 0.394E+01 0.196E+02   -.459E-03 0.737E-03 -.160E-02
   0.983E+02 0.113E+03 -.111E+03   -.105E+03 -.139E+03 0.130E+03   0.834E+01 0.238E+02 -.200E+02   -.201E-02 -.953E-03 0.834E-03
   0.284E+03 0.839E+02 -.383E+02   -.278E+03 -.103E+03 0.410E+02   -.784E+01 0.236E+02 -.414E+01   -.857E-03 -.129E-02 0.994E-04
   0.781E+02 -.324E+02 0.797E+02   -.866E+02 0.411E+02 -.894E+02   0.958E+01 -.115E+02 0.116E+02   0.151E-02 -.604E-03 0.168E-02
   -.609E+02 0.635E+02 0.256E+02   0.739E+02 -.698E+02 -.545E+01   -.150E+02 0.783E+01 -.210E+02   -.856E-03 0.259E-03 0.108E-03
   0.777E+02 -.123E+02 -.464E+02   -.905E+02 -.232E+01 0.543E+02   0.148E+02 0.181E+02 -.847E+01   -.157E-02 -.127E-03 0.995E-03
   0.857E+02 0.124E+02 -.759E+02   -.848E+02 -.352E+01 0.457E+02   -.147E+01 -.921E+01 0.272E+02   -.936E-03 0.272E-03 -.689E-03
   0.111E+03 0.117E+03 -.235E+02   -.554E-12 -.239E-12 0.369E-12   -.111E+03 -.117E+03 0.235E+02   0.785E-02 -.411E-02 -.108E-01

 POSITION                                       TOTAL-FORCE (eV/Angst)
      1.70617     13.06309     13.23375         0.766879      0.512274     -0.255035
      6.05640      3.19429      4.04238         0.123042      1.561229      0.508157
     10.27455      3.79866      9.48943         0.016481      1.066197      1.407292
     11.69947     10.58768     10.27923         0.771711      0.348298      0.347481
      5.77299     10.50314      3.17213         1.266541     -4.530541      0.893447
      7.96089      5.06497      7.17095         1.642632     -0.668676      2.049653
      0.08441      4.62745      4.87961         1.085496      1.188740     -1.763451
      7.95788      5.58280      0.86009         3.349974      0.591207      0.554911
      1.32661      5.38102     11.39201         1.445372      1.002751     -0.515275
      9.74882     12.06454      6.29820        -1.649500      0.759277      1.400755
      1.75059      0.10423      9.48369         0.145321      0.379659     -0.610817
      4.60939      8.35010     11.00972        -0.098037      0.107915      0.665364
      2.00501      7.00511      1.76845         1.858101     -1.326435      0.719280
      8.01400      7.66206      4.65933        -1.031940      0.295425     -1.725468
      2.84120      2.88006      2.10482         0.220891      0.718944     -1.067138
      5.99035     11.79493      9.46721         0.530144     -0.655187      1.039912
      2.75622     10.58641      7.90325        -0.495807      0.135922     -0.899769
     12.20984      3.45163      0.44777        -0.030223      3.480410     -3.054756
     12.41257      8.91756      2.89111        -1.628934      2.187933      0.194130
      0.13916      1.58563      5.80154        -0.170934     -2.435773      1.852896
     10.23740      7.62776     12.84738         0.331012     -0.409578     -0.988070
     11.61440      0.44798     12.73747        -1.771631     -1.223333     -0.082615
     11.25711      9.23901      6.68305         0.599220      2.911761      1.305171
      1.29545      4.15321      8.41114        -2.265453      0.511628     -2.007656
      4.43221      1.94157     11.32147        -0.070915     -0.369915      0.278490
     10.08864      1.92460      3.97312        -0.084691      0.363562     -1.419523
      7.85201     12.95588      3.01468         2.102824     -0.403914     -0.401491
     11.30504      6.78067      4.81016        -1.022367      3.379221     -4.641825
     12.11753      7.20127      9.84851        -1.431407     -4.487074      2.313020
      3.11050      4.61343      4.74853         0.022449      3.506421      2.708280
      9.32067     10.77832      0.96005        -2.183525     -5.034400      1.379918
      5.19858      5.03645     12.81544        -0.905528      2.880506     -1.835507
      7.36683      9.02706     12.40958         3.439849     -3.661966      5.590513
     11.71182     12.39818      4.19889         0.501898     -3.418331      1.570412
      2.29046     10.68360     11.00796        -0.576035      0.140216     -0.759156
      8.94933      2.47217     11.99902        -4.460617     -4.809659     -2.672739
      5.70891      7.56576      1.04232         3.789906     -1.234740      5.422738
      5.46095      5.96295      6.20405        -0.321482      2.554423     -5.583788
      0.88534      8.33103     12.08791        -0.296664      1.724758     -0.995601
      8.19634      9.14251      7.80992        -1.899504     -1.454024     -1.107050
     11.77830      6.17240      1.77757        -2.666464      2.786223     -2.271718
      0.48901      2.52425     10.90942         2.432601     -1.692060      1.500827
     12.26500     10.83720     13.29370        -3.934103     -0.845047     -0.004687
     11.58466      5.92777      7.33842         2.309633     -4.494912      3.381684
      7.45238      2.41307      1.63837         3.791526      3.603438     -2.353187
      5.55894      0.18410      1.23326        -0.130778     -0.594616     -6.269846
      4.15790      3.88831      8.49723         2.960062      6.685694      4.230825
      4.74760      1.17349      8.10528         3.401037     -5.758623     -1.652237
      5.82688      9.21005      6.48474         1.423222     -0.242832     -1.620013
      7.81129      1.37552      6.10650        -2.847402      2.766453      7.995603
      7.01225      4.16551     10.37646        -0.578983      1.977064     -3.554590
     12.63588     12.18928      7.42697         2.084059     -1.712671     -2.998296
      7.89818     13.05123     12.41894         2.290254     -1.650852     -1.385527
      0.08731      1.53948      2.63302        -3.329423     -1.138205      4.504888
      0.06899      0.20549      7.92799         0.868113      1.255320      0.065656
     10.29433      5.38766      8.07317        -1.526543      0.773954     -1.517234
      2.30169      5.09317      3.50416        -4.120536      2.744040     -2.515431
      6.61655      9.80417      7.89582         2.328351     -1.115671      0.557429
      8.18326      7.66044     12.98120        -1.450055     -2.073117     -1.960179
      1.35288      6.99234     12.93789        -0.132048      1.981757      0.166030
[...]
      8.15649     10.52734      2.24787         2.332828      0.875318     -0.518121
      3.78197      2.39956      8.15597        -3.859162      1.346942     -0.633358
     10.80323      5.31024      4.56906        -0.063395     -0.319521     -0.191119
      3.57925     10.38014     10.06454         1.195297     -0.706483     -0.440881
      5.94571      8.70925     13.30267        -0.738422      1.462796      0.024933
      1.29616      1.01321      1.80243         0.458554      0.154779     -2.278555
      8.35593      7.57585      7.45208         0.464535      2.358101      0.242367
      5.43361      3.65561      9.62745         0.973134     -0.195193      0.380980
      6.79112      5.39473      5.31374        -0.761267     -1.129586      1.215087
      7.86704     13.27545      6.77794         1.922970     -2.093823     -1.050120
      5.94694     12.10723      2.05337        -1.619395      4.159024     -1.387068
      4.34779      6.28814     11.77050         1.042504     -2.798493      1.920514
      5.34387      0.54756      9.53145        -2.055282      1.591496     -0.826576
     11.01482      6.08989     10.76966         1.978600      3.440359     -0.522463
      7.87496      1.73088      4.61035        -0.514763     -0.288334     -2.981754
    total drift:                               -0.010114     -0.030741     -0.015402

  FREE ENERGIE OF THE ION-ELECTRON SYSTEM (eV)
  free  energy   TOTEN  =      -930.88854063 eV

  energy  without entropy=     -930.88823357  energy(sigma->0) =     -930.88838710