 vasp.5.4.4.18Apr17-6-g9f103f2a35 (build Oct 31 2019 15:01:46) complex

 executed on             LinuxIFC date 2024.04.29  16:38:13

 INCAR:
 POTCAR:    PAW_PBE Ca_sv 06Sep2000
 POTCAR:    PAW_PBE Si 05Jan2001
 POTCAR:    PAW_PBE O 08Apr2002
 POTCAR:    PAW_PBE Ca_sv 06Sep2000
   VRHFIN =Ca: 3s3p4s

   TITEL  = PAW_PBE Ca_sv 06Sep2000
   POMASS =   40.078; ZVAL   =   10.000    mass and valenz
   ENMAX  =  266.622; ENMIN  =  199.967 eV

   TITEL  = PAW_PBE Si 05Jan2001
   POMASS =   28.085; ZVAL   =    4.000    mass and valenz
   ENMAX  =  245.345; ENMIN  =  184.009 eV

   TITEL  = PAW_PBE O 08Apr2002
   POMASS =   16.000; ZVAL   =    6.000    mass and valenz
   ENMAX  =  400.000; ENMIN  =  300.000 eV

 Optimization of the real space projectors (new method)

 maximal supplied QI-value         = 16.25
 optimisation between [QCUT,QGAM] = [ 12.51, 25.03] = [ 43.85,175.40] Ry
 Optimized for a Real-space Cutoff    1.47 Angstroem

   l    n(q)    QCUT    max X(q) W(low)/X(q) W(high)/X(q)  e(spline)
   0     11    12.514    11.817    0.25E-04    0.32E-05    0.87E-07
   0     11    12.514     8.461    0.39E-04    0.59E-05    0.18E-06
   1     11    12.514     3.957    0.97E-05    0.57E-05    0.28E-07
   1     11    12.514     4.314    0.42E-04    0.14E-04    0.23E-06
   2     10    12.514    14.565    0.79E-04    0.50E-03    0.16E-05
   2     10    12.514    14.552    0.75E-04    0.48E-03    0.15E-05
 Optimization of the real space projectors (new method)

[...]

   l    n(q)    QCUT    max X(q) W(low)/X(q) W(high)/X(q)  e(spline)
   0      9    12.501   159.560    0.10E-03    0.83E-04    0.71E-07
   0      9    12.501   115.863    0.99E-04    0.81E-04    0.70E-07
   1      8    12.501    88.339    0.20E-03    0.25E-03    0.76E-07
   1      8    12.501    48.592    0.20E-03    0.24E-03    0.75E-07
 Optimization of the real space projectors (new method)

 maximal supplied QI-value         = 24.76
 optimisation between [QCUT,QGAM] = [ 12.38, 25.00] = [ 42.90,175.06] Ry
 Optimized for a Real-space Cutoff    1.16 Angstroem

   l    n(q)    QCUT    max X(q) W(low)/X(q) W(high)/X(q)  e(spline)
   0      9    12.378    20.381    0.16E-03    0.67E-05    0.31E-06
   0      9    12.378    15.268    0.17E-03    0.81E-05    0.33E-06
   1      8    12.378     5.964    0.20E-03    0.16E-03    0.30E-06
   1      8    12.378     5.382    0.18E-03    0.14E-03    0.26E-06
  PAW_PBE Ca_sv 06Sep2000               :
  PAW_PBE Si 05Jan2001                  :
  PAW_PBE O 08Apr2002                   :

 POSCAR: Ca Si  O
  positions in direct lattice
 exchange correlation table for  LEXCH =        8
   RHO(1)=    0.500       N(1)  =     2000
   RHO(2)=  100.500       N(2)  =     4000

 ion  position               nearest neighbor table
   1  0.280  0.313  0.401- 135 2.18 105 2.38 121 2.47  39 2.81  53 2.90
   2  0.702  0.623  0.684-  62 2.11  59 2.36  43 2.95
   3  0.015  0.411  0.249-  94 2.00 111 2.26  93 2.38
   4  0.705  0.629  0.272- 106 2.12  96 2.13  78 2.29  40 2.71  49 2.85
   5  0.938  0.341  0.583- 133 2.34 131 2.40  41 2.78
   6  0.783  0.348  0.118-  95 1.79 115 2.30  40 2.95
   7  0.039  0.105  0.671- 127 2.20  57 2.31  56 2.34  92 2.45  52 2.85
   8  0.284  0.147  0.899-  56 2.15  99 2.26  35 3.10
   9  0.490  0.721  0.963-  60 1.99 100 2.37  88 2.49  47 2.96  33 3.00
  10  0.938  0.878  0.154- 102 1.87  89 2.09 119 2.21  61 2.41
  11  0.555  0.243  0.979-  69 2.42 124 2.56
  12  1.000  0.631  0.517- 116 2.01 132 2.09 131 2.38  38 2.63  41 3.11
  13  0.459  0.981  0.100-  63 2.38  55 2.48  69 2.57  54 2.83  35 2.87  25 3.12  20 3.17
  14  0.411  0.707  0.317-  68 2.46  29 2.59  42 2.97
  15  0.236  0.816  0.966-  88 1.88 101 2.02  55 2.35  29 2.84  45 2.91
  16  0.894  0.970  0.849-  90 1.84  72 2.16  92 2.56  36 2.62
  17  0.697  0.113  0.559- 110 2.02 133 2.11  51 3.09
  18  0.055  0.643  0.873-  87 2.11  70 2.15  41 2.99
  19  0.758  0.595  0.984- 115 2.21  79 2.32  59 2.39  33 2.84
  20  0.269  0.065  0.230- 105 2.05 107 2.14 125 2.16  13 3.17
  21  0.255  0.479  0.085-  98 2.06  67 2.29 111 2.52  47 2.90
  22  0.192  0.434  0.819-  58 1.95 104 2.43 129 2.47
  23  0.547  0.308  0.403-  85 2.02 135 2.19  48 2.78
  24  0.448  0.340  0.653- 130 2.21  74 2.36  91 2.47 117 2.56  50 3.08
  25  0.644  0.059  0.235-  69 2.09 109 2.25  75 2.36 112 2.36 103 2.38  54 2.85  13 3.12  49 3.14

  26  0.926  0.147  0.213- 119 1.81  75 2.28  93 2.36  51 2.70  31 2.90
  27  0.255  0.880  0.491-  82 2.12  86 2.37  53 2.97
  28  0.721  0.859  0.558- 120 1.53  71 1.61 118 1.71 114 1.80  30 2.79  46 3.07
  29  0.290  0.785  0.177- 134 1.54  68 1.61 101 1.67  14 2.59  15 2.84
  30  0.534  0.888  0.663-  71 1.64  76 1.69  66 1.77 113 1.93  62 2.30  32 2.68  28 2.79  44 3.00

[...]

  55  0.342  0.962  0.949-  35 2.01  15 2.35  13 2.48
  56  0.194  0.109  0.764-  52 1.90   8 2.15   7 2.34
  57  0.127  0.245  0.601-  52 1.64   7 2.31
  58  0.052  0.466  0.772-  41 1.61  22 1.95
  59  0.634  0.583  0.848-  43 1.36   2 2.36  19 2.39
  60  0.391  0.612  0.010-  47 1.73   9 1.99
  61  0.807  0.748  0.130-  33 1.90  10 2.41
  62  0.571  0.715  0.649-  32 1.64   2 2.11  30 2.30
  63  0.572  0.944  0.959-  54 1.61  35 1.79  13 2.38
  64  0.756  0.928  0.084-  54 1.65  33 1.98
  65  0.915  0.089  0.432-  51 1.70  46 1.71
  66  0.553  0.920  0.794-  30 1.77  35 1.85
  67  0.382  0.408  0.984-  47 1.45  21 2.29
  68  0.282  0.843  0.286-  29 1.61  14 2.46
  69  0.618  0.099  0.080-  54 1.65  25 2.09  11 2.42  13 2.57
  70  0.169  0.737  0.796-  45 1.63  18 2.15
  71  0.654  0.924  0.641-  28 1.61  30 1.64
  72  0.022  0.995  0.953-  31 1.67  16 2.16
  73  0.201  0.687  0.364-  42 1.55
  74  0.583  0.381  0.769-  50 1.66  43 1.70  24 2.36
  75  0.785  0.138  0.318-  51 1.61  26 2.28  25 2.36
  76  0.427  0.821  0.629-  32 1.55  30 1.69
  77  0.014  0.189  0.989-  31 1.64  37 1.75
  78  0.822  0.496  0.282-   4 2.29
  79  0.694  0.758  0.944-  33 1.48  19 2.32
  80  0.885  0.233  0.848-  34 1.68  36 1.69
  81  0.855  0.418  0.773-  34 1.59  41 1.83
  82  0.226  0.036  0.533-  53 1.56  27 2.12
  83  0.445  0.523  0.801-  43 1.73  47 1.84
  84  0.727  0.429  0.610-  50 1.78
  85  0.654  0.356  0.300-  40 1.80  23 2.02
  86  0.384  0.988  0.418-  44 1.75  53 1.92  27 2.37
  87  0.906  0.626  0.811-  41 2.02  18 2.11
  88  0.340  0.793  0.867-  45 1.86  15 1.88   9 2.49
  89  0.825  0.949  0.245-  49 1.86  10 2.09
  90  0.778  0.042  0.891-  36 1.68  16 1.84  54 2.36
  91  0.288  0.415  0.579-  39 1.65  24 2.47
  92  0.855  0.109  0.713-  36 1.55   7 2.45  16 2.56
  93  0.955  0.267  0.347-  51 1.71  26 2.36   3 2.38
  94  0.011  0.379  0.097-  37 1.64   3 2.00
  95  0.810  0.365  0.983-  34 1.64   6 1.79
  96  0.558  0.555  0.257-  40 1.55   4 2.13
  97  0.416  0.610  0.544-  32 1.54
  98  0.288  0.516  0.236-  42 1.57  21 2.06
  99  0.449  0.114  0.853-  35 1.49   8 2.26
 100  0.585  0.753  0.116-  33 1.67   9 2.37
 101  0.190  0.753  0.102-  29 1.67  15 2.02
 102  0.980  0.760  0.226-  38 1.78  10 1.87
 103  0.564  0.078  0.400-  44 1.60  25 2.38
 104  0.175  0.329  0.973-  37 1.54  22 2.43
 105  0.254  0.133  0.372-  53 1.56  20 2.05   1 2.38
 106  0.797  0.746  0.341-  49 1.57  38 1.78   4 2.12
 107  0.164  0.066  0.101-  31 1.60  20 2.14
 108  0.534  0.353  0.150-  48 1.79  40 1.80
 109  0.517  0.175  0.210-  48 1.50  25 2.25
 110  0.642  0.221  0.657-  50 1.66  17 2.02
 111  0.121  0.545  0.210-  42 1.93   3 2.26  21 2.52
 112  0.601  0.883  0.262-  49 1.93  25 2.36
 113  0.488  0.991  0.566-  44 1.57  30 1.93
 114  0.615  0.848  0.468-  28 1.80  44 2.11
[...]
 121  0.207  0.490  0.406-  39 1.63  42 1.65   1 2.47
 122  0.020  0.345  0.882-  37 1.61  34 1.81
 123  0.713  0.271  0.825-  50 1.86  36 1.97  34 2.55
 124  0.574  0.438  0.950-  43 1.79  47 2.11  11 2.56
 125  0.329  0.219  0.207-  48 1.67  20 2.16
 126  0.351  0.659  0.686-  45 1.63  32 1.81
 127  0.000  0.960  0.591-  46 1.58   7 2.20
 128  0.946  0.814  0.439-  38 1.63  46 2.26
 129  0.269  0.596  0.884-  45 1.70  47 2.46  22 2.47
 130  0.302  0.290  0.725-  52 1.51  24 2.21
 131  0.886  0.518  0.606-  41 1.65  12 2.38   5 2.40
 132  0.918  0.606  0.380-  38 1.60  12 2.09
 133  0.830  0.205  0.535-  51 1.75  17 2.11   5 2.34
 134  0.399  0.787  0.128-  29 1.54
 135  0.414  0.347  0.306-  48 1.61   1 2.18  23 2.19

IMPORTANT INFORMATION: All symmetrisations will be switched off!
NOSYMM: (Re-)initialisation of all symmetry stuff for point group C_1.

Automatic generation of k-mesh.
 generate k-points for:    2    2    2
Space group operators:
 irot       det(A)        alpha          n_x          n_y          n_z        tau_x        tau_y        tau_z
    1     1.000000     0.000000     1.000000     0.000000     0.000000     0.000000     0.000000     0.000000

 Subroutine IBZKPT returns following result:

 Found      8 irreducible k-points:

 Following reciprocal coordinates:
            Coordinates               Weight
  0.000000  0.000000  0.000000      1.000000
  0.500000  0.000000  0.000000      1.000000
  0.000000  0.500000  0.000000      1.000000
  0.500000  0.500000  0.000000      1.000000
  0.000000  0.000000  0.500000      1.000000
  0.500000  0.000000  0.500000      1.000000
  0.000000  0.500000  0.500000      1.000000
  0.500000  0.500000  0.500000      1.000000

 Following cartesian coordinates:
            Coordinates               Weight
  0.000000  0.000000  0.000000      1.000000
  0.038669  0.000000  0.000000      1.000000
  0.000000  0.038669  0.000000      1.000000
  0.038669  0.038669  0.000000      1.000000
  0.000000  0.000000  0.038669      1.000000
  0.038669  0.000000  0.038669      1.000000
  0.000000  0.038669  0.038669      1.000000
  0.038669  0.038669  0.038669      1.000000

 SYSTEM =  unknown system
 POSCAR =  Ca Si  O

 Startparameter for this run:
   NWRITE =      2    write-flag & timer
   PREC   = a         normal or accurate (medium, high low for compatibility)
   ISTART =      0    job   : 0-new  1-cont  2-samecut
   ICHARG =      2    charge: 1-file 2-atom 10-const
   ISPIN  =      1    spin polarized calculation?
   LNONCOLLINEAR =      F non collinear calculations
   LSORBIT =      F    spin-orbit coupling
   INIWAV =      1    electr: 0-lowe 1-rand  2-diag
   LASPH  =      F    aspherical Exc in radial PAW
   METAGGA=      F    non-selfconsistent MetaGGA calc.

 Electronic Relaxation 1
   ENCUT  =  600.0 eV  44.10 Ry    6.64 a.u.  25.83 25.83 25.83*2*pi/ulx,y,z
   ENINI  =  600.0     initial cutoff
   ENAUG  =  605.4 eV  augmentation charge cutoff
   NELM   =     60;   NELMIN=  2; NELMDL= -5     # of ELM steps
   EDIFF  = 0.1E-05   stopping-criterion for ELM
   LREAL  =      T    real-space projection
   NLSPLINE    = F    spline interpolate recip. space projectors
   LCOMPAT=      F    compatible to vasp.4.4
   GGA_COMPAT  = T    GGA compatible to vasp.4.4-vasp.4.6
   LMAXPAW     = -100 max onsite density
   LMAXMIX     =    2 max onsite mixed and CHGCAR
   VOSKOWN=      0    Vosko Wilk Nusair interpolation
   ROPT   =   -0.00025  -0.00025  -0.00025
 Ionic relaxation
   EDIFFG = -.1E-01   stopping-criterion for IOM
   NSW    =      1    number of steps for IOM
   NBLOCK =      1;   KBLOCK =      1    inner block; outer block
[...]
     0.000000000  0.000000000 12.930412990     0.000000000  0.000000000  0.077337050

  length of vectors
    12.930412990 12.930412990 12.930412990     0.077337050  0.077337050  0.077337050

 FORCES acting on ions
    electron-ion (+dipol)            ewald-force                    non-local-force                 convergence-correction
   0.174E+03 -.481E+02 -.166E+02   -.171E+03 0.482E+02 0.136E+02   -.310E+01 -.111E+00 0.220E+01   -.119E-01 0.154E-01 -.556E-03
   -.125E+03 -.535E+02 0.150E+03   0.125E+03 0.564E+02 -.152E+03   0.229E+01 -.266E+01 0.617E+00   -.362E-02 0.163E-02 0.471E-02
   -.341E+02 -.237E+02 -.171E+03   0.326E+02 0.298E+02 0.168E+03   0.676E+00 -.342E+01 0.508E+01   0.681E-01 0.109E-01 -.101E-01
   0.494E+02 0.404E+02 -.219E+03   -.450E+02 -.456E+02 0.215E+03   -.268E+01 0.365E+01 0.174E+01   -.370E-01 0.406E-01 -.253E-02
   -.101E+03 -.247E+02 0.172E+03   0.962E+02 0.246E+02 -.175E+03   0.348E+01 -.265E+00 0.133E+01   0.195E-01 -.137E-02 0.421E-02
   -.966E+02 0.115E+03 -.205E+03   0.948E+02 -.106E+03 0.208E+03   0.495E+00 -.836E+01 0.484E+01   0.371E-02 -.257E-01 -.277E-01
   -.761E+02 0.172E+03 -.213E+02   0.786E+02 -.175E+03 0.194E+02   -.231E+01 0.192E+01 0.194E+01   0.566E-02 0.384E-02 -.665E-03
   0.693E+02 0.204E+02 -.755E+02   -.714E+02 -.235E+02 0.712E+02   0.900E+00 0.312E+01 0.476E+01   -.216E-02 0.212E-02 0.105E-03
   -.786E+02 -.676E+02 0.147E+03   0.748E+02 0.674E+02 -.144E+03   0.462E+01 0.239E+01 -.424E+01   -.962E-02 0.618E-04 0.973E-04
   -.335E+03 0.735E+02 0.185E+03   0.332E+03 -.741E+02 -.181E+03   0.277E+01 0.202E+01 -.646E+01   0.945E-02 0.502E-03 -.267E-02
   0.697E+02 0.509E+02 0.101E+03   -.688E+02 -.450E+02 -.101E+03   -.831E+00 -.329E+01 -.799E+00   -.787E-02 -.215E-02 -.293E-02
   -.958E+02 -.221E+03 -.971E+02   0.924E+02 0.218E+03 0.962E+02   0.169E+01 0.497E+01 0.169E+01   0.282E-01 -.453E-02 0.139E-01
   0.213E+03 -.270E+02 -.927E+02   -.214E+03 0.229E+02 0.895E+02   -.525E-01 0.257E+01 0.387E+01   -.595E-02 -.173E-02 -.147E-06
   -.745E+02 0.935E+02 -.223E+03   0.745E+02 -.953E+02 0.223E+03   0.175E+01 0.585E+00 0.120E+01   -.183E-01 -.955E-02 -.300E-02
   0.382E+03 -.175E+03 0.274E+02   -.379E+03 0.175E+03 -.300E+02   -.508E+01 0.264E+01 0.144E+01   -.562E-03 -.556E-02 0.345E-02
   -.202E+03 0.427E+03 0.162E+03   0.207E+03 -.426E+03 -.158E+03   0.351E+00 -.563E+01 -.515E+01   0.347E-02 0.401E-04 -.136E-03
   0.104E+03 0.363E+02 -.135E+02   -.102E+03 -.337E+02 0.154E+02   -.207E+01 -.485E+01 -.255E+01   -.181E-02 -.190E-02 0.321E-02
   0.133E+03 -.223E+03 -.148E+03   -.133E+03 0.224E+03 0.140E+03   0.490E+00 -.130E+01 0.761E+01   0.860E-02 -.208E-02 0.346E-02
   -.325E+03 -.658E+02 0.524E+02   0.320E+03 0.662E+02 -.508E+02   0.456E+01 -.933E+00 -.151E+01   0.274E-02 0.763E-02 -.159E-01
   0.171E+03 0.165E+03 0.206E+02   -.174E+03 -.157E+03 -.199E+02   0.316E+01 -.805E+01 -.973E+00   -.142E-02 0.209E-02 0.103E-02
   0.154E+03 0.274E+02 -.360E+02   -.152E+03 -.264E+02 0.390E+02   -.265E+01 -.816E+00 -.353E+01   -.155E-01 0.123E-01 0.330E-01
   -.117E+03 -.161E+02 0.757E+02   0.117E+03 0.157E+02 -.742E+02   0.351E+01 -.955E+00 -.691E+00   0.101E-02 0.146E-02 -.101E-02
   -.468E+02 -.121E+03 -.328E+03   0.495E+02 0.124E+03 0.320E+03   -.147E+01 -.274E+01 0.910E+01   -.202E-01 -.370E-02 0.573E-02
   -.987E+02 -.505E+02 0.141E+03   0.927E+02 0.500E+02 -.137E+03   0.454E+01 0.679E+00 -.315E+01   -.110E-01 0.261E-02 -.216E-02
   -.576E+02 -.224E+02 -.971E+02   0.584E+02 0.246E+02 0.104E+03   0.834E+00 -.183E+01 -.266E+01   -.479E-02 -.335E-02 -.522E-03
   -.152E+03 -.134E+03 -.362E+02   0.151E+03 0.131E+03 0.409E+02   -.444E+00 0.611E+01 -.148E+01   0.105E-01 -.497E-02 -.145E-02
   0.250E+03 0.239E+03 -.138E+03   -.249E+03 -.232E+03 0.137E+03   -.131E+01 -.708E+01 0.884E+00   0.609E-03 -.359E-02 -.212E-02
   -.247E+02 0.688E+02 -.267E+02   0.318E+02 -.750E+02 0.310E+02   -.775E+01 0.671E+01 -.747E+01   -.126E-02 0.134E-02 0.163E-02
   0.113E+03 0.846E+01 -.462E+02   -.110E+03 -.429E+01 0.426E+02   -.925E+01 -.390E+01 0.239E+01   -.266E-02 -.573E-02 0.106E-02
   0.515E+02 0.657E+01 -.460E+02   -.495E+02 -.236E+01 0.464E+02   -.307E+01 -.232E+01 -.653E-01   -.192E-02 -.164E-03 0.179E-03
   -.777E+02 0.172E+02 0.283E+02   0.761E+02 -.220E+02 -.263E+02   -.323E+00 0.174E+01 -.307E+01   0.215E-02 0.168E-03 -.678E-04
   0.909E+01 0.260E+02 0.965E+02   -.105E+02 -.330E+02 -.961E+02   0.710E+00 0.213E+01 0.319E+01   -.340E-02 -.774E-03 -.411E-03
   -.692E+02 -.334E+02 -.609E+00   0.659E+02 0.205E+02 -.559E+01   0.599E+01 0.122E+02 0.159E+02   -.151E-02 0.243E-02 -.198E-02
   -.222E+02 -.767E+02 -.443E+02   0.202E+02 0.706E+02 0.417E+02   0.371E+01 0.617E+00 0.326E+01   0.332E-02 -.501E-03 -.185E-02
   0.365E+02 0.299E+02 0.852E+02   -.406E+02 -.203E+02 -.891E+02   0.353E+01 -.189E+02 0.295E+01   -.166E-02 -.301E-03 -.197E-03
   0.972E+02 0.395E+02 -.145E+02   -.848E+02 -.374E+02 0.963E+01   -.129E+02 0.510E+01 0.701E+01   0.903E-03 -.362E-03 -.456E-03
   -.917E+01 0.111E+02 -.963E+02   0.149E+02 -.758E+01 0.908E+02   -.814E+01 -.553E+01 0.621E+01   0.473E-02 0.225E-02 0.108E-02
   -.119E+03 -.649E-01 0.704E+01   0.120E+03 -.135E+01 -.591E+01   -.103E+01 0.424E+01 -.672E+01   0.102E-01 0.972E-02 -.214E-02
   0.407E+02 0.123E+02 0.470E+01   -.387E+02 -.846E+01 -.135E+01   0.293E+00 -.344E+01 -.178E+01   0.361E-03 -.277E-02 -.401E-02
   0.133E+02 -.749E+01 -.450E+02   -.157E+02 0.132E+02 0.487E+02   0.357E+01 -.100E+02 -.635E+01   -.186E-01 -.130E-02 -.248E-02
   -.146E+02 -.120E+03 0.282E+02   0.150E+02 0.118E+03 -.289E+02   -.440E+01 0.438E+01 0.421E+01   0.468E-02 -.967E-03 0.332E-03
   0.187E+02 -.523E+02 -.403E+02   -.190E+02 0.540E+02 0.370E+02   -.484E+01 -.425E+01 -.857E+00   -.316E-02 -.949E-02 -.138E-01
   0.197E+02 0.291E+02 0.107E+03   -.148E+02 -.203E+02 -.974E+02   -.160E+02 -.250E+02 -.924E+01   -.300E-02 0.345E-03 -.121E-02
   0.913E+01 0.110E+03 0.464E+02   -.112E+02 -.944E+02 -.381E+02   0.206E+01 -.153E+02 -.921E+01   -.255E-02 -.194E-03 0.293E-03
   0.416E+02 -.429E+02 0.125E+03   -.433E+02 0.447E+02 -.123E+03   0.341E+01 0.214E+00 0.719E+00   -.981E-03 -.120E-02 0.213E-03
   -.134E+03 0.691E+02 0.193E+02   0.133E+03 -.656E+02 -.996E+01   0.171E+01 -.352E+01 -.119E+02   0.197E-02 0.123E-02 0.979E-03
   -.191E+02 -.224E+02 0.296E+02   0.119E+02 0.130E+02 -.197E+02   0.970E+01 0.163E+02 -.116E+02   -.517E-02 0.532E-03 0.122E-02
   0.646E+02 -.428E+02 0.487E+02   -.649E+02 0.356E+02 -.439E+02   -.354E+01 0.111E+02 -.679E+01   -.692E-02 0.154E-02 0.471E-03
   0.430E+02 -.670E+01 -.603E+02   -.362E+02 0.599E+01 0.583E+02   -.748E+01 0.709E+01 -.187E+01   -.132E-02 0.401E-02 -.354E-03
   -.312E+02 -.404E+02 0.850E+02   0.255E+02 0.376E+02 -.884E+02   0.710E+01 0.182E+01 0.290E+01   -.948E-03 -.657E-03 0.874E-03
   0.931E+00 -.142E+03 -.201E+02   0.117E+01 0.134E+03 0.173E+02   0.317E+00 0.651E+01 0.500E+01   0.380E-02 -.400E-02 0.264E-02
   0.185E+02 0.900E+02 0.199E+02   -.191E+02 -.813E+02 -.141E+02   -.124E+01 -.137E+02 -.742E+01   -.102E-02 0.280E-02 -.211E-02
   -.411E+02 -.121E+01 -.391E+02   0.250E+02 -.191E+01 0.389E+02   0.173E+02 0.711E+00 0.214E+01   -.162E-02 0.173E-02 -.281E-03
   -.855E+02 -.233E+02 0.939E+02   0.839E+02 0.224E+02 -.879E+02   0.518E+01 0.240E+01 -.733E+01   -.911E-03 -.353E-03 -.791E-03
   0.141E+03 -.542E+02 0.688E+02   -.154E+03 0.479E+02 -.687E+02   0.181E+02 0.937E+01 0.898E-01   -.186E-02 -.120E-02 0.363E-03
   0.179E+02 0.203E+03 0.157E+01   -.215E+02 -.220E+03 0.621E+01   0.401E+01 0.195E+02 -.106E+02   0.332E-03 0.185E-02 -.111E-02
   0.598E+02 -.299E+02 0.119E+03   -.770E+02 0.383E+02 -.138E+03   0.172E+02 -.844E+01 0.198E+02   0.371E-02 0.900E-02 -.460E-02
   -.392E+01 -.817E+02 0.772E+02   0.183E+02 0.697E+02 -.665E+02   -.169E+02 0.153E+02 -.138E+02   0.549E-02 -.486E-03 -.225E-02
   -.937E+02 -.141E+03 0.635E+02   0.120E+03 0.183E+03 -.490E+02   -.158E+02 -.277E+02 -.137E+02   -.335E-02 0.999E-03 -.254E-02
   0.672E+02 0.252E+02 -.141E+03   -.794E+02 -.104E+02 0.155E+03   0.137E+02 -.190E+02 -.138E+02   -.888E-02 -.162E-02 0.466E-02
[...]
   -.411E+02 -.620E+01 0.374E+02   0.515E+02 0.672E+01 -.646E+02   -.143E+02 0.154E+01 0.282E+02   0.544E-02 0.116E-02 -.467E-03
   0.654E+02 0.644E+02 -.369E+02   -.688E+02 -.579E+02 0.531E+02   0.320E+01 -.893E+01 -.174E+02   -.145E-03 -.122E-02 -.159E-02
   -.205E+02 0.368E+02 -.683E+02   0.302E+02 -.457E+02 0.884E+02   -.119E+02 0.105E+02 -.221E+02   -.766E-02 -.728E-03 -.458E-02
   0.165E+03 -.493E+02 0.110E+03   -.187E+03 0.456E+02 -.110E+03   0.218E+02 0.404E+01 -.150E+01   -.476E-02 0.561E-02 0.155E-02
   0.116E+03 -.409E+01 0.106E+03   -.113E+03 -.129E+02 -.121E+03   -.398E+01 0.183E+02 0.176E+02   -.342E-02 -.208E-02 -.158E-02
   -.154E+03 0.209E+03 -.800E+02   0.175E+03 -.221E+03 0.101E+03   -.215E+02 0.121E+02 -.209E+02   0.327E-02 0.135E-02 0.128E-02
   -.195E+03 -.685E+02 -.111E+03   0.195E+03 0.815E+02 0.130E+03   0.144E+01 -.123E+02 -.178E+02   0.637E-02 0.643E-02 0.140E-02
   0.113E+03 0.118E+02 0.681E+01   -.111E+03 -.203E+02 0.126E+02   -.409E+01 0.658E+01 -.214E+02   -.211E-02 -.121E-02 0.331E-02
   -.284E+02 0.193E+01 -.880E+02   0.478E+02 0.192E+02 0.104E+03   -.174E+02 -.187E+02 -.115E+02   -.325E-02 0.281E-02 -.322E-02
   0.648E+02 -.109E+03 0.132E+03   -.857E+02 0.111E+03 -.155E+03   0.241E+02 -.199E+01 0.234E+02   0.793E-02 -.264E-02 0.819E-02
   -.131E+02 0.130E+03 -.264E+01   0.401E+01 -.162E+03 0.348E+01   0.105E+02 0.314E+02 -.484E+00   0.354E-01 0.197E-01 0.222E-01
   -.404E+02 -.109E+03 -.532E+01   0.400E+02 0.106E+03 0.259E+02   0.770E+00 0.639E+01 -.231E+02   0.366E-02 -.224E-02 0.359E-02
   0.130E+02 -.200E+01 -.610E+02   0.204E+02 -.692E+00 0.463E+02   -.317E+02 0.365E+01 0.141E+02   -.646E-02 -.380E-02 0.147E-02
   0.553E+02 -.178E+03 -.625E+02   -.651E+02 0.202E+03 0.723E+02   0.111E+02 -.232E+02 -.659E+01   -.146E-01 0.632E-02 -.649E-03
   -.641E+02 0.886E+01 0.576E+02   0.867E-12 -.654E-12 -.171E-12   0.642E+02 -.892E+01 -.575E+02   -.795E-01 0.444E-01 -.468E-01

 POSITION                                       TOTAL-FORCE (eV/Angst)
      3.61614      4.04566      5.18804        -0.244688      0.020308     -0.858448
      9.07313      8.05192      8.83912         2.443400      0.213741     -0.937698
      0.19168      5.31445      3.21894        -0.776745      2.646402      2.317241
      9.11145      8.13285      3.51560         1.742332     -1.528369     -1.537516
     12.12962      4.41218      7.53939        -0.925754     -0.401142     -0.802961
     10.12175      4.49429      1.52628        -1.303531      0.839396      7.100277
      0.50873      1.35657      8.67339         0.223389     -0.523222      0.070924
      3.66745      1.90539     11.62319        -1.253214      0.023767      0.490247
      6.33245      9.31767     12.45498         0.815833      2.115869     -0.531757
     12.13186     11.35247      1.98569        -0.391526      1.509161     -3.247918
      7.18283      3.14191     12.65466         0.071058      2.606453     -0.285544
     12.92935      8.15713      6.68240        -1.624633      1.910556      0.798021
      5.93752     12.68145      1.29748        -1.054058     -1.558261      0.627815
      5.31478      9.14731      4.10243         1.796893     -1.271047      0.704969
      3.04886     10.54786     12.49593        -2.331900      2.412386     -1.159237
     11.55913     12.54889     10.97656         5.444823     -4.434560     -1.558848
      9.01179      1.46124      7.22187        -0.189277     -2.308595     -0.608444
      0.71480      8.31293     11.28975         0.891518      0.049798      0.159590
      9.80518      7.69555     12.72715         0.030833     -0.544561      0.112286
      3.47296      0.83551      2.97135        -0.384299     -0.179717     -0.238474
      3.29354      6.19312      1.09911        -0.586867      0.235219     -0.451213
      2.47911      5.61629     10.59113         3.626797     -1.398506      0.847158
      7.07108      3.97983      5.20881         1.200297     -0.288585      0.506668
      5.79254      4.39987      8.44204        -1.419210      0.199484      0.473958
      8.32084      0.75939      3.03701         1.684858      0.374635      4.493366
     11.97984      1.90112      2.75481        -1.747722      3.042821      3.275032
      3.29470     11.37792      6.35251        -0.176045     -0.195164     -0.203374
      9.32366     11.10525      7.21730        -0.657089      0.513959     -3.176936
      3.75544     10.14437      2.28783        -6.830281      0.261021     -1.262227
      6.91026     11.47772      8.56761        -1.069562      1.887720      0.377775
      0.73372      1.06077      0.54294        -1.859407     -3.132434     -1.157946
      5.85618      9.13397      7.80041        -0.691806     -4.848824      3.596295
      8.93494     10.24962      0.68499         2.684925     -0.677098      9.681907
     11.38665      4.65182     11.35629         1.770826     -5.491912      0.609493
      6.13938      0.05539     11.38012        -0.575920     -9.290890     -0.945476
     10.29454      1.86285     10.50425        -0.563685      7.202524      2.178767
      0.75744      4.09270     12.89626        -2.444176     -1.993028      0.665317
     12.06210      9.37733      4.52453         0.166268      2.836976     -5.593182
      2.35664      5.96837      6.81258         2.297286      0.377254      1.561345
      7.82437      5.86675      2.76126         1.190308     -4.249334     -2.624477
     12.26220      6.57707      9.28077        -3.965387      2.617962      3.509256
      2.84761      7.48618      4.07995        -5.163261     -2.635395     -4.178670
      7.41588      6.46137     10.69134       -11.074665    -16.223126      0.739935
      6.66185     12.60745      5.79699         0.019646     -0.037249     -0.959729
      3.66684      8.87608     10.20058         1.752490      2.023222      2.876838
     11.89278     12.60946      6.47527         0.805613      0.068029     -2.589278
      5.48793      6.49975     12.15649         2.486383      6.954505     -1.730372
      5.78946      3.46290      2.80100        -3.842449      3.855943     -2.020249
      9.58068     10.92289      3.83898        -0.641622      6.389624     -3.877128
      8.80720      4.34153      9.05950         1.404633     -0.912677     -0.475733
     11.04069      2.59528      5.18783         2.423129     -1.592416      2.107964
      2.96345      2.80470      8.66942        -1.851317     -4.931054     -1.605859
      3.99555      1.33041      6.14303         1.164914     -2.397645      1.972468
      8.59487     12.85722      0.32909         3.606074      1.472434     -1.380052
      4.42596     12.43742     12.27539         4.576400      2.994504      0.277500
      2.51065      1.40977      9.87528         0.360416      2.940747     -2.788781
      1.63733      3.16444      7.77136        -0.010639     -0.023742      0.896022
      0.67827      6.02659      9.97866        -2.482051      3.307938     -3.221233
      8.20329      7.53267     10.96683        10.709856     13.633975      0.749436
      5.06127      7.91537      0.13053         1.574312     -4.235073      0.029875
[...]
      2.67924      6.33200      5.25169        -0.455117     -1.671777      0.946541
      0.25885      4.45508     11.40630        -3.895853      2.061943      1.004066
      9.21850      3.49882     10.67070        -0.168635     -2.473442     -1.113061
      7.42388      5.66118     12.28886        -2.228819      1.664048     -1.985838
      4.25102      2.82773      2.68113         0.386155      0.353681     -2.198475
      4.54184      8.51770      8.87378        -1.559200      1.389936      2.533479
      0.00352     12.40909      7.64651        -0.244996      0.387393      0.012405
     12.22654     10.52333      5.67367         1.791340      0.682903      0.577020
      3.47805      7.71268     11.42605        -2.090498     -1.980141     -2.055223
      3.90197      3.74901      9.37766         1.971313      2.475866      4.148691
     11.45964      6.69322      7.83996         3.235006      0.280068      1.178930
     11.86737      7.83630      4.90986         1.422398     -0.059751      0.374896
     10.73231      2.64914      6.91258         0.433862      3.615379     -2.535743
      5.15797     10.18131      1.65930         1.687378      0.946548     -0.582564
      5.35109      4.49274      3.95308         1.318726      0.637148      3.159200
    total drift:                               -0.002992     -0.015292     -0.011061

  FREE ENERGIE OF THE ION-ELECTRON SYSTEM (eV)
  free  energy   TOTEN  =      -889.76636399 eV

  energy  without entropy=     -889.73561662  energy(sigma->0) =     -889.75099030