 vasp.5.4.4.18Apr17-6-g9f103f2a35 (build Oct 31 2019 15:01:46) complex

 executed on             LinuxIFC date 2024.04.29  12:45:52

 INCAR:
 POTCAR:    PAW_PBE Ca_sv 06Sep2000
 POTCAR:    PAW_PBE Si 05Jan2001
 POTCAR:    PAW_PBE O 08Apr2002
 POTCAR:    PAW_PBE Ca_sv 06Sep2000
   VRHFIN =Ca: 3s3p4s

   TITEL  = PAW_PBE Ca_sv 06Sep2000
   POMASS =   40.078; ZVAL   =   10.000    mass and valenz
   ENMAX  =  266.622; ENMIN  =  199.967 eV

   TITEL  = PAW_PBE Si 05Jan2001
   POMASS =   28.085; ZVAL   =    4.000    mass and valenz
   ENMAX  =  245.345; ENMIN  =  184.009 eV

   TITEL  = PAW_PBE O 08Apr2002
   POMASS =   16.000; ZVAL   =    6.000    mass and valenz
   ENMAX  =  400.000; ENMIN  =  300.000 eV

 Optimization of the real space projectors (new method)

 maximal supplied QI-value         = 16.25
 optimisation between [QCUT,QGAM] = [ 12.51, 25.03] = [ 43.85,175.40] Ry
 Optimized for a Real-space Cutoff    1.47 Angstroem

   l    n(q)    QCUT    max X(q) W(low)/X(q) W(high)/X(q)  e(spline)
   0     11    12.514    11.817    0.25E-04    0.32E-05    0.87E-07
   0     11    12.514     8.461    0.39E-04    0.59E-05    0.18E-06
   1     11    12.514     3.957    0.97E-05    0.57E-05    0.28E-07
   1     11    12.514     4.314    0.42E-04    0.14E-04    0.23E-06
   2     10    12.514    14.565    0.79E-04    0.50E-03    0.16E-05
   2     10    12.514    14.552    0.75E-04    0.48E-03    0.15E-05
 Optimization of the real space projectors (new method)

[...]

   l    n(q)    QCUT    max X(q) W(low)/X(q) W(high)/X(q)  e(spline)
   0      9    12.501   159.560    0.10E-03    0.83E-04    0.71E-07
   0      9    12.501   115.863    0.99E-04    0.81E-04    0.70E-07
   1      8    12.501    88.339    0.20E-03    0.25E-03    0.76E-07
   1      8    12.501    48.592    0.20E-03    0.24E-03    0.75E-07
 Optimization of the real space projectors (new method)

 maximal supplied QI-value         = 24.76
 optimisation between [QCUT,QGAM] = [ 12.38, 25.00] = [ 42.90,175.06] Ry
 Optimized for a Real-space Cutoff    1.16 Angstroem

   l    n(q)    QCUT    max X(q) W(low)/X(q) W(high)/X(q)  e(spline)
   0      9    12.378    20.381    0.16E-03    0.67E-05    0.31E-06
   0      9    12.378    15.268    0.17E-03    0.81E-05    0.33E-06
   1      8    12.378     5.964    0.20E-03    0.16E-03    0.30E-06
   1      8    12.378     5.382    0.18E-03    0.14E-03    0.26E-06
  PAW_PBE Ca_sv 06Sep2000               :
  PAW_PBE Si 05Jan2001                  :
  PAW_PBE O 08Apr2002                   :

 POSCAR: Ca Si  O
  positions in direct lattice
 exchange correlation table for  LEXCH =        8
   RHO(1)=    0.500       N(1)  =     2000
   RHO(2)=  100.500       N(2)  =     4000

 ion  position               nearest neighbor table
   1  0.298  0.142  0.542- 133 1.96  89 2.06  56 2.14 131 2.29  33 3.03  25 3.04  35 3.11
   2  0.658  0.341  0.723- 100 2.31  63 2.46  77 2.56
   3  0.368  0.562  0.472-  92 2.11  68 2.51  41 2.67  14 3.09
   4  0.363  0.752  0.671-  64 2.11  87 2.17  68 2.41  32 3.03
   5  0.569  0.276  0.436-  89 2.43 123 2.46 104 2.50  95 2.53
   6  0.759  0.341  0.252-  62 2.02  71 2.06 117 2.42  40 2.92
   7  0.464  0.278  0.076-  84 2.06
   8  0.015  0.605  0.816- 115 2.28  55 2.36 121 2.37 116 2.44  54 2.89  44 2.99
   9  0.882  0.123  0.767-  93 2.19
  10  0.146  0.415  0.654-  90 1.93 121 2.45 133 2.54  35 3.13
  11  0.202  0.925  0.223-  65 2.13 128 2.56  46 3.01
  12  0.959  0.164  0.207- 128 2.16  86 2.34  91 2.49  31 2.84  28 3.14
  13  0.456  0.878  0.117-  59 2.11 101 2.28  67 2.42  45 3.06  53 3.07
  14  0.456  0.774  0.436- 103 1.84 124 1.91  30 2.81  51 2.82   3 3.09
  15  0.632  0.533  0.375- 119 1.94 108 2.22  71 2.26  62 2.51  37 3.13
  16  0.159  0.351  0.926- 110 2.00  83 2.34  90 2.40
  17  0.821  0.069  0.398-  86 2.26  70 2.32 123 2.35
  18  0.505  0.071  0.866-  59 2.49  33 2.91  47 3.05  53 3.13
  19  0.688  0.862  0.542-  74 2.16 103 2.42  30 2.88
  20  0.323  0.697  0.010-  67 1.94  96 2.16  53 2.89
  21  0.980  0.482  0.103-  83 1.95 129 2.31  61 2.36 122 2.43  54 3.03
  22  0.064  0.906  0.666-  97 2.30  64 2.43  58 2.56
  23  0.733  0.916  0.206- 132 2.14 102 2.19  86 2.25 101 2.52  42 3.11  31 3.14  36 3.16
  24  0.808  0.582  0.564- 114 2.00 100 2.55  37 2.98
  25  0.194  0.223  0.355-  75 2.00  91 2.28   1 3.04
  26  0.763  0.605  0.013- 122 2.02 120 2.03 127 2.13 129 2.55  45 2.81  38 3.05
  27  0.122  0.049  0.959- 134 2.07 118 2.37  47 3.07
  28  0.928  0.269  0.998-  79 1.62  83 1.71  99 1.73 117 1.77 129 2.45  38 2.94  44 3.13  12 3.14

  29  0.181  0.484  0.262-  61 1.53  76 1.57 109 1.81 107 2.24  41 2.48
  30  0.486  0.936  0.567- 131 1.59 113 1.67 103 1.79  85 2.10  33 2.65  14 2.81  19 2.88
  31  0.965  0.951  0.186-  78 1.48 128 1.63 106 1.80  86 1.81  12 2.84  39 2.96  23 3.14
  32  0.160  0.686  0.592-  81 1.59 121 1.69 112 1.69  64 2.07   4 3.03  49 3.08
  33  0.495  0.115  0.652-  63 1.58 131 1.71  89 1.97  88 2.20  85 2.28  30 2.65  18 2.91   1 3.03

[...]

  48  0.851  0.801  0.781- 115 1.51  82 1.60  69 1.69  39 3.06
  49  0.038  0.814  0.442-  97 1.38  60 1.51 112 1.86  73 1.90  52 2.84  32 3.08
  50  0.622  0.098  0.074-  98 1.50  84 1.73 132 1.87
  51  0.403  0.678  0.254- 124 1.62  67 1.72 108 1.78 109 2.22  14 2.82
  52  0.067  0.709  0.259- 135 1.74  66 1.79 106 1.86  60 2.18  49 2.84
  53  0.385  0.872  0.897-  59 1.52  87 1.79  96 1.86 118 2.25  20 2.89  13 3.07  18 3.13
  54  0.047  0.682  0.017-  55 1.67  66 1.69  57 1.73 122 1.92   8 2.89  39 2.99  21 3.03
  55  0.137  0.661  0.932-  54 1.67   8 2.36
  56  0.151  0.078  0.539-  34 1.62   1 2.14
  57  0.032  0.809  0.038-  39 1.69  54 1.73
  58  0.129  0.075  0.732-  35 1.53  47 2.40  22 2.56
  59  0.467  0.916  0.963-  53 1.52  13 2.11  18 2.49
  60  0.131  0.800  0.379-  49 1.51  52 2.18
  61  0.149  0.464  0.154-  29 1.53  21 2.36
  62  0.792  0.434  0.368-  40 1.60   6 2.02  15 2.51
  63  0.528  0.210  0.716-  33 1.58   2 2.46
  64  0.213  0.802  0.682-  32 2.07   4 2.11  22 2.43
  65  0.342  0.932  0.300-  46 1.58  11 2.13
  66  0.093  0.664  0.134-  54 1.69  52 1.79
  67  0.407  0.703  0.128-  51 1.72  20 1.94  13 2.42
  68  0.484  0.638  0.599-  37 1.63   4 2.41   3 2.51
  69  0.846  0.816  0.907-  48 1.69  39 1.81
  70  0.944  0.076  0.522-  34 1.58  17 2.32
  71  0.635  0.433  0.238-  43 1.67   6 2.06  15 2.26
  72  0.960  0.338  0.458-  40 1.53
  73  0.913  0.840  0.379-  42 1.87  49 1.90
  74  0.672  0.929  0.395-  36 1.93  19 2.16
  75  0.331  0.164  0.333-  46 1.68  25 2.00
  76  0.145  0.440  0.365-  29 1.57
  77  0.760  0.322  0.884-  38 1.56   2 2.56
  78  0.932  0.956  0.080-  31 1.48  39 1.73
  79  0.913  0.148  0.010-  28 1.62
  80  0.277  0.174  0.932-  47 1.81
  81  0.249  0.714  0.518-  32 1.59
  82  0.807  0.896  0.721-  48 1.60
  83  0.007  0.369  0.013-  28 1.71  21 1.95  16 2.34
  84  0.497  0.128  0.058-  50 1.73   7 2.06
  85  0.591  0.976  0.678-  30 2.10  33 2.28
  86  0.862  0.021  0.240-  31 1.81  23 2.25  17 2.26  12 2.34
  87  0.376  0.754  0.833-  53 1.79   4 2.17
  88  0.365  0.156  0.747-  47 1.46  33 2.20
  89  0.442  0.197  0.540-  33 1.97   1 2.06   5 2.43
  90  0.069  0.390  0.774-  44 1.86  10 1.93  16 2.40
  91  0.066  0.111  0.350-  34 1.74  25 2.28  12 2.49
  92  0.328  0.420  0.414-  41 1.43   3 2.11
  93  0.004  0.212  0.701-  35 1.75   9 2.19
  94  0.651  0.334  0.066-  38 1.70  43 2.40
  95  0.737  0.338  0.500-  40 1.68   5 2.53
  96  0.283  0.853  0.991-  53 1.86  20 2.16
  97  0.047  0.903  0.494-  49 1.38  34 2.15  22 2.30
  98  0.647  0.017  0.999-  50 1.50
  99  0.916  0.299  0.872-  44 1.62  28 1.73
 100  0.661  0.501  0.656-  37 1.54   2 2.31  24 2.55
 101  0.586  0.798  0.193-  45 1.53  13 2.28  23 2.52
 102  0.824  0.782  0.178-  42 2.09  23 2.19
 103  0.516  0.805  0.556-  30 1.79  14 1.84  19 2.42
 104  0.461  0.385  0.328-  41 1.60   5 2.50
 105  0.487  0.517  0.074-  43 1.68
 106  0.030  0.837  0.217-  31 1.80  52 1.86
 107  0.310  0.399  0.195-  41 1.75  29 2.24
[...]
 121  0.115  0.596  0.669-  32 1.69   8 2.37  10 2.45
 122  0.913  0.628  0.015-  54 1.92  26 2.02  21 2.43
 123  0.652  0.112  0.418-  36 1.63  17 2.35   5 2.46
 124  0.360  0.763  0.330-  51 1.62  14 1.91
 125  0.835  0.597  0.346-  42 1.94
 126  0.647  0.619  0.168-  45 1.49  43 1.89
 127  0.668  0.733  0.002-  45 1.71  26 2.13
 128  0.053  0.036  0.174-  31 1.63  12 2.16  11 2.56
 129  0.850  0.436  0.997-  38 1.69  21 2.31  28 2.45  26 2.55
 130  0.481  0.063  0.285-  46 1.51  36 1.67
 131  0.418  0.031  0.593-  30 1.59  33 1.71   1 2.29
 132  0.651  0.054  0.204-  50 1.87  36 2.12  23 2.14
 133  0.205  0.242  0.599-  35 1.83   1 1.96  10 2.54
 134  0.006  0.958  0.909-  39 1.61  27 2.07
 135  0.058  0.615  0.349-  52 1.74

IMPORTANT INFORMATION: All symmetrisations will be switched off!
NOSYMM: (Re-)initialisation of all symmetry stuff for point group C_1.

Automatic generation of k-mesh.
 generate k-points for:    2    2    2
Space group operators:
 irot       det(A)        alpha          n_x          n_y          n_z        tau_x        tau_y        tau_z
    1     1.000000     0.000001     1.000000     0.000000     0.000000     0.000000     0.000000     0.000000

 Subroutine IBZKPT returns following result:

 Found      8 irreducible k-points:

 Following reciprocal coordinates:
            Coordinates               Weight
  0.000000  0.000000  0.000000      1.000000
  0.500000  0.000000  0.000000      1.000000
  0.000000  0.500000  0.000000      1.000000
  0.500000  0.500000  0.000000      1.000000
  0.000000  0.000000  0.500000      1.000000
  0.500000  0.000000  0.500000      1.000000
  0.000000  0.500000  0.500000      1.000000
  0.500000  0.500000  0.500000      1.000000

 Following cartesian coordinates:
            Coordinates               Weight
  0.000000  0.000000  0.000000      1.000000
  0.037563  0.000000  0.000000      1.000000
  0.000000  0.037563  0.000000      1.000000
  0.037563  0.037563  0.000000      1.000000
  0.000000  0.000000  0.037563      1.000000
  0.037563  0.000000  0.037563      1.000000
  0.000000  0.037563  0.037563      1.000000
  0.037563  0.037563  0.037563      1.000000

 SYSTEM =  unknown system
 POSCAR =  Ca Si  O

 Startparameter for this run:
   NWRITE =      2    write-flag & timer
   PREC   = a         normal or accurate (medium, high low for compatibility)
   ISTART =      0    job   : 0-new  1-cont  2-samecut
   ICHARG =      2    charge: 1-file 2-atom 10-const
   ISPIN  =      1    spin polarized calculation?
   LNONCOLLINEAR =      F non collinear calculations
   LSORBIT =      F    spin-orbit coupling
   INIWAV =      1    electr: 0-lowe 1-rand  2-diag
   LASPH  =      F    aspherical Exc in radial PAW
   METAGGA=      F    non-selfconsistent MetaGGA calc.

 Electronic Relaxation 1
   ENCUT  =  600.0 eV  44.10 Ry    6.64 a.u.  26.59 26.59 26.59*2*pi/ulx,y,z
   ENINI  =  600.0     initial cutoff
   ENAUG  =  605.4 eV  augmentation charge cutoff
   NELM   =     60;   NELMIN=  2; NELMDL= -5     # of ELM steps
   EDIFF  = 0.1E-05   stopping-criterion for ELM
   LREAL  =      T    real-space projection
   NLSPLINE    = F    spline interpolate recip. space projectors
   LCOMPAT=      F    compatible to vasp.4.4
[...]
     0.000000000  0.000000000 13.310935620     0.000000000  0.000000000  0.075126199

  length of vectors
    13.310935620 13.310935620 13.310935620     0.075126199  0.075126199  0.075126199

 FORCES acting on ions
    electron-ion (+dipol)            ewald-force                    non-local-force                 convergence-correction
   -.289E+02 -.425E+02 0.258E+01   0.296E+02 0.440E+02 0.669E+00   0.537E+00 -.314E+01 -.381E+01   0.320E-03 -.246E-03 0.411E-03
   0.119E+03 0.488E+02 -.925E+02   -.119E+03 -.450E+02 0.931E+02   0.226E+00 -.290E+01 -.394E+00   -.133E-02 0.218E-02 -.118E-03
   0.175E+03 0.143E+03 -.374E+03   -.173E+03 -.145E+03 0.373E+03   -.117E+01 0.280E+01 0.171E+01   0.109E-02 0.162E-02 0.132E-02
   -.100E+03 0.128E+03 -.277E+03   0.965E+02 -.129E+03 0.280E+03   0.392E+01 0.323E+00 -.286E+01   0.205E-03 -.971E-03 0.182E-03
   -.141E+02 0.532E+01 -.126E+03   0.106E+02 -.563E+01 0.128E+03   0.214E+01 0.923E+00 -.193E+01   0.365E-03 -.922E-04 0.897E-03
   -.969E+02 0.252E+03 0.133E+02   0.958E+02 -.246E+03 -.178E+02   0.131E+01 -.736E+01 0.114E+01   -.145E-03 0.742E-03 0.452E-03
   0.205E+03 -.138E+03 0.204E+03   -.202E+03 0.137E+03 -.203E+03   -.317E+01 0.335E+01 -.489E+00   0.330E-03 0.114E-02 -.802E-03
   -.655E+02 0.415E+02 0.836E+02   0.670E+02 -.381E+02 -.864E+02   -.918E+00 -.284E+01 0.191E+01   0.119E-03 0.660E-03 0.952E-04
   0.345E+03 0.115E+03 0.552E+02   -.337E+03 -.111E+03 -.555E+02   -.665E+01 -.382E+01 0.652E+00   0.176E-02 -.279E-03 0.443E-03
   -.215E+03 -.140E+03 0.152E+03   0.212E+03 0.139E+03 -.152E+03   0.433E+01 0.110E+01 -.416E+01   0.105E-02 0.288E-03 0.513E-03
   -.698E+02 -.107E+03 0.142E+03   0.660E+02 0.105E+03 -.139E+03   0.851E+00 0.575E+00 -.341E+01   -.623E-04 -.115E-02 0.305E-03
   -.687E+02 -.316E+03 -.409E+02   0.682E+02 0.311E+03 0.369E+02   0.205E+00 0.556E+01 0.290E+01   -.746E-03 -.127E-02 0.258E-03
   0.501E+02 -.157E+03 0.119E+03   -.479E+02 0.154E+03 -.121E+03   -.220E+01 0.359E+01 0.309E+01   0.456E-03 -.130E-02 0.868E-03
   0.296E+02 -.374E+02 -.666E+02   -.291E+02 0.351E+02 0.621E+02   0.462E+00 0.125E+00 0.528E+00   0.167E-02 -.272E-03 -.596E-03
   -.144E+03 -.990E+00 -.566E+02   0.142E+03 0.454E+00 0.541E+02   0.446E+01 0.180E+01 -.581E+00   0.105E-02 0.266E-02 0.186E-03
   -.445E+03 -.193E+03 -.156E+03   0.439E+03 0.188E+03 0.154E+03   0.559E+01 0.530E+01 0.363E+01   0.622E-03 0.275E-03 -.132E-02
   -.259E+02 -.209E+03 -.252E+03   0.253E+02 0.206E+03 0.252E+03   0.148E+00 0.271E+01 0.320E+00   -.954E-03 -.211E-02 -.679E-03
   -.169E+03 -.948E+02 0.577E+02   0.170E+03 0.933E+02 -.535E+02   -.150E+00 0.115E+01 -.246E+01   -.135E-02 -.274E-03 -.147E-03
   -.249E+03 -.194E+02 -.407E+03   0.247E+03 0.166E+02 0.404E+03   0.291E+01 0.121E+01 0.368E+01   -.317E-03 -.117E-02 -.416E-02
   0.127E+02 0.372E+03 0.294E+03   -.150E+02 -.368E+03 -.296E+03   -.765E+00 -.579E+01 -.204E+01   0.799E-03 -.356E-03 -.312E-03
   -.112E+03 -.520E+02 -.240E+03   0.112E+03 0.495E+02 0.237E+03   -.992E+00 0.395E+01 0.543E+01   -.788E-03 0.156E-02 0.727E-04
   0.100E+03 -.981E+00 -.177E+03   -.941E+02 -.173E+01 0.174E+03   -.474E+01 0.202E+01 0.268E+01   0.408E-03 -.384E-03 0.226E-03
   0.465E+02 -.342E+02 0.221E+03   -.445E+02 0.312E+02 -.220E+03   -.203E+01 0.889E+00 -.118E+01   -.529E-03 -.190E-02 0.250E-02
   -.301E+03 0.640E+02 -.166E+03   0.295E+03 -.614E+02 0.166E+03   0.714E+01 -.313E+01 -.139E+00   -.119E-02 0.952E-03 -.110E-02
   0.109E+03 -.207E+03 0.128E+03   -.110E+03 0.207E+03 -.128E+03   -.154E+01 0.274E+01 0.605E+00   0.233E-03 -.839E-03 0.108E-02
   0.976E+02 -.852E+02 0.268E+03   -.981E+02 0.855E+02 -.269E+03   0.133E+01 0.454E+00 0.892E+00   -.677E-03 0.931E-03 0.544E-03
   -.116E+03 -.131E+03 -.929E+02   0.115E+03 0.128E+03 0.890E+02   0.144E+01 0.353E+01 0.392E+01   -.371E-03 -.110E-02 -.732E-03
   -.193E+02 0.825E+02 0.236E+02   0.197E+02 -.866E+02 -.181E+02   -.179E+01 0.740E+01 -.364E+01   -.432E-04 -.151E-03 -.218E-03
   0.381E+02 0.109E+02 0.188E+02   -.452E+02 -.205E+02 -.201E+02   0.829E+01 0.102E+02 0.245E+01   0.480E-04 0.853E-03 0.197E-03
   0.926E+01 0.378E+02 -.156E+03   -.822E+01 -.331E+02 0.152E+03   0.390E+01 -.590E+01 0.464E+01   0.979E-04 -.356E-03 -.614E-03
   -.500E+01 0.328E+02 -.771E+02   0.651E+01 -.257E+02 0.628E+02   -.472E+00 -.884E+01 0.204E+02   -.193E-03 -.522E-03 0.159E-03
   -.766E+01 0.103E+03 -.697E+02   0.883E+01 -.100E+03 0.661E+02   -.316E+01 0.111E+00 0.590E+01   0.195E-03 0.188E-03 0.101E-03
   -.126E+03 -.824E+01 -.765E+02   0.126E+03 0.194E+02 0.767E+02   -.233E+01 -.843E+01 -.404E+01   -.472E-03 0.139E-03 -.221E-03
   0.178E+02 -.186E+02 0.124E+02   -.190E+02 0.256E+02 -.488E+01   0.272E+01 -.752E+01 -.796E+01   0.189E-04 -.403E-03 -.540E-04
   -.199E+02 -.706E+02 0.427E+02   0.139E+02 0.655E+02 -.361E+02   0.280E+01 0.113E+02 -.756E+01   0.223E-03 -.138E-03 0.766E-04
   0.787E+01 -.473E+02 0.474E+02   -.234E+01 0.513E+02 -.390E+02   -.293E+01 -.644E+01 -.609E+01   0.588E-03 -.132E-02 0.387E-03
   0.621E+02 0.320E+02 -.209E+03   -.593E+02 -.343E+02 0.206E+03   -.404E+01 0.474E+01 -.184E+01   -.304E-03 0.123E-03 0.658E-04
   0.128E+03 0.545E+02 0.654E+02   -.125E+03 -.528E+02 -.713E+02   -.366E+01 0.217E+01 0.827E+01   -.229E-03 0.460E-03 -.220E-03
   0.108E+03 0.219E+02 0.986E+02   -.956E+02 -.162E+02 -.997E+02   -.116E+02 -.546E+01 0.202E+01   0.144E-03 -.243E-03 0.193E-03
   -.878E+02 0.377E+02 -.113E+03   0.903E+02 -.385E+02 0.109E+03   -.615E+01 0.703E+00 0.449E+01   -.310E-03 0.405E-03 -.854E-04
   0.207E+02 0.173E+02 0.132E+03   -.185E+02 -.313E+02 -.122E+03   0.529E+00 0.127E+02 -.234E+02   -.294E-04 0.944E-03 -.159E-03
   -.583E+02 0.745E+02 -.412E+02   0.542E+02 -.766E+02 0.409E+02   0.207E+01 0.120E+01 -.177E+01   -.146E-02 -.258E-05 0.343E-03
   0.719E+02 0.498E+02 0.100E+03   -.805E+02 -.494E+02 -.101E+03   0.775E+01 0.927E+00 -.279E+01   -.553E-04 0.842E-03 -.124E-03
   0.381E+02 -.184E+02 0.149E+03   -.392E+02 0.209E+02 -.143E+03   0.300E+01 -.225E+01 -.427E+01   -.133E-03 0.263E-03 0.572E-05
   0.562E+02 -.144E+02 0.162E+03   -.504E+02 0.146E+02 -.158E+03   -.366E+01 0.352E+01 -.102E+02   0.533E-04 -.125E-03 0.500E-03
   0.982E+02 -.638E+02 0.378E+02   -.935E+02 0.621E+02 -.406E+02   -.778E+01 0.430E+01 0.459E+01   0.192E-03 -.561E-03 0.238E-03
   -.368E+00 -.358E+01 -.276E+02   0.110E+02 0.773E+01 0.300E+02   -.184E+02 -.693E+01 0.769E+01   -.339E-04 -.974E-04 -.223E-03
   0.167E+03 0.388E+02 0.307E+02   -.155E+03 -.302E+02 -.335E+02   -.140E+02 -.393E+01 0.583E+01   0.129E-03 -.314E-03 0.967E-05
   0.985E+02 0.118E+03 -.219E+02   -.849E+02 -.104E+03 0.242E+02   -.190E+02 -.263E+02 -.552E+01   -.251E-03 -.811E-04 -.166E-03
   -.538E+02 -.141E+03 0.415E+02   0.510E+02 0.128E+03 -.513E+02   0.861E-01 0.143E+02 0.153E+02   0.626E-04 -.193E-03 0.460E-03
   0.516E+02 0.742E+02 0.108E+03   -.498E+02 -.663E+02 -.101E+03   -.130E+01 -.985E+01 -.563E+01   0.409E-03 0.316E-03 -.108E-04
   -.117E+02 0.538E+02 -.519E+01   0.950E+01 -.621E+02 0.112E+02   0.177E+01 0.811E+01 -.463E+01   -.236E-03 0.213E-03 0.433E-04
   -.261E+02 0.162E+02 0.150E+03   0.295E+02 -.193E+02 -.139E+03   -.122E+02 -.825E+00 -.112E+02   -.258E-03 -.454E-03 -.979E-04
   -.255E+02 0.456E+02 0.701E+02   0.293E+02 -.419E+02 -.703E+02   -.539E+01 -.144E+01 0.196E+01   0.109E-04 0.315E-03 0.547E-04
   -.208E+03 0.795E+02 0.122E+03   0.230E+03 -.794E+02 -.139E+03   -.241E+02 -.114E+01 0.186E+02   0.409E-03 0.422E-03 -.179E-03
   0.151E+02 0.452E+02 -.183E+02   0.329E+01 -.441E+02 0.357E+02   -.201E+02 -.252E+01 -.194E+02   0.113E-03 -.447E-03 0.224E-03
   -.985E+02 0.686E+01 0.955E+02   0.114E+03 0.313E+01 -.753E+02   -.166E+02 -.118E+02 -.236E+02   -.208E-04 0.225E-04 0.165E-03
   0.145E+02 0.118E+03 -.498E+02   -.195E+02 -.149E+03 0.575E+02   0.717E+01 0.265E+02 -.600E+01   0.148E-03 -.678E-03 0.132E-03
   -.139E+03 -.763E+01 0.146E+03   0.166E+03 0.199E+02 -.129E+03   -.234E+02 -.102E+02 -.177E+02   -.234E-03 -.613E-03 0.206E-03
   -.128E+03 0.295E+02 0.941E+01   0.163E+03 -.315E+02 -.190E+02   -.317E+02 0.611E+00 0.343E+01   0.516E-04 -.699E-04 -.222E-03
[...]
   -.310E+02 -.534E+02 0.707E+02   0.183E+02 0.525E+02 -.700E+02   0.204E+02 0.224E+01 -.156E+01   -.103E-03 0.667E-03 0.215E-03
   -.735E+02 -.171E+03 -.152E+03   0.864E+02 0.182E+03 0.171E+03   -.131E+02 -.886E+01 -.205E+02   -.374E-04 -.149E-02 -.356E-03
   0.189E+03 -.387E+02 0.661E+02   -.208E+03 0.586E+02 -.536E+02   0.165E+02 -.216E+02 -.173E+02   0.330E-03 0.130E-03 -.746E-04
   -.140E+03 0.369E+02 -.314E+02   0.144E+03 -.554E+02 0.291E+02   -.415E+01 0.243E+02 0.296E+01   -.971E-03 0.102E-02 -.254E-04
   -.233E+02 0.531E+02 0.210E+02   0.387E+02 -.708E+02 0.355E+01   -.146E+02 0.104E+02 -.228E+02   0.133E-03 0.669E-03 0.877E-03
   0.114E+03 -.115E+03 0.326E+03   -.107E+03 0.125E+03 -.352E+03   -.108E+02 -.983E+01 0.286E+02   -.299E-03 -.390E-03 0.592E-03
   -.224E+03 -.130E+03 0.638E+02   0.242E+03 0.146E+03 -.676E+02   -.153E+02 -.162E+02 0.415E+01   -.327E-03 -.100E-02 0.831E-04
   0.495E+02 -.521E+02 0.848E+02   -.296E+02 0.611E+02 -.856E+02   -.227E+02 -.799E+01 0.953E+00   -.213E-03 0.746E-03 -.167E-03
   0.251E+02 -.143E+03 0.150E+03   -.105E+02 0.156E+03 -.173E+03   -.980E+01 -.127E+02 0.214E+02   0.598E-03 -.970E-03 0.464E-03
   0.660E+02 0.693E+02 -.139E+03   -.923E+02 -.592E+02 0.132E+03   0.240E+02 -.108E+02 0.964E+01   -.307E-03 -.120E-03 -.236E-03
   0.306E+02 -.187E+03 0.102E+03   -.232E+02 0.188E+03 -.946E+02   -.889E+01 0.171E+01 -.816E+01   0.203E-03 -.138E-02 0.109E-02
   0.980E+00 -.250E+03 -.148E+02   0.448E+01 0.260E+03 0.270E+01   -.877E+01 -.745E+01 0.164E+02   0.419E-03 0.779E-04 0.293E-03
   0.577E+02 -.105E+02 0.188E+03   -.471E+02 0.254E+02 -.204E+03   -.117E+02 -.155E+02 0.137E+02   0.347E-03 -.354E-03 -.110E-03
   0.582E+02 0.152E+03 -.107E+03   -.609E+02 -.171E+03 0.128E+03   0.266E+01 0.212E+02 -.248E+02   -.521E-03 0.752E-03 -.119E-04
   0.100E+03 0.698E+02 0.658E+02   -.995E-13 -.739E-12 -.142E-12   -.100E+03 -.698E+02 -.658E+02   -.723E-03 -.701E-03 0.216E-02

 POSITION                                       TOTAL-FORCE (eV/Angst)
      3.96387      1.89268      7.20867         1.220938     -1.589429     -0.559247
      8.76202      4.54258      9.61997         0.163547      0.885468      0.237780
      4.90395      7.47779      6.28021         0.753756      0.975300      0.894046
      4.82797     10.00613      8.92971         0.389461     -0.545864     -0.077039
      7.57740      3.67370      5.79794        -1.324593      0.616167      0.760457
     10.10657      4.54040      3.34828         0.242074     -1.174199     -3.370679
      6.17758      3.69893      1.01652        -0.227265      2.574642      0.810468
      0.19488      8.05253     10.86390         0.582068      0.558853     -0.941504
     11.74269      1.63629     10.20530         1.749005      0.770125      0.385333
      1.94956      5.52553      8.70218         1.181269      0.151426     -3.251365
      2.69245     12.30806      2.96740        -2.943729     -1.202793      0.016910
     12.76464      2.17829      2.75218        -0.277907      0.203445     -1.120784
      6.06775     11.68856      1.55457        -0.004859      0.145286      0.945886
      6.06824     10.29990      5.80385         0.939255     -2.101521     -3.939416
      8.41847      7.09345      4.99511         2.106565      1.271334     -3.028083
      2.12071      4.66846     12.32553        -0.197189      0.140044      1.326419
     10.93310      0.91180      5.30176        -0.470182     -0.935692      0.799599
      6.72010      0.94755     11.53260         0.785419     -0.373294      1.743707
      9.15544     11.47342      7.21289         0.581441     -1.529385      0.428162
      4.29979      9.27295      0.13024        -3.103472     -1.635538     -3.737112
     13.04388      6.41195      1.36598        -0.972317      1.423641      1.963432
      0.85122     12.06094      8.86334         1.660501     -0.694417      0.304822
      9.76051     12.19655      2.74147         0.044572     -2.152580     -0.024160
     10.74917      7.74663      7.51011         0.772133     -0.509566     -0.166529
      2.58894      2.97476      4.72210        -2.693041      2.888514      0.373762
     10.15609      8.05607      0.17021         0.894848      0.711480     -0.257630
      1.62352      0.65162     12.76305         0.612188      0.355946      0.023863
     12.35137      3.57546     13.28195        -1.379830      3.272011      1.883792
      2.41515      6.44605      3.48586         1.191707      0.553316      1.103258
      6.47263     12.45839      7.55198         4.938022     -1.156091     -0.179292
     12.84880     12.66488      2.47238         1.045614     -1.729939      6.035936
      2.12489      9.13636      7.88648        -2.002075      3.266541      2.339829
      6.58547      1.53707      8.68164        -1.775896      2.723635     -3.827787
      0.66818      0.84290      6.27119         1.526282     -0.497914     -0.404781
      1.76396      2.46949      9.33295        -3.266417      6.247882     -0.879141
      7.79869      0.48326      4.63606         2.609623     -2.437557      2.352292
      7.81866      7.61786      8.01831        -1.282415      2.373242     -4.566382
      9.81221      5.04944     13.08838        -0.870960      3.887610      2.343763
     12.57898     11.68700     13.00141         0.481288      0.301616      0.968278
     11.29778      4.87933      5.99607        -3.601159     -0.122715      0.315398
      4.72725      5.86138      4.15633         2.646208     -1.300253    -12.914741
     11.00699      9.86701      4.38474        -2.028506     -0.921587     -2.105295
      7.90770      6.53179      1.79930        -0.796862      1.248098     -3.245614
     12.40884      5.27697     10.66015         1.891689      0.220574      1.080399
      8.22897      9.52436      1.59080         2.076693      3.712688     -6.358961
      4.94996      0.61936      4.12787        -3.052324      2.605603      1.770667
      3.81721      1.50924     10.79057        -7.799537     -2.782554     10.164184
     11.32964     10.66818     10.39631        -1.707513      4.639375      2.978833
      0.50960     10.82975      5.88687        -5.406967    -12.145359     -3.292213
      8.28421      1.29791      0.98355        -2.662191      1.700452      5.427247
      5.36495      9.02085      3.38721         0.544957     -1.943299      0.879549
      0.88694      9.43302      3.44353        -0.414448     -0.122804      1.370842
      5.12003     11.60557     11.94388        -8.867514     -3.980886     -0.441192
      0.62644      9.07557      0.22465        -1.566472      2.289221      1.713075
      1.82144      8.79191     12.40215        -2.220791     -0.975614      1.226075
      2.00467      1.03462      7.16891        -1.670519     -1.347492     -2.040467
      0.42253     10.76487      0.51041        -1.284883     -1.800091     -3.391684
      1.71878      0.99351      9.74850         2.117322     -4.242586      1.689715
      6.21986     12.18691     12.81762         3.353678      2.138410     -0.623602
      1.74018     10.64460      5.03868         3.602291     -1.438213     -6.202848
[...]
      1.52450      7.93357      8.90337         1.818442     -0.698714     -0.707272
     12.15549      8.35389      0.20106         7.729326      1.334588     -0.832223
      8.67254      1.48655      5.56972        -0.212399      2.611263     -1.147313
      4.79134     10.15826      4.39409        -2.513482     -1.713290     -4.872863
     11.11642      7.94472      4.60132        -0.493528      5.776165      0.701562
      8.61052      8.23642      2.23398         0.758056     -7.298650      1.765409
      8.88845      9.75743      0.03303        -3.046345      0.490405      3.379095
      0.71091      0.47561      2.31321         2.843737     -0.223091      0.326709
     11.31625      5.79959     13.26731        -2.775684      1.011899      0.126603
      6.40642      0.84244      3.79026         4.844920      0.439448     -1.043175
      5.57054      0.40624      7.89616        -2.278361     -0.774550      2.984670
      8.66169      0.72386      2.72009        -1.467747      1.912701     -1.115313
      2.73265      3.21793      7.97102        -3.313601      2.393458      4.312245
      0.08325     12.74839     12.10302        -1.099964     -0.560554     -2.191310
      0.77659      8.18950      4.65052        -0.005979      2.986974     -4.481983
    total drift:                                0.013781      0.013879     -0.019478

  FREE ENERGIE OF THE ION-ELECTRON SYSTEM (eV)
  free  energy   TOTEN  =      -872.74712696 eV

  energy  without entropy=     -872.71897390  energy(sigma->0) =     -872.73305043