 vasp.5.4.4.18Apr17-6-g9f103f2a35 (build Mar 16 2023 09:39:13) complex

 executed on             LinuxIFC date 2024.04.30  03:59:46

 INCAR:
 POTCAR:    PAW_PBE Ca_sv 06Sep2000
 POTCAR:    PAW_PBE Si 05Jan2001
 POTCAR:    PAW_PBE O 08Apr2002
 POTCAR:    PAW_PBE Ca_sv 06Sep2000
   VRHFIN =Ca: 3s3p4s

   TITEL  = PAW_PBE Ca_sv 06Sep2000
   POMASS =   40.078; ZVAL   =   10.000    mass and valenz
   ENMAX  =  266.622; ENMIN  =  199.967 eV

   TITEL  = PAW_PBE Si 05Jan2001
   POMASS =   28.085; ZVAL   =    4.000    mass and valenz
   ENMAX  =  245.345; ENMIN  =  184.009 eV

   TITEL  = PAW_PBE O 08Apr2002
   POMASS =   16.000; ZVAL   =    6.000    mass and valenz
   ENMAX  =  400.000; ENMIN  =  300.000 eV

 Optimization of the real space projectors (new method)

 maximal supplied QI-value         = 16.25
 optimisation between [QCUT,QGAM] = [ 12.51, 25.03] = [ 43.85,175.40] Ry
 Optimized for a Real-space Cutoff    1.47 Angstroem

   l    n(q)    QCUT    max X(q) W(low)/X(q) W(high)/X(q)  e(spline)
   0     11    12.514    11.817    0.25E-04    0.32E-05    0.87E-07
   0     11    12.514     8.461    0.39E-04    0.59E-05    0.18E-06
   1     11    12.514     3.957    0.97E-05    0.57E-05    0.28E-07
   1     11    12.514     4.314    0.42E-04    0.14E-04    0.23E-06
   2     10    12.514    14.565    0.79E-04    0.50E-03    0.16E-05
   2     10    12.514    14.552    0.75E-04    0.48E-03    0.15E-05
 Optimization of the real space projectors (new method)

[...]

   l    n(q)    QCUT    max X(q) W(low)/X(q) W(high)/X(q)  e(spline)
   0      9    12.501   159.560    0.10E-03    0.83E-04    0.71E-07
   0      9    12.501   115.863    0.99E-04    0.81E-04    0.70E-07
   1      8    12.501    88.339    0.20E-03    0.25E-03    0.76E-07
   1      8    12.501    48.592    0.20E-03    0.24E-03    0.75E-07
 Optimization of the real space projectors (new method)

 maximal supplied QI-value         = 24.76
 optimisation between [QCUT,QGAM] = [ 12.38, 25.00] = [ 42.90,175.06] Ry
 Optimized for a Real-space Cutoff    1.16 Angstroem

   l    n(q)    QCUT    max X(q) W(low)/X(q) W(high)/X(q)  e(spline)
   0      9    12.378    20.381    0.16E-03    0.67E-05    0.31E-06
   0      9    12.378    15.268    0.17E-03    0.81E-05    0.33E-06
   1      8    12.378     5.964    0.20E-03    0.16E-03    0.30E-06
   1      8    12.378     5.382    0.18E-03    0.14E-03    0.26E-06
  PAW_PBE Ca_sv 06Sep2000               :
  PAW_PBE Si 05Jan2001                  :
  PAW_PBE O 08Apr2002                   :

 POSCAR: Ca Si  O
  positions in direct lattice
 exchange correlation table for  LEXCH =        8
   RHO(1)=    0.500       N(1)  =     2000
   RHO(2)=  100.500       N(2)  =     4000

 ion  position               nearest neighbor table
   1  0.123  0.002  0.111- 134 2.19 123 2.23  80 2.41  66 2.42  33 2.79  28 3.12
   2  0.247  0.244  0.149-  80 2.11  94 2.31 107 2.40 119 2.44  35 3.08
   3  0.531  0.374  0.042- 113 1.96  95 2.54  63 2.54 115 2.56  49 2.95  39 3.10
   4  0.987  0.654  0.865-  61 2.17  64 2.26  62 2.36  36 2.97  46 3.02
   5  0.324  0.609  0.156-  63 2.13 116 2.28 103 2.38 127 2.39 105 2.52  94 2.54  49 2.93  44 3.13

   6  0.894  0.352  0.039- 100 2.16  75 2.28
   7  0.600  0.764  0.278- 120 2.12 112 2.13  79 2.32 103 2.56
   8  0.481  0.806  0.520-  79 2.06  92 2.17 126 2.50  30 3.06  43 3.16
   9  0.776  0.523  0.231-  81 2.11 117 2.15
  10  0.720  0.548  0.882-  95 1.99  64 2.12  93 2.33  39 2.65  31 2.90
  11  0.266  0.086  0.837- 101 2.13  83 2.16  35 2.92  51 2.97
  12  0.780  0.588  0.569-  59 2.24  70 2.48 110 2.48  60 2.53
  13  0.859  0.900  0.704-  99 1.89 106 2.09  76 2.51  30 2.81  32 2.91  36 3.09
  14  0.877  0.078  0.978-  65 2.38  69 2.53
  15  0.070  0.454  0.278- 119 2.12  75 2.30 105 2.42 131 2.54  44 3.04
  16  0.275  0.402  0.788- 118 2.23 104 2.25 101 2.53  87 2.54  41 2.99  35 3.15
  17  0.104  0.463  0.575- 132 2.11 131 2.12  67 2.34 118 2.51
  18  0.624  0.882  0.987- 128 2.16  58 2.30 129 2.41  86 2.53 125 2.54  34 2.67  36 2.80  31 3.05

[...]

  36  0.833  0.820  0.936-  58 1.57 106 1.74  61 1.78 128 1.79  18 2.80   4 2.97  13 3.09
  37  0.382  0.833  0.804-  85 1.54  84 1.56 108 1.72  86 2.03  31 3.10
  38  0.642  0.151  0.921- 115 1.55 135 1.60 129 1.71  69 2.08  97 2.39  32 2.80
  39  0.607  0.609  0.051- 112 1.72  95 1.72  63 1.89  93 1.95  10 2.65  49 3.04   3 3.10
  40  0.941  0.181  0.268-  57 1.59 100 1.60 134 1.64  89 1.79  45 3.06  26 3.07
  41  0.502  0.411  0.713-  71 1.53 130 1.58 104 1.66 133 1.68  16 2.99  23 3.01
  42  0.781  0.135  0.464-  82 1.60  91 1.61  89 1.81  98 1.86  45 2.92
  43  0.333  0.829  0.317- 103 1.59  88 1.62 126 1.69 124 1.70  21 2.79  28 3.08  54 3.12   8 3.16

  44  0.140  0.479  0.048- 114 1.58  75 1.61 111 1.70  94 1.71  15 3.04   5 3.13
  45  0.878  0.345  0.438- 131 1.66  91 1.73  81 1.74  59 1.77  57 1.99  42 2.92  40 3.06
  46  0.929  0.437  0.777-  64 1.60  96 1.67 122 1.67 110 1.70  22 2.86   4 3.02
  47  0.354  0.257  0.548-  77 1.58  87 1.62 130 1.89 109 1.92  83 2.44  20 3.15
  48  0.097  0.986  0.587-  73 1.56 102 1.63  78 1.65  72 1.70  21 2.88
  49  0.509  0.496  0.242- 113 1.64 127 1.68 117 1.68  63 1.86  19 2.87   5 2.93   3 2.95  39 3.04
                            53 3.12
  50  0.911  0.695  0.362-  74 1.49 121 1.62  70 1.75  55 1.83  25 3.01  27 3.13
  51  0.350  0.012  0.628-  90 1.48  83 1.57  85 1.69  78 1.71  11 2.97
  52  0.052  0.737  0.573-  62 1.62  67 1.69  72 1.73  70 1.85  54 3.01
  53  0.305  0.428  0.367- 127 1.57 132 1.72 109 1.73 119 1.83 105 2.27  54 2.99  49 3.12
  54  0.230  0.641  0.444-  67 1.58 105 1.76  88 1.82  92 2.06 132 2.07  53 2.99  52 3.01  29 3.10
                            43 3.12
  55  0.973  0.814  0.305-  50 1.83  25 1.99  27 2.35
  56  0.554  0.081  0.250-  34 1.57  24 2.21
  57  0.985  0.260  0.357-  40 1.59  45 1.99  20 2.05
  58  0.801  0.886  0.038-  36 1.57  18 2.30
  59  0.778  0.423  0.500-  45 1.77  12 2.24  23 2.55
  60  0.656  0.662  0.711-  31 1.50  12 2.53
  61  0.900  0.714  0.003-  36 1.78   4 2.17  27 2.56
  62  0.027  0.735  0.699-  52 1.62   4 2.36
  63  0.479  0.557  0.110-  49 1.86  39 1.89   5 2.13   3 2.54
  64  0.884  0.506  0.874-  46 1.60  10 2.12   4 2.26
  65  0.013  0.200  0.926-  35 1.65  22 2.10  14 2.38
  66  0.300  0.985  0.034-  28 1.67  33 1.84   1 2.42
  67  0.134  0.640  0.527-  54 1.58  52 1.69  17 2.34
  68  0.804  0.112  0.730-  32 1.50
  69  0.694  0.081  0.063-  34 1.89  38 2.08  26 2.35  14 2.53
  70  0.942  0.674  0.497-  50 1.75  52 1.85  12 2.48
  71  0.456  0.516  0.672-  41 1.53  29 1.75
  72  0.066  0.867  0.528-  48 1.70  52 1.73
  73  0.067  0.975  0.707-  48 1.56
  74  0.794  0.703  0.347-  50 1.49
  75  0.024  0.463  0.101-  44 1.61   6 2.28  15 2.30
  76  0.695  0.974  0.615-  30 1.64  32 1.75  13 2.51
  77  0.334  0.168  0.462-  47 1.58  24 2.34
  78  0.228  0.984  0.574-  48 1.65  51 1.71  21 2.26
  79  0.625  0.836  0.446-  30 1.64   8 2.06   7 2.32
  80  0.172  0.165  0.021-  35 1.64   2 2.11   1 2.41
  81  0.804  0.388  0.329-  45 1.74   9 2.11
  82  0.660  0.172  0.482-  42 1.60  19 2.55
  83  0.344  0.122  0.688-  51 1.57  11 2.16  47 2.44
  84  0.293  0.840  0.891-  37 1.56  33 1.78
  85  0.350  0.903  0.708-  37 1.54  51 1.69
  86  0.542  0.860  0.804-  31 1.81  37 2.03  18 2.53
  87  0.252  0.293  0.618-  47 1.62  16 2.54
  88  0.243  0.777  0.393-  43 1.62  54 1.82
  89  0.837  0.108  0.334-  40 1.79  42 1.81  25 2.50
  90  0.459  0.011  0.584-  51 1.48  24 2.30
  91  0.857  0.228  0.509-  42 1.61  45 1.73
  92  0.364  0.679  0.532-  29 1.78  54 2.06   8 2.17
  93  0.559  0.639  0.906-  31 1.91  39 1.95  10 2.33
  94  0.242  0.427  0.123-  44 1.71   2 2.31   5 2.54
  95  0.689  0.500  0.031-  39 1.72  10 1.99   3 2.54
  96  0.852  0.332  0.752-  46 1.67  23 2.20  22 2.37
  97  0.627  0.179  0.733-  32 1.67  23 2.15  38 2.39
  98  0.791  0.987  0.481-  30 1.82  42 1.86
  99  0.799  0.808  0.601-  30 1.59  13 1.89
 100  0.883  0.242  0.171-  40 1.60  26 2.16   6 2.16
 101  0.176  0.229  0.816-  35 1.57  11 2.13  22 2.25  16 2.53
 102  0.054  0.065  0.493-  48 1.63  21 2.54
 103  0.400  0.725  0.286-  43 1.59   5 2.38   7 2.56
 104  0.449  0.402  0.834-  41 1.66  16 2.25
 105  0.213  0.577  0.321-  54 1.76  53 2.27  15 2.42   5 2.52
 106  0.924  0.889  0.857-  36 1.74  13 2.09
 107  0.328  0.090  0.230-  28 1.61   2 2.40
 108  0.417  0.717  0.738-  37 1.72  29 1.86  31 2.51
 109  0.394  0.340  0.425-  53 1.73  47 1.92  19 2.56
 110  0.933  0.537  0.685-  46 1.70  12 2.48
 111  0.159  0.363  0.980-  35 1.54  44 1.70
 112  0.652  0.717  0.123-  39 1.72   7 2.13
 113  0.544  0.377  0.197-  49 1.64   3 1.96  19 2.51
 114  0.133  0.604  0.052-  44 1.58  27 2.32
[...]
 121  0.972  0.634  0.265-  50 1.62  27 2.05
 122  0.061  0.421  0.793-  46 1.67
 123  0.122  0.848  0.023-  33 1.70   1 2.23  27 2.41
 124  0.275  0.905  0.221-  43 1.70  28 1.94  33 2.55
 125  0.481  0.939  0.119-  28 1.63  34 1.75  18 2.54
 126  0.396  0.926  0.385-  43 1.69  24 2.21  21 2.40   8 2.50
 127  0.384  0.484  0.287-  53 1.57  49 1.68   5 2.39
 128  0.710  0.785  0.873-  31 1.73  36 1.79  18 2.16
 129  0.681  0.029  0.875-  38 1.71  32 1.97  18 2.41
 130  0.460  0.323  0.632-  41 1.58  47 1.89
 131  0.989  0.414  0.460-  45 1.66  17 2.12  15 2.54
 132  0.238  0.479  0.476-  53 1.72  54 2.07  17 2.11
 133  0.633  0.432  0.693-  41 1.68  23 1.92
 134  0.013  0.083  0.220-  40 1.64   1 2.19
 135  0.715  0.254  0.943-  38 1.60

IMPORTANT INFORMATION: All symmetrisations will be switched off!
NOSYMM: (Re-)initialisation of all symmetry stuff for point group C_1.

Automatic generation of k-mesh.
 generate k-points for:    2    2    2
Space group operators:
 irot       det(A)        alpha          n_x          n_y          n_z        tau_x        tau_y        tau_z
    1     1.000000     0.000001     1.000000     0.000000     0.000000     0.000000     0.000000     0.000000

 Subroutine IBZKPT returns following result:

 Found      8 irreducible k-points:

 Following reciprocal coordinates:
            Coordinates               Weight
  0.000000  0.000000  0.000000      1.000000
  0.500000  0.000000  0.000000      1.000000
  0.000000  0.500000  0.000000      1.000000
  0.500000  0.500000  0.000000      1.000000
  0.000000  0.000000  0.500000      1.000000
  0.500000  0.000000  0.500000      1.000000
  0.000000  0.500000  0.500000      1.000000
  0.500000  0.500000  0.500000      1.000000

 Following cartesian coordinates:
            Coordinates               Weight
  0.000000  0.000000  0.000000      1.000000
  0.039917  0.000000  0.000000      1.000000
  0.000000  0.039917  0.000000      1.000000
  0.039917  0.039917  0.000000      1.000000
  0.000000  0.000000  0.039917      1.000000
  0.039917  0.000000  0.039917      1.000000
  0.000000  0.039917  0.039917      1.000000
  0.039917  0.039917  0.039917      1.000000

 SYSTEM =  unknown system
 POSCAR =  Ca Si  O

 Startparameter for this run:
   NWRITE =      2    write-flag & timer
   PREC   = a         normal or accurate (medium, high low for compatibility)
   ISTART =      0    job   : 0-new  1-cont  2-samecut
   ICHARG =      2    charge: 1-file 2-atom 10-const
[...]
     0.000000000  0.000000000 12.526070000     0.000000000  0.000000000  0.079833499

  length of vectors
    12.526070000 12.526070000 12.526070000     0.079833499  0.079833499  0.079833499

 FORCES acting on ions
    electron-ion (+dipol)            ewald-force                    non-local-force                 convergence-correction
   0.142E+03 0.391E+02 0.550E+02   -.141E+03 -.378E+02 -.560E+02   -.590E+00 -.408E+00 0.100E+01   0.120E-02 -.768E-03 -.369E-03
   -.200E+03 0.489E+02 0.478E+02   0.199E+03 -.461E+02 -.479E+02   0.202E+01 -.110E+01 0.140E+01   0.274E-03 0.399E-03 0.211E-03
   0.173E+03 0.116E+03 0.222E+03   -.172E+03 -.118E+03 -.226E+03   -.123E+01 0.850E+00 -.138E+01   -.614E-03 0.252E-04 -.792E-03
   -.259E+03 -.959E+02 0.150E+02   0.257E+03 0.957E+02 -.165E+02   0.370E+01 0.105E+00 -.173E-01   0.731E-03 -.687E-03 0.229E-03
   0.543E+02 -.541E+02 0.245E+03   -.561E+02 0.568E+02 -.243E+03   -.106E+01 -.158E+01 -.825E+00   -.146E-02 0.863E-03 0.184E-03
   0.682E+02 -.522E+02 0.983E+02   -.637E+02 0.526E+02 -.990E+02   -.377E+01 0.502E+00 -.148E+01   0.105E-02 0.633E-03 -.111E-02
   0.391E+02 0.126E+03 -.101E+03   -.366E+02 -.123E+03 0.986E+02   -.262E+01 -.362E+01 0.350E+01   -.111E-02 0.671E-03 -.785E-04
   -.466E+02 0.139E+03 -.161E+03   0.441E+02 -.136E+03 0.160E+03   0.385E+00 -.164E+01 0.246E+01   -.106E-02 0.514E-03 -.681E-03
   -.598E+02 -.105E+03 0.138E+03   0.595E+02 0.105E+03 -.131E+03   0.163E+01 0.162E+01 -.634E+01   0.538E-03 0.356E-03 0.374E-03
   0.435E+02 0.362E+02 0.108E+03   -.405E+02 -.389E+02 -.112E+03   -.193E+01 0.224E+01 -.148E+01   0.617E-03 -.466E-03 -.859E-03
   -.106E+03 0.147E+03 -.111E+03   0.106E+03 -.143E+03 0.106E+03   0.465E+00 -.514E+01 0.552E+01   0.224E-03 0.476E-03 -.259E-03
   0.182E+03 -.796E+02 0.586E+01   -.177E+03 0.760E+02 -.293E+01   -.430E+01 0.344E+01 -.176E+01   0.655E-03 -.533E-03 0.663E-03
   -.138E+03 -.560E+02 -.543E+02   0.144E+03 0.572E+02 0.563E+02   -.210E+01 0.238E+01 -.289E+00   0.205E-03 -.264E-03 0.163E-03
   -.133E+03 0.695E+02 0.646E+01   0.130E+03 -.710E+02 -.982E+01   0.180E+01 0.512E+00 0.222E+01   -.237E-03 0.132E-03 -.715E-03
   0.136E+03 -.687E+02 0.695E+02   -.134E+03 0.717E+02 -.695E+02   -.308E+01 -.102E+01 0.241E+00   0.107E-02 0.102E-02 0.211E-03
   -.770E+02 -.875E+02 -.204E+03   0.784E+02 0.874E+02 0.200E+03   -.187E+01 -.600E+00 0.368E+01   -.284E-03 0.766E-04 -.600E-03
   0.505E+02 0.234E+02 -.221E+03   -.511E+02 -.193E+02 0.222E+03   -.742E-01 -.296E+01 0.244E+01   0.539E-03 0.443E-03 0.243E-03
   0.228E+03 -.833E+01 0.241E+02   -.223E+03 0.761E+01 -.267E+02   -.542E+01 0.787E+00 0.276E+01   -.274E-03 0.103E-03 0.336E-03
   0.828E+02 0.712E+01 -.942E+02   -.812E+02 -.464E+01 0.972E+02   -.826E+00 -.197E+01 -.113E+01   -.680E-03 0.297E-04 0.821E-03
   -.533E+02 0.193E+03 -.150E+03   0.522E+02 -.193E+03 0.150E+03   0.221E+01 -.161E+01 0.281E+01   0.154E-02 0.114E-02 0.340E-03
   0.176E+03 -.106E+02 0.737E+02   -.174E+03 0.101E+02 -.686E+02   -.202E+01 0.810E+00 -.461E+01   0.151E-02 -.366E-03 -.207E-03
   0.235E+02 0.172E+03 0.204E+03   -.262E+02 -.171E+03 -.202E+03   0.991E+00 -.206E+01 -.509E+01   -.433E-04 0.155E-02 0.106E-02
   0.508E+02 0.244E+02 0.194E+02   -.490E+02 -.237E+02 -.155E+02   0.863E+00 -.325E+01 -.530E+01   -.361E-03 0.717E-03 0.811E-03
   -.136E+03 -.108E+03 -.126E+01   0.133E+03 0.105E+03 0.347E+01   0.266E+01 0.277E+01 -.108E+01   -.125E-02 -.432E-03 0.308E-03
   -.557E+01 -.532E+02 0.631E+02   0.688E+01 0.524E+02 -.603E+02   -.318E+01 0.246E+01 -.261E+01   -.337E-04 -.876E-03 -.868E-05
   0.162E+03 -.247E+02 0.663E+01   -.158E+03 0.205E+02 -.852E+01   -.426E+01 0.340E+01 0.198E+01   -.381E-03 -.374E-03 -.190E-03
   -.460E+02 -.129E+03 0.114E+03   0.426E+02 0.125E+03 -.114E+03   0.305E+01 0.320E+01 -.101E+01   0.106E-02 -.867E-03 -.400E-03
   -.549E+02 -.639E+02 0.635E+02   0.501E+02 0.655E+02 -.625E+02   0.184E+01 -.355E+01 0.497E+00   -.738E-04 -.101E-03 0.165E-03
   -.145E+02 -.587E+02 -.537E+02   0.918E+01 0.510E+02 0.551E+02   0.820E+01 0.674E+01 -.743E+00   -.387E-03 -.259E-03 -.131E-03
   0.404E+02 0.630E+02 0.360E+02   -.356E+02 -.628E+02 -.310E+02   -.265E+01 0.324E+01 -.630E+01   -.674E-04 -.917E-04 0.211E-04
   0.939E+02 -.128E+02 0.277E+02   -.852E+02 0.721E+01 -.360E+02   -.115E+02 0.848E+01 0.126E+02   -.121E-03 -.197E-03 -.137E-03
   0.116E+03 0.789E+02 -.502E+01   -.104E+03 -.625E+02 0.560E+01   -.161E+02 -.155E+02 -.348E+00   -.100E-03 0.359E-03 -.104E-04
   0.309E+02 0.517E+02 0.714E+02   -.272E+02 -.586E+02 -.709E+02   -.193E+01 0.568E+01 -.324E+01   0.750E-04 -.326E-03 0.234E-03
   0.933E+01 -.648E+02 0.749E+02   -.804E+01 0.618E+02 -.599E+02   0.173E+01 0.129E+01 -.129E+02   -.398E-03 -.302E-03 0.234E-03
   -.360E+02 -.805E+01 -.123E+02   0.362E+02 0.426E+01 0.105E+02   -.238E+01 0.709E+00 0.329E+01   -.414E-04 0.225E-03 -.227E-03
   -.550E+02 0.365E+02 0.415E+02   0.610E+02 -.298E+02 -.314E+02   -.180E+01 -.811E+01 -.942E+01   0.309E-03 -.789E-04 0.668E-04
   -.618E+01 0.357E+02 -.805E+02   -.190E+01 -.333E+02 0.734E+02   0.121E+02 -.534E+01 0.494E+01   -.170E-03 -.171E-03 0.230E-03
   0.633E+02 0.150E+02 0.426E+02   -.695E+02 -.513E+01 -.385E+02   0.676E+01 -.100E+02 -.528E+01   -.216E-03 0.293E-03 -.215E-03
   0.504E+02 -.237E+02 0.229E+02   -.448E+02 0.275E+02 -.204E+02   -.748E+01 -.111E+01 -.280E+01   -.123E-03 0.204E-03 -.995E-05
   -.316E+02 0.564E+02 0.242E+02   0.326E+02 -.555E+02 -.248E+02   -.238E+01 -.437E+01 0.148E+01   0.194E-03 0.605E-04 -.118E-04
   -.283E+02 0.227E+02 -.619E+02   0.257E+02 -.180E+02 0.604E+02   0.561E+01 -.582E+01 0.418E+01   -.202E-04 -.131E-03 0.118E-03
   -.864E+01 0.644E+02 -.160E+02   0.331E+01 -.584E+02 0.160E+02   0.595E+01 -.113E+02 -.166E+01   -.331E-03 0.786E-04 0.230E-03
   0.229E+01 0.986E+01 0.294E+02   -.113E+00 -.158E+02 -.263E+02   -.137E+01 0.582E+01 -.309E+01   0.159E-03 -.137E-03 -.528E-04
   -.630E+02 -.465E+02 0.144E+03   0.595E+02 0.510E+02 -.132E+03   0.479E+01 -.714E+01 -.921E+01   0.225E-04 0.390E-03 0.425E-04
   0.176E+02 0.151E+02 -.243E+02   -.197E+02 -.520E+01 0.274E+02   0.379E+00 -.670E+01 -.213E+01   0.158E-03 0.495E-03 0.314E-03
   0.286E+00 0.234E+02 0.748E+01   -.674E+00 -.185E+02 -.902E+01   0.791E+00 -.319E+01 -.222E+01   0.198E-03 0.144E-04 -.789E-04
   -.869E+02 -.104E+02 -.559E+02   0.736E+02 0.937E+01 0.548E+02   0.145E+02 0.466E+01 0.463E+01   -.199E-03 0.937E-04 0.181E-03
   0.399E+02 -.175E+02 -.577E+02   -.433E+02 0.176E+02 0.629E+02   0.238E+01 -.151E+01 -.596E+01   0.108E-03 -.112E-04 0.759E-04
   0.654E+01 -.660E+02 -.356E+02   -.852E+00 0.571E+02 0.364E+02   -.517E+01 0.849E+01 -.159E+01   -.327E-03 0.168E-03 0.186E-03
   -.290E+02 -.705E+01 -.564E+02   0.225E+02 0.785E+01 0.493E+02   0.144E+02 0.181E+01 0.785E+01   0.511E-03 -.139E-03 -.571E-04
   0.376E+02 0.342E+02 -.526E+02   -.256E+02 -.257E+02 0.546E+02   -.165E+02 -.902E+01 0.103E+00   0.332E-03 0.400E-03 -.172E-03
   -.334E+02 -.446E+02 -.297E+02   0.307E+02 0.467E+02 0.403E+02   -.195E+00 -.851E+00 -.101E+02   0.124E-03 -.451E-03 0.184E-03
   -.597E+02 0.148E+02 -.131E+02   0.607E+02 -.164E+02 0.180E+02   -.528E+01 -.504E+00 -.161E+01   -.405E-03 0.134E-03 0.168E-03
   -.689E+02 -.501E+02 -.230E+02   0.602E+02 0.492E+02 0.203E+02   0.112E+02 0.549E+00 -.753E+00   0.517E-04 -.200E-03 -.170E-03
   -.120E+03 -.932E+02 -.267E+02   0.134E+03 0.103E+03 0.257E+02   -.135E+02 -.104E+02 0.197E+01   0.608E-03 -.697E-03 0.468E-04
   0.134E+02 -.121E+03 0.124E+02   -.236E+02 0.135E+03 0.969E+01   0.107E+02 -.103E+02 -.223E+02   -.698E-03 -.460E-03 0.226E-03
   0.499E+01 0.616E+02 0.320E+02   0.566E+01 -.481E+02 -.165E+02   -.117E+02 -.134E+02 -.173E+02   0.412E-03 0.651E-03 0.219E-03
   -.117E+03 -.257E+02 -.116E+03   0.112E+03 0.378E+02 0.145E+03   0.419E+01 -.956E+01 -.286E+02   -.110E-03 -.876E-04 -.110E-03
   0.996E+02 -.727E+02 -.438E+02   -.111E+03 0.820E+02 0.494E+02   0.113E+02 -.104E+02 -.433E+01   0.864E-04 0.187E-03 0.660E-03
   0.386E+02 0.362E+02 0.123E+03   -.258E+02 -.587E+02 -.150E+03   -.118E+02 0.211E+02 0.245E+02   0.433E-04 -.665E-03 -.637E-04
[...]
   -.107E+03 -.764E+02 -.420E+02   0.130E+03 0.786E+02 0.462E+02   -.236E+02 -.396E+01 -.433E+01   0.173E-03 0.159E-03 0.363E-05
   0.713E+02 0.416E+02 0.168E+03   -.968E+02 -.453E+02 -.179E+03   0.282E+02 0.405E+01 0.117E+02   -.144E-03 -.712E-03 -.798E-04
   0.102E+03 0.494E+02 0.510E+02   -.117E+03 -.457E+02 -.602E+02   0.156E+02 -.400E+01 0.883E+01   0.498E-03 -.418E-03 0.446E-03
   0.313E+02 0.196E+02 0.114E+03   -.266E+02 -.485E+02 -.122E+03   -.361E+01 0.309E+02 0.752E+01   -.464E-03 -.243E-03 0.406E-03
   -.539E+02 0.236E+02 -.163E+02   0.645E+02 -.903E+01 0.265E+02   -.113E+02 -.166E+02 -.108E+02   -.172E-03 0.631E-04 -.489E-04
   -.913E+02 0.392E+01 -.236E+02   0.844E+02 0.614E+01 0.131E+02   0.114E+02 -.818E+01 0.824E+01   -.897E-03 0.313E-03 0.270E-03
   -.462E+02 0.436E+02 0.701E+02   0.466E+02 -.412E+02 -.703E+02   0.210E+01 -.300E+01 0.210E+00   0.619E-04 -.245E-04 0.662E-04
   0.688E+02 0.277E+02 0.555E+02   -.625E+02 -.489E+02 -.531E+02   -.676E+01 0.219E+02 -.372E+01   0.100E-03 0.175E-03 -.216E-03
   -.371E+02 0.636E+02 -.118E+01   0.389E+02 -.758E+02 -.644E+01   -.349E+01 0.846E+01 0.402E+01   -.490E-03 -.129E-03 0.403E-04
   0.496E+02 -.652E+02 -.568E+02   -.364E+02 0.805E+02 0.606E+02   -.132E+02 -.161E+02 -.420E+01   0.651E-03 0.714E-03 0.308E-03
   -.133E+03 -.152E+02 -.849E+02   0.127E+03 0.150E+02 0.103E+03   0.855E+01 0.422E+00 -.194E+02   -.175E-03 0.101E-03 0.214E-03
   0.346E+02 -.133E+03 -.345E+02   -.158E+02 0.145E+03 0.314E+02   -.215E+02 -.101E+02 0.539E+01   0.536E-04 0.374E-04 0.584E-04
   -.291E+02 0.901E+02 0.143E+02   0.403E+02 -.108E+03 -.198E+02   -.109E+02 0.186E+02 0.547E+01   0.329E-03 0.199E-04 0.506E-04
   -.674E+01 -.109E+03 0.295E+02   0.199E+02 0.134E+03 -.315E+02   -.103E+02 -.244E+02 0.355E+01   0.279E-03 0.135E-03 -.620E-03
   0.111E+02 0.102E+03 0.919E+02   0.494E-12 0.426E-12 -.711E-13   -.110E+02 -.102E+03 -.919E+02   0.210E-02 0.529E-02 0.219E-02

 POSITION                                       TOTAL-FORCE (eV/Angst)
      1.54686      0.02687      1.39212         0.065744      0.947890      0.003152
      3.09023      3.05354      1.86720         0.681451      1.743484      1.276247
      6.65598      4.67920      0.52007        -0.525355     -1.298597     -6.007426
     12.35805      8.19709     10.83302         1.626769     -0.111530     -1.603959
      4.05848      7.62912      1.95793        -2.859855      1.060963      0.246620
     11.20281      4.40685      0.49447         0.730797      0.904014     -2.247911
      7.52013      9.57449      3.47834        -0.124620     -0.179025      0.832946
      6.02417     10.09645      6.50772        -2.157500      1.347429      1.559427
      9.72583      6.54610      2.89202         1.260332      1.738420      0.284462
      9.01311      6.86724     11.05056         1.087634     -0.460420     -5.475656
      3.32850      1.07405     10.48867         0.541999     -0.938296     -0.285249
      9.76666      7.36515      7.13117         1.137570     -0.233509      1.168721
     10.75382     11.27805      8.81739         3.817003      3.601286      1.653338
     10.98542      0.98275     12.24926        -1.168495     -0.976631     -1.133469
      0.87634      5.68864      3.48708        -1.024915      2.010793      0.257238
      3.45023      5.04005      9.86564        -0.503990     -0.730724     -0.780452
      1.29676      5.80001      7.20621        -0.720905      1.163004      3.201887
      7.82220     11.05240     12.36190        -0.220392      0.070830      0.162079
      7.44691      4.27251      4.85591         0.704837      0.514754      1.930250
      1.62213      3.17093      5.43272         1.133333     -1.108892      2.668210
      2.76877      0.05019      4.94595        -0.365033      0.243130      0.502800
      0.06832      2.79263      9.52594        -1.689537     -0.716039     -2.848814
      8.88601      3.82522      8.16485         2.630446     -2.547919     -1.459051
      6.11253      0.93190      5.17713         0.222508     -0.015838      1.121556
     10.66239     11.46107      3.58319        -1.869301      1.651778      0.268066
      8.92433      2.76550      2.34009        -0.602456     -0.848556      0.085274
      0.50190      9.15080      1.88964        -0.354248      0.100037     -1.312964
      4.63565      0.02485      1.82973        -2.907172     -1.953065      1.519526
      4.43607      7.64763      8.21818         2.853023     -0.972398      0.632688
      8.95644     10.95409      6.67894         2.165552      3.460749     -1.356251
      7.62243      9.16942      9.97300        -2.753967      2.931693      4.260829
      8.69860      0.80264      9.04606        -4.485638      0.945976      0.234284
      3.21908     10.57314      0.34644         1.780510     -1.168071     -2.703331
      7.44784      0.15428      1.91732         3.019533     -1.636014      2.148106
      1.67050      3.16460     11.66547        -2.143745     -3.082677      1.428706
     10.43782     10.27619     11.72477         4.245519     -1.395161      0.657760
      4.79020     10.42994     10.07127         3.976056     -2.955378     -2.186791
      8.03973      1.89276     11.53886         0.572219     -0.151147     -1.229905
      7.60726      7.62791      0.63771        -1.887890      2.710453     -0.290115
     11.78224      2.26662      3.35572        -1.353492     -3.479536      0.880379
      6.29244      5.14326      8.93205         3.005490     -1.116880      2.628039
      9.78621      1.68681      5.81264         0.620284     -5.222719     -1.655972
      4.17400     10.37928      3.96762         0.801967     -0.137004      0.013699
      1.75690      5.99990      0.59855         1.288600     -2.661416      2.759137
     10.99786      4.32123      5.48504        -1.737637      3.240888      0.940446
     11.63780      5.47753      9.72771         0.402927      1.720810     -3.764354
      4.43184      3.22465      6.86375         1.136916      3.675286      3.439879
      1.21031     12.34572      7.35442        -0.959415     -1.437779     -0.785722
      6.37941      6.20701      3.03027         0.518048     -0.412254     -0.821190
     11.41510      8.70334      4.53758         7.908803      2.611854      0.760074
      4.37939      0.14716      7.87087        -4.616546     -0.521439      2.029092
      0.64919      9.23456      7.17386        -2.868647      1.214913      0.635358
      3.81905      5.35845      4.59970        -4.293185     -2.182582      3.264790
      2.88683      8.03457      5.56489         2.607708     -0.377754     -3.520189
     12.18200     10.19693      3.81837         0.219853     -0.624971      1.006886
      6.94095      1.01516      3.13103         0.541209      2.973834     -0.278327
     12.33776      3.25746      4.47156        -1.065144      0.127066     -1.801560
     10.03687     11.09599      0.47314        -0.818012      2.487140      0.780589
      9.74915      5.30286      6.26859         0.204324     -1.133955      1.237224
      8.21676      8.29249      8.90453         1.011383     -1.373382     -2.472159
[...]
     12.17166      7.94600      3.31546        -1.051145     -4.774228      1.175720
      0.75877      5.27335      9.93578        -0.480638     -1.772233     -0.192947
      1.52377     10.62163      0.28405         2.782598      0.337507      1.336290
      3.43982     11.33730      2.76744         0.263786     -0.310030     -0.386271
      6.02459     11.76112      1.49116         1.069620      1.941405     -0.805208
      4.96438     11.60530      4.82190        -0.660323     -2.046686     -0.640934
      4.80540      6.05997      3.59592         4.474269      1.870226     -2.237764
      8.89817      9.83768     10.93024         2.468802     -0.581195      0.037188
      8.53185      0.35972     10.96136        -0.411245      0.664872     -1.369992
      5.76347      4.04340      7.92168        -1.748917     -3.780836     -3.591022
     12.39057      5.18722      5.76467        -0.064196     -0.759270     -0.376567
      2.98360      6.00087      5.95759         2.763454      0.292327     -1.416171
      7.93303      5.40973      8.68581        -2.660722      2.198648      2.268501
      0.16274      1.04046      2.75616         0.263535      0.436684     -0.008021
      8.95448      3.17855     11.81683         2.856253      0.850490      1.620249
    total drift:                                0.013688     -0.026017      0.013837

  FREE ENERGIE OF THE ION-ELECTRON SYSTEM (eV)
  free  energy   TOTEN  =      -933.09629141 eV

  energy  without entropy=     -933.09629141  energy(sigma->0) =     -933.09629141