 vasp.5.4.4.18Apr17-6-g9f103f2a35 (build Mar 16 2023 09:39:13) complex

 executed on             LinuxIFC date 2024.04.30  01:04:28

 INCAR:
 POTCAR:    PAW_PBE Ca_sv 06Sep2000
 POTCAR:    PAW_PBE Si 05Jan2001
 POTCAR:    PAW_PBE O 08Apr2002
 POTCAR:    PAW_PBE Ca_sv 06Sep2000
   VRHFIN =Ca: 3s3p4s

   TITEL  = PAW_PBE Ca_sv 06Sep2000
   POMASS =   40.078; ZVAL   =   10.000    mass and valenz
   ENMAX  =  266.622; ENMIN  =  199.967 eV

   TITEL  = PAW_PBE Si 05Jan2001
   POMASS =   28.085; ZVAL   =    4.000    mass and valenz
   ENMAX  =  245.345; ENMIN  =  184.009 eV

   TITEL  = PAW_PBE O 08Apr2002
   POMASS =   16.000; ZVAL   =    6.000    mass and valenz
   ENMAX  =  400.000; ENMIN  =  300.000 eV

 Optimization of the real space projectors (new method)

 maximal supplied QI-value         = 16.25
 optimisation between [QCUT,QGAM] = [ 12.51, 25.03] = [ 43.85,175.40] Ry
 Optimized for a Real-space Cutoff    1.47 Angstroem

   l    n(q)    QCUT    max X(q) W(low)/X(q) W(high)/X(q)  e(spline)
   0     11    12.514    11.817    0.25E-04    0.32E-05    0.87E-07
   0     11    12.514     8.461    0.39E-04    0.59E-05    0.18E-06
   1     11    12.514     3.957    0.97E-05    0.57E-05    0.28E-07
   1     11    12.514     4.314    0.42E-04    0.14E-04    0.23E-06
   2     10    12.514    14.565    0.79E-04    0.50E-03    0.16E-05
   2     10    12.514    14.552    0.75E-04    0.48E-03    0.15E-05
 Optimization of the real space projectors (new method)

[...]

   l    n(q)    QCUT    max X(q) W(low)/X(q) W(high)/X(q)  e(spline)
   0      9    12.501   159.560    0.10E-03    0.83E-04    0.71E-07
   0      9    12.501   115.863    0.99E-04    0.81E-04    0.70E-07
   1      8    12.501    88.339    0.20E-03    0.25E-03    0.76E-07
   1      8    12.501    48.592    0.20E-03    0.24E-03    0.75E-07
 Optimization of the real space projectors (new method)

 maximal supplied QI-value         = 24.76
 optimisation between [QCUT,QGAM] = [ 12.38, 25.00] = [ 42.90,175.06] Ry
 Optimized for a Real-space Cutoff    1.16 Angstroem

   l    n(q)    QCUT    max X(q) W(low)/X(q) W(high)/X(q)  e(spline)
   0      9    12.378    20.381    0.16E-03    0.67E-05    0.31E-06
   0      9    12.378    15.268    0.17E-03    0.81E-05    0.33E-06
   1      8    12.378     5.964    0.20E-03    0.16E-03    0.30E-06
   1      8    12.378     5.382    0.18E-03    0.14E-03    0.26E-06
  PAW_PBE Ca_sv 06Sep2000               :
  PAW_PBE Si 05Jan2001                  :
  PAW_PBE O 08Apr2002                   :

 POSCAR: Ca Si  O
  positions in direct lattice
 exchange correlation table for  LEXCH =        8
   RHO(1)=    0.500       N(1)  =     2000
   RHO(2)=  100.500       N(2)  =     4000

 ion  position               nearest neighbor table
   1  0.758  0.823  0.688-  88 2.13  59 2.21 108 2.23  99 2.38
   2  0.833  0.011  0.914-  90 2.27 116 2.39 128 2.40 110 2.48 108 2.53  39 2.76  46 2.86  36 3.00

   3  0.535  0.517  0.670-  92 2.28  57 2.56  33 2.96
   4  0.338  0.365  0.909- 125 2.29  79 2.31  75 2.50 104 2.56
   5  0.170  0.952  0.556-  77 2.32 132 2.38  52 2.90  30 3.11
   6  0.138  0.864  0.274-  89 1.98 119 2.22 134 2.27  97 2.28  61 2.52  52 3.12
   7  0.495  0.723  0.894-  73 2.13 107 2.41
   8  0.423  0.788  0.272- 127 2.10 103 2.32  78 2.40  32 2.96  40 3.05
   9  0.598  0.989  0.115- 115 2.07  78 2.36  63 2.57
  10  0.116  0.458  0.050- 126 2.18  79 2.34  75 2.47  72 2.49  38 2.76  28 2.81  31 3.14
  11  0.603  0.497  0.044- 114 2.40 125 2.51  43 2.92  33 2.93
  12  0.606  0.492  0.401-  67 2.23  66 2.32  50 2.95
  13  0.925  0.465  0.303-  84 2.12  66 2.41
  14  0.546  0.081  0.479- 135 1.96  74 2.32 131 2.41  32 2.58  47 2.66
  15  0.293  0.013  0.856- 133 2.13  62 2.13  51 2.94  48 3.10
  16  0.352  0.134  0.293-  60 2.07 131 2.12  74 2.31
  17  0.489  0.182  1.000- 125 2.25  36 3.08  43 3.11
  18  0.723  0.261  0.220- 124 2.09 129 2.21  76 2.25
  19  0.004  0.690  0.405-  97 2.04 100 2.24  83 2.55
  20  0.034  0.170  0.242- 118 2.24  80 2.28  85 2.32 102 2.50  28 2.96  54 3.12
  21  0.830  0.442  0.660- 111 2.25  67 2.36 105 2.55  29 2.80
  22  0.314  0.508  0.506-  92 2.17 106 2.19  71 2.35 109 2.35
  23  0.223  0.283  0.643-  65 2.09 106 2.22
  24  1.000  0.640  0.701- 111 2.10  42 2.91
  25  0.940  0.183  0.599-  91 2.14  87 2.23  77 2.35
  26  0.866  0.676  0.033- 101 2.00 128 2.33
  27  0.767  0.803  0.434-  59 2.26 122 2.29  95 2.40  41 2.95
  28  0.085  0.244  0.031-  79 1.71  69 1.79  80 1.84  85 1.87  10 2.81  49 2.93  20 2.96
  29  0.752  0.584  0.804- 107 1.64  99 1.70 105 1.75 101 1.76  21 2.80
  30  0.978  0.948  0.700- 113 1.42  90 1.45  88 1.78  77 2.27   5 3.11
  31  0.207  0.615  0.888-  75 1.56  56 1.62  72 1.66  73 2.14  55 2.21  34 2.89  35 2.91  10 3.14

[...]

  52  0.979  0.940  0.439-  89 1.50 100 1.58  77 1.76  95 1.79   5 2.90   6 3.12  53 3.13
  53  0.801  0.035  0.305- 118 1.52  95 1.69  63 1.74  64 1.83  52 3.13
  54  0.144  0.326  0.389-  58 1.55  84 1.77 102 1.77 106 1.82  20 3.12
  55  0.206  0.629  0.717-  34 1.65  31 2.21
  56  0.162  0.723  0.932-  35 1.49  31 1.62
  57  0.517  0.661  0.534-  44 1.67   3 2.56
  58  0.083  0.231  0.429-  54 1.55
  59  0.646  0.820  0.559-  44 1.52   1 2.21  27 2.26
  60  0.387  0.251  0.190-  43 1.79  16 2.07
  61  0.182  0.759  0.116-  35 1.48  38 1.74   6 2.52
  62  0.331  0.049  0.012-  48 1.63  15 2.13
  63  0.670  0.007  0.299-  53 1.74   9 2.57
  64  0.829  0.960  0.188-  46 1.68  53 1.83
  65  0.134  0.344  0.764-  42 1.61  23 2.09
  66  0.771  0.551  0.363-  41 1.92  12 2.32  13 2.41
  67  0.692  0.438  0.540-  50 1.87  12 2.23  21 2.36
  68  0.413  0.475  0.155-  43 1.67  40 1.75
  69  0.055  0.249  0.896-  49 1.60  28 1.79
  70  0.498  0.967  0.823-  39 1.97  51 2.04
  71  0.387  0.555  0.347-  40 1.59  22 2.35
  72  0.109  0.532  0.873-  31 1.66  42 1.75  10 2.49
  73  0.349  0.678  0.833-  34 1.65   7 2.13  31 2.14
  74  0.459  0.000  0.344-  32 1.71  16 2.31  14 2.32
  75  0.265  0.536  0.959-  31 1.56  10 2.47   4 2.50
  76  0.774  0.324  0.374-  50 1.52  18 2.25
  77  0.006  0.023  0.545-  52 1.76  30 2.27   5 2.32  25 2.35
  78  0.432  0.918  0.140-  48 1.51   9 2.36   8 2.40
  79  0.200  0.305  0.005-  28 1.71   4 2.31  10 2.34
  80  0.132  0.129  0.101-  28 1.84  37 1.90  20 2.28
  81  0.589  0.116  0.723-  45 1.66  39 1.89
  82  0.562  0.331  0.743-  33 1.60  45 1.83
  83  0.866  0.696  0.266-  41 1.72  19 2.55
  84  0.081  0.440  0.346-  54 1.77  13 2.12
  85  0.969  0.274  0.111-  28 1.87  20 2.32
  86  0.612  0.271  0.491-  50 1.52  47 1.65
  87  0.896  0.240  0.755-  49 1.57  25 2.23
  88  0.921  0.826  0.667-  30 1.78   1 2.13
  89  0.032  0.955  0.338-  52 1.50   6 1.98
  90  0.899  0.010  0.751-  30 1.45   2 2.27
  91  0.796  0.246  0.546-  50 1.57  25 2.14
  92  0.379  0.592  0.637-  34 1.68  22 2.17   3 2.28
  93  0.410  0.191  0.801-  45 1.52
  94  0.473  0.814  0.670-  51 1.77  44 1.80
  95  0.848  0.969  0.408-  53 1.69  52 1.79  27 2.40
  96  0.115  0.897  0.967-  35 1.67  37 1.71
  97  0.098  0.692  0.278-  38 1.73  19 2.04   6 2.28
  98  0.672  0.338  0.930-  33 1.56  36 1.84
  99  0.793  0.643  0.692-  29 1.70   1 2.38
 100  0.963  0.832  0.494-  52 1.58  19 2.24
 101  0.852  0.616  0.890-  29 1.76  26 2.00
 102  0.192  0.279  0.270-  54 1.77  20 2.50
 103  0.470  0.813  0.444-  44 1.60  32 1.71   8 2.32
 104  0.510  0.454  0.867-  33 1.50   4 2.56
 105  0.688  0.465  0.795-  33 1.65  29 1.75  21 2.55
 106  0.199  0.384  0.506-  54 1.82  22 2.19  23 2.22
 107  0.655  0.664  0.820-  29 1.64   7 2.41
 108  0.693  0.909  0.823-  39 1.70   1 2.23   2 2.53
 109  0.445  0.387  0.538-  47 1.59  22 2.35
 110  0.713  0.147  0.853-  36 1.64  39 1.85   2 2.48
 111  0.999  0.483  0.659-  42 1.90  24 2.10  21 2.25
[...]
 121  0.289  0.812  0.655-  34 1.86  51 2.45
 122  0.663  0.757  0.299-  41 1.70  27 2.29
 123  0.843  0.224  0.947-  36 1.58  49 1.82
 124  0.698  0.179  0.082-  36 1.61  18 2.09
 125  0.475  0.353  0.022-  43 1.80  17 2.25   4 2.29  11 2.51
 126  0.024  0.583  0.118-  38 1.72  10 2.18
 127  0.359  0.673  0.178-  40 1.52   8 2.10
 128  0.869  0.854  0.007-  46 1.78  26 2.33   2 2.40
 129  0.590  0.365  0.197-  43 1.63  18 2.21
 130  0.436  0.211  0.597-  47 1.58  45 1.83
 131  0.459  0.216  0.385-  47 1.76  16 2.12  14 2.41
 132  0.291  0.959  0.418-  32 1.67   5 2.38
 133  0.317  0.025  0.693-  51 1.78  15 2.13
 134  0.217  0.963  0.152-  48 1.79  37 1.96   6 2.27
 135  0.481  0.986  0.578-  51 1.67  14 1.96  32 1.99

IMPORTANT INFORMATION: All symmetrisations will be switched off!
NOSYMM: (Re-)initialisation of all symmetry stuff for point group C_1.

Automatic generation of k-mesh.
 generate k-points for:    2    2    2
Space group operators:
 irot       det(A)        alpha          n_x          n_y          n_z        tau_x        tau_y        tau_z
    1     1.000000     0.000000     1.000000     0.000000     0.000000     0.000000     0.000000     0.000000

 Subroutine IBZKPT returns following result:

 Found      8 irreducible k-points:

 Following reciprocal coordinates:
            Coordinates               Weight
  0.000000  0.000000  0.000000      1.000000
  0.500000  0.000000  0.000000      1.000000
  0.000000  0.500000  0.000000      1.000000
  0.500000  0.500000  0.000000      1.000000
  0.000000  0.000000  0.500000      1.000000
  0.500000  0.000000  0.500000      1.000000
  0.000000  0.500000  0.500000      1.000000
  0.500000  0.500000  0.500000      1.000000

 Following cartesian coordinates:
            Coordinates               Weight
  0.000000  0.000000  0.000000      1.000000
  0.038669  0.000000  0.000000      1.000000
  0.000000  0.038669  0.000000      1.000000
  0.038669  0.038669  0.000000      1.000000
  0.000000  0.000000  0.038669      1.000000
  0.038669  0.000000  0.038669      1.000000
  0.000000  0.038669  0.038669      1.000000
  0.038669  0.038669  0.038669      1.000000

 SYSTEM =  unknown system
 POSCAR =  Ca Si  O

 Startparameter for this run:
   NWRITE =      2    write-flag & timer
   PREC   = a         normal or accurate (medium, high low for compatibility)
   ISTART =      0    job   : 0-new  1-cont  2-samecut
   ICHARG =      2    charge: 1-file 2-atom 10-const
   ISPIN  =      1    spin polarized calculation?
   LNONCOLLINEAR =      F non collinear calculations
   LSORBIT =      F    spin-orbit coupling
   INIWAV =      1    electr: 0-lowe 1-rand  2-diag
   LASPH  =      F    aspherical Exc in radial PAW
   METAGGA=      F    non-selfconsistent MetaGGA calc.

 Electronic Relaxation 1
   ENCUT  =  600.0 eV  44.10 Ry    6.64 a.u.  25.83 25.83 25.83*2*pi/ulx,y,z
   ENINI  =  600.0     initial cutoff
   ENAUG  =  605.4 eV  augmentation charge cutoff
   NELM   =     60;   NELMIN=  2; NELMDL= -5     # of ELM steps
   EDIFF  = 0.1E-05   stopping-criterion for ELM
   LREAL  =      T    real-space projection
   NLSPLINE    = F    spline interpolate recip. space projectors
   LCOMPAT=      F    compatible to vasp.4.4
   GGA_COMPAT  = T    GGA compatible to vasp.4.4-vasp.4.6
   LMAXPAW     = -100 max onsite density
   LMAXMIX     =    2 max onsite mixed and CHGCAR
   VOSKOWN=      0    Vosko Wilk Nusair interpolation
   ROPT   =   -0.00025  -0.00025  -0.00025
[...]
     0.000000000  0.000000000 12.930412990     0.000000000  0.000000000  0.077337050

  length of vectors
    12.930412990 12.930412990 12.930412990     0.077337050  0.077337050  0.077337050

 FORCES acting on ions
    electron-ion (+dipol)            ewald-force                    non-local-force                 convergence-correction
   -.867E+01 -.223E+02 -.148E+02   0.925E+01 0.212E+02 0.183E+02   -.116E+01 0.528E+00 -.173E+01   -.317E-03 -.128E-02 0.552E-03
   -.328E+02 0.808E+02 -.134E+02   0.366E+02 -.844E+02 0.788E+01   -.239E+01 0.283E+01 0.418E+01   -.431E-03 -.639E-03 -.123E-03
   -.486E+01 -.834E+02 0.248E+02   0.196E+01 0.855E+02 -.291E+02   0.278E+01 -.151E+01 0.281E+01   -.143E-03 0.132E-02 -.824E-03
   0.110E+03 -.532E+01 0.140E+03   -.109E+03 0.800E+01 -.134E+03   -.758E+00 -.162E+01 -.547E+01   -.483E-04 0.832E-03 0.117E-02
   -.362E+02 0.224E+02 -.127E+02   0.387E+02 -.219E+02 0.179E+02   -.842E+00 -.709E+00 -.270E+01   0.685E-04 -.145E-02 -.401E-03
   -.173E+03 0.123E+03 -.252E+03   0.169E+03 -.121E+03 0.247E+03   0.570E+01 -.297E+01 0.335E+01   -.205E-03 -.113E-02 0.475E-03
   -.143E+03 -.342E+02 -.234E+03   0.142E+03 0.341E+02 0.226E+03   0.196E+01 0.124E+01 0.624E+01   0.103E-02 -.688E-04 0.384E-03
   -.104E+03 0.100E+03 -.131E+02   0.106E+03 -.102E+03 0.969E+01   -.605E+00 0.219E+01 0.324E+01   0.672E-03 -.170E-02 0.214E-03
   -.844E+02 0.199E+03 -.125E+03   0.849E+02 -.199E+03 0.124E+03   0.512E+00 -.914E-01 0.274E+01   0.183E-03 -.167E-02 -.710E-03
   0.121E+03 0.768E+02 -.115E+03   -.119E+03 -.765E+02 0.115E+03   -.177E+01 -.136E+01 0.368E+00   0.247E-03 0.535E-03 0.120E-02
   -.132E+03 -.287E+03 -.888E+02   0.131E+03 0.284E+03 0.925E+02   0.101E+01 0.298E+01 -.263E+01   -.234E-03 0.161E-02 0.584E-03
   0.960E+02 -.116E+03 0.166E+03   -.900E+02 0.118E+03 -.162E+03   -.576E+01 -.129E+01 -.396E+01   -.652E-03 0.186E-02 0.665E-04
   0.346E+02 0.536E+02 0.139E+02   -.328E+02 -.531E+02 -.104E+02   -.260E+01 -.529E+00 -.363E+01   0.937E-03 0.147E-02 0.297E-04
   -.269E+03 -.306E+01 0.419E+02   0.269E+03 0.478E+01 -.464E+02   0.405E+01 0.104E+01 0.154E+01   -.106E-02 -.649E-03 -.202E-03
   0.202E+03 -.345E+02 0.102E+03   -.198E+03 0.345E+02 -.103E+03   -.417E+01 -.415E+00 0.866E+00   0.721E-03 -.797E-03 0.915E-04
   0.179E+03 0.896E+01 -.258E+02   -.176E+03 -.255E+01 0.261E+02   -.497E+01 -.617E+01 -.466E+00   -.703E-03 0.560E-03 -.449E-03
   0.579E+02 0.592E+02 -.768E+02   -.612E+02 -.586E+02 0.771E+02   0.185E+01 -.151E+01 -.285E+00   -.607E-04 -.231E-04 0.116E-03
   -.977E+02 -.741E+02 -.619E+02   0.968E+02 0.741E+02 0.637E+02   0.177E+01 -.417E-02 -.222E+00   0.131E-03 0.635E-03 -.351E-03
   -.583E+02 0.227E+03 -.249E+03   0.571E+02 -.223E+03 0.241E+03   -.656E-01 -.443E+01 0.669E+01   0.774E-03 -.582E-03 -.469E-03
   0.986E+01 -.106E+03 -.187E+03   -.980E+01 0.109E+03 0.187E+03   0.404E+00 -.261E+01 0.179E+01   0.841E-03 0.429E-03 0.162E-04
   -.112E+03 0.172E+02 0.135E+03   0.110E+03 -.180E+02 -.138E+03   0.574E+00 -.618E+00 0.181E+01   -.107E-03 0.940E-03 0.907E-04
   0.222E+03 -.108E+03 0.100E+03   -.218E+03 0.106E+03 -.101E+03   -.295E+01 0.288E+01 -.823E+00   -.329E-03 0.174E-02 -.992E-03
   0.360E+02 0.132E+03 0.470E+02   -.391E+02 -.126E+03 -.503E+02   0.362E+01 -.612E+01 0.158E+01   -.372E-03 0.140E-02 -.109E-02
   -.912E+02 -.153E+03 0.101E+03   0.895E+02 0.153E+03 -.100E+03   0.138E+01 0.279E+01 0.326E+00   0.659E-04 -.192E-03 -.767E-03
   -.130E+03 -.299E+02 0.869E+02   0.124E+03 0.300E+02 -.867E+02   0.554E+01 -.482E+00 -.524E+00   0.537E-03 0.186E-03 0.105E-03
   0.105E+03 0.274E+02 -.818E+02   -.104E+03 -.252E+02 0.796E+02   -.313E+00 -.106E+01 0.438E+01   -.900E-03 -.745E-04 0.682E-03
   -.538E+01 0.819E+02 -.581E+01   0.940E+00 -.798E+02 0.187E+01   0.398E+01 -.174E+01 0.272E+01   -.170E-03 -.145E-02 -.735E-03
   0.244E+02 0.209E+01 -.732E+01   -.212E+02 0.100E+01 0.714E+01   -.270E+01 -.441E+01 0.526E+00   0.174E-03 0.239E-03 0.378E-03
   -.428E+02 0.125E+02 -.635E+02   0.401E+02 0.557E+00 0.624E+02   0.281E+01 -.831E+01 0.228E+01   -.942E-04 0.403E-03 0.121E-04
   -.126E+02 0.560E+02 0.521E+02   0.164E+02 -.492E+02 -.364E+02   -.853E+01 -.142E+02 -.216E+02   -.952E-04 -.325E-03 -.122E-03
   -.119E+02 -.474E+02 0.855E+02   0.135E+02 0.387E+02 -.752E+02   0.409E+00 0.927E+01 -.149E+02   0.214E-03 -.837E-04 -.120E-04
   0.527E+02 0.390E+02 -.438E+02   -.555E+02 -.363E+02 0.317E+02   0.137E+01 -.142E+01 0.966E+01   -.200E-03 -.677E-03 -.794E-04
   -.410E+02 0.232E+02 -.175E+02   0.343E+02 -.176E+02 0.171E+02   0.897E+01 -.655E+01 -.256E+01   0.730E-04 0.323E-03 0.412E-04
   0.180E+02 -.486E+02 0.592E+02   -.236E+02 0.426E+02 -.591E+02   0.425E+01 0.789E+01 -.346E+01   0.147E-03 -.145E-03 -.612E-03
   -.263E+02 0.216E+01 0.498E+02   0.217E+02 -.702E+01 -.515E+02   0.804E+01 0.126E+02 -.326E+01   0.188E-03 -.211E-03 0.173E-03
   0.162E+02 -.380E+02 -.439E+02   -.709E+01 0.344E+02 0.437E+02   -.796E+01 0.635E+01 -.963E+00   -.544E-04 -.869E-04 -.485E-04
   -.795E+02 -.836E+02 0.623E+02   0.679E+02 0.790E+02 -.631E+02   0.152E+02 0.571E+01 0.445E+01   0.487E-04 0.760E-04 0.207E-03
   0.128E+02 0.211E+02 0.130E+02   -.165E+02 -.256E+02 -.393E+01   0.115E+01 0.535E+01 -.405E+01   -.987E-04 -.391E-03 0.509E-03
   -.291E+02 0.183E+02 0.674E+02   0.278E+02 -.269E+02 -.617E+02   -.401E+01 0.714E+01 -.514E+01   -.604E-06 -.482E-03 0.378E-03
   -.133E+02 0.529E+02 -.372E+02   0.178E+02 -.441E+02 0.405E+02   -.578E+01 -.140E+02 -.339E+01   -.138E-04 0.441E-04 0.490E-03
   0.393E+02 -.144E+01 0.203E+02   -.381E+02 0.227E+01 -.235E+02   0.179E+01 0.192E+00 0.752E+01   -.140E-03 0.199E-03 -.684E-04
   0.441E+01 -.284E+02 0.596E+02   -.791E+00 0.220E+02 -.609E+02   -.567E+01 0.687E+01 0.898E+00   -.867E-04 0.266E-03 -.208E-03
   0.344E+02 0.165E+00 -.987E+02   -.331E+02 -.130E+01 0.962E+02   -.495E+01 -.179E+01 0.617E+00   -.374E-03 0.463E-03 0.765E-04
   0.103E+02 0.160E+02 0.191E+01   -.315E+01 -.263E+02 -.213E+01   -.962E+01 0.294E+01 0.455E+01   -.218E-03 -.748E-03 -.554E-04
   -.505E+01 -.296E+02 0.526E+02   0.396E+00 0.228E+02 -.427E+02   0.815E+01 0.717E+01 -.127E+02   0.299E-04 0.369E-04 0.153E-03
   0.113E+03 0.600E+02 -.955E+01   -.112E+03 -.609E+02 0.102E+02   -.558E+01 -.166E+01 -.154E+01   -.301E-03 -.380E-03 0.442E-04
   0.452E+02 -.266E+02 0.608E+02   -.492E+02 0.312E+02 -.592E+02   0.306E+01 -.228E+01 -.652E+01   -.339E-03 0.675E-03 -.111E-03
   -.270E+02 0.103E+02 -.378E+02   0.340E+02 -.698E+01 0.351E+02   -.114E+02 -.321E+00 0.168E-01   0.648E-04 -.196E-03 0.184E-04
   0.545E+01 -.102E+02 -.225E+02   -.430E+01 0.663E+01 0.128E+02   -.482E+01 0.362E+01 0.108E+02   -.138E-03 0.113E-03 -.143E-04
   -.571E+02 -.740E+01 0.978E+01   0.636E+02 0.313E+01 -.104E+02   -.321E+01 0.823E+01 0.537E+01   0.121E-03 0.764E-03 0.880E-04
   0.371E+02 0.239E+02 -.398E+02   -.364E+02 -.223E+02 0.399E+02   -.156E+01 -.226E+01 0.304E+01   0.124E-04 -.573E-03 0.172E-04
   -.311E+01 -.420E+02 -.551E+02   0.558E+01 0.376E+02 0.503E+02   -.821E+01 0.745E+01 0.951E+01   0.189E-03 -.430E-03 -.591E-04
   0.692E+02 -.196E+02 -.721E+02   -.661E+02 0.235E+02 0.666E+02   -.613E+01 -.920E+01 0.403E+01   0.286E-03 -.449E-03 -.314E-03
   -.358E+02 -.528E+02 -.296E+02   0.293E+02 0.456E+02 0.275E+02   0.777E+01 0.111E+02 -.453E+00   0.924E-04 0.589E-03 -.290E-03
   0.125E+03 0.115E+02 0.140E+03   -.143E+03 -.225E+02 -.147E+03   0.162E+02 0.107E+02 0.967E+01   0.851E-04 -.104E-04 -.909E-03
   0.119E+03 0.478E+01 0.139E+03   -.140E+03 -.314E+01 -.157E+03   0.204E+02 -.681E+01 0.132E+02   0.368E-03 -.608E-03 0.101E-03
   -.215E+02 0.688E+02 0.942E+02   0.132E+02 -.908E+02 -.980E+02   0.105E+02 0.223E+02 0.389E+01   -.401E-03 -.525E-03 -.399E-03
   0.477E+02 0.477E+02 -.112E+03   -.621E+02 -.734E+02 0.122E+03   0.120E+02 0.231E+02 -.761E+01   -.323E-04 0.802E-04 -.135E-03
   -.683E+02 -.342E+02 0.207E+02   0.936E+02 0.419E+02 -.157E+02   -.211E+02 -.534E+01 -.576E+01   -.155E-03 -.111E-02 -.674E-04
   0.478E+02 -.484E+02 -.217E+01   -.650E+02 0.393E+02 0.369E+01   0.212E+02 0.123E+02 -.385E+01   -.822E-03 0.659E-03 -.169E-03
[...]
   0.110E+03 -.152E+02 0.112E+03   -.125E+03 0.347E+02 -.109E+03   0.162E+02 -.215E+02 -.277E+01   -.715E-03 -.177E-03 -.402E-03
   -.106E+03 -.656E+02 -.796E+02   0.124E+03 0.623E+02 0.873E+02   -.138E+02 0.484E+01 -.768E+01   0.313E-03 0.199E-04 -.267E-03
   -.197E+02 0.359E+02 -.810E+02   0.177E+02 -.451E+02 0.105E+03   0.191E+00 0.818E+01 -.260E+02   -.939E-04 -.326E-03 -.455E-03
   0.244E+02 -.426E+02 -.392E+02   -.231E+02 0.477E+02 0.241E+02   -.105E+01 -.637E+01 0.171E+02   -.218E-03 0.495E-03 0.242E-03
   0.181E+03 0.303E+02 -.670E+01   -.204E+03 -.368E+02 0.422E+01   0.246E+02 0.812E+01 0.209E+01   -.101E-03 0.840E-04 0.801E-03
   -.107E+03 -.162E+02 0.858E+02   0.105E+03 0.422E+02 -.108E+03   0.321E+01 -.221E+02 0.204E+02   0.358E-03 -.712E-04 0.126E-03
   0.106E+03 0.146E+03 0.482E+02   -.114E+03 -.158E+03 -.642E+02   0.813E+01 0.125E+02 0.188E+02   -.916E-03 -.494E-03 0.252E-03
   -.570E+02 -.768E+02 -.958E+02   0.792E+02 0.792E+02 0.105E+03   -.225E+02 -.162E+01 -.871E+01   -.335E-03 0.109E-02 0.712E-04
   0.168E+03 0.303E+02 -.825E+01   -.192E+03 -.453E+02 0.147E+02   0.249E+02 0.124E+02 -.253E+01   0.738E-04 0.382E-03 0.217E-03
   0.278E+02 -.102E+03 0.689E+02   -.285E+02 0.997E+02 -.896E+02   0.138E+01 0.335E+01 0.251E+02   -.573E-03 0.668E-03 -.314E-03
   0.123E+03 0.451E+01 -.114E+02   -.143E+03 0.394E+01 0.880E+00   0.197E+02 -.101E+02 0.123E+02   -.901E-04 -.948E-03 0.320E-04
   0.149E+03 -.798E+02 0.923E+02   -.162E+03 0.938E+02 -.955E+02   0.152E+02 -.159E+02 0.187E+01   0.692E-04 -.636E-03 -.348E-03
   -.931E+02 -.765E+02 -.988E+02   0.866E+02 0.832E+02 0.115E+03   0.850E+01 -.779E+01 -.181E+02   -.116E-03 0.636E-04 -.726E-05
   -.743E+01 0.161E+02 -.335E+02   0.211E+02 -.580E+01 0.322E+02   -.160E+02 -.128E+02 -.488E+00   -.493E-03 -.118E-02 0.136E-03
   -.182E+02 -.399E+02 -.603E+02   -.102E-11 0.690E-12 0.126E-11   0.182E+02 0.398E+02 0.603E+02   -.812E-03 -.129E-02 -.235E-03

 POSITION                                       TOTAL-FORCE (eV/Angst)
      9.79740     10.64737      8.89218        -0.576930     -0.581673      1.778270
     10.77549      0.14078     11.81933         1.440877     -0.837522     -1.329204
      6.92222      6.69038      8.65819        -0.129027      0.615514     -1.411617
      4.37691      4.71678     11.75585        -0.271793      1.061848      0.903211
      2.19998     12.30702      7.19183         1.632882     -0.273508      2.455593
      1.78323     11.17557      3.54938         2.041505     -0.975444     -1.385005
      6.39872      9.34932     11.56075         0.805857      1.155263     -1.198694
      5.47585     10.19010      3.52229         1.650221      0.420464     -0.148453
      7.73300     12.78398      1.48487         1.045256     -0.688325      2.001772
      1.50443      5.92515      0.65121         1.001126     -1.021119     -0.155151
      7.79596      6.42560      0.57015        -0.339362     -0.736175      1.032379
      7.83263      6.36620      5.19011         0.233359      1.141775      0.332714
     11.96306      6.01638      3.91346        -0.821527     -0.083977     -0.147472
      7.05809      1.04274      6.19004         3.820965      2.763621     -2.973584
      3.78860      0.16372     11.06281        -0.173111     -0.460699     -0.326201
      4.54851      1.73077      3.79100        -1.576847      0.235515     -0.102449
      6.31725      2.34742     12.92882        -1.425311     -0.977046      0.011965
      9.34396      3.37088      2.84089         0.878353     -0.075096      1.597914
      0.05713      8.91737      5.23667        -1.294114     -0.752537     -0.743882
      0.44524      2.19904      3.12567         0.459880      0.442848      1.452438
     10.72592      5.70957      8.53692        -0.989557     -1.429604     -0.992783
      4.05821      6.57403      6.54811         0.774815      0.105180     -0.991075
      2.87933      3.66232      8.31771         0.572000     -0.140254     -1.690514
     12.92571      8.28119      9.06116        -0.337197      2.895312      0.898324
     12.15372      2.36629      7.74259        -0.400460     -0.387385     -0.256638
     11.19584      8.73690      0.42292         0.524003      1.197287      2.172193
      9.91862     10.38526      5.61558        -0.468461      0.294405     -1.225898
      1.10398      3.15331      0.40091         0.539361     -1.309544      0.343716
      9.72939      7.55594     10.38976         0.093629      4.704302      1.204667
     12.64168     12.25344      9.05377        -4.719696     -7.437697     -5.960352
      2.67190      7.94676     11.47864         1.980830      0.599175     -4.572404
      5.35797     12.06751      5.80266        -1.391300      1.255029     -2.457649
      7.77922      5.00231     10.93949         2.236113     -0.939665     -2.907787
      4.15625      8.82977      9.16503        -1.400173      1.837096     -3.344480
      2.47543     10.37090      0.14486         3.456076      7.722311     -4.958205
      9.33939      2.69415     12.45905         1.191186      2.798359     -1.235552
      1.31443     12.82652      0.74753         3.570065      1.113187      3.643246
      1.76556      8.27158      2.08141        -2.628687      0.832746      4.986244
      8.25065      0.35914     10.72173        -5.303789     -1.425567      0.565271
      4.52493      7.34663      2.98061        -1.278005     -5.257080     -0.089236
      9.55513      8.48422      3.39326         2.949741      1.027598      4.353811
      0.75547      5.70271     10.17256        -2.046582      0.450348     -0.422931
      6.06117      4.63501      2.08809        -3.610236     -2.919692     -1.839190
      6.89151     10.19504      7.07614        -2.518860     -7.434023      4.338896
      6.43628      2.67304      9.35507         3.496944      0.339516     -2.888473
     11.93870     12.12471      1.31897        -4.205252     -2.560260     -0.856672
      6.27400      3.56539      6.52765        -0.959294      2.297121     -4.971880
      4.32239     12.21027      1.05703        -4.371272      3.046091     -2.707241
     12.15073      3.61747     11.13814        -3.680082      0.059713      1.141507
      9.32578      4.02615      6.17681         3.245357      3.957637      4.726945
      5.50028     12.16471      8.86468        -0.826472     -0.631604      3.072635
     12.65822     12.15742      5.68258        -5.751061      3.044078      4.660008
     10.35593      0.44651      3.94605        -3.031967     -5.287613     -1.496522
      1.86058      4.21978      5.03232         1.291609      3.943230     -2.459246
      2.66007      8.13945      9.27208        -2.562839     -0.402090      2.520820
      2.09489      9.35378     12.05091        -1.288816     -5.170324     -4.445547
      6.68093      8.54468      6.90565         2.188363      0.302774      0.105090
      1.07724      2.98462      5.55293        -2.362157     -2.578010      2.029676
      8.34768     10.60804      7.22623         4.196855      2.269954     -0.802431
      4.99996      3.24632      2.46089         3.993126      3.123486     -2.326472
[...]
      3.74252     10.50010      8.47162        -0.043045     -1.692944      0.595654
      8.57287      9.78899      3.86359         0.646248     -1.944609     -0.103313
     10.89680      2.89518     12.24884         3.835075      1.584315      0.091049
      9.02061      2.31533      1.06494        -1.725446     -1.010326     -2.225469
      6.13707      4.56803      0.29003         0.270943     -1.295602      2.028510
      0.31536      7.53683      1.52354         2.162542      1.574141     -0.392000
      4.64155      8.69930      2.30594         1.514591      3.930751     -1.716863
     11.23567     11.04594      0.08834         0.698493      1.166437      2.719600
      7.62454      4.72429      2.54577        -0.407446      0.788006      0.048229
      5.63233      2.73448      7.71408         1.081930     -2.564192      3.926978
      5.93527      2.79704      4.98350         0.653281      1.163919      4.385503
      3.76866     12.40629      5.40335        -0.186135     -1.685378      1.781506
      4.09658      0.31953      8.96260         1.770149     -1.972708     -1.312147
      2.80014     12.45749      1.96899         2.027246     -1.077177     -1.988550
      6.21383     12.75001      7.46780        -2.378412     -2.482775     -1.775026
    total drift:                                0.013345     -0.017420      0.001237

  FREE ENERGIE OF THE ION-ELECTRON SYSTEM (eV)
  free  energy   TOTEN  =      -923.36312857 eV

  energy  without entropy=     -923.36312857  energy(sigma->0) =     -923.36312857