 vasp.5.4.4.18Apr17-6-g9f103f2a35 (build Oct 31 2019 15:01:46) complex

 executed on             LinuxIFC date 2024.05.02  00:21:26

 INCAR:
 POTCAR:    PAW_PBE Ca_sv 06Sep2000
 POTCAR:    PAW_PBE Si 05Jan2001
 POTCAR:    PAW_PBE O 08Apr2002
 POTCAR:    PAW_PBE Ca_sv 06Sep2000
   VRHFIN =Ca: 3s3p4s

   TITEL  = PAW_PBE Ca_sv 06Sep2000
   POMASS =   40.078; ZVAL   =   10.000    mass and valenz
   ENMAX  =  266.622; ENMIN  =  199.967 eV

 POTCAR:    PAW_PBE Si 05Jan2001
   VRHFIN =Si: s2p2

   TITEL  = PAW_PBE Si 05Jan2001
   POMASS =   28.085; ZVAL   =    4.000    mass and valenz
   ENMAX  =  245.345; ENMIN  =  184.009 eV

 POTCAR:    PAW_PBE O 08Apr2002
   VRHFIN =O: s2p4

   TITEL  = PAW_PBE O 08Apr2002
   POMASS =   16.000; ZVAL   =    6.000    mass and valenz
   ENMAX  =  400.000; ENMIN  =  300.000 eV

 Optimization of the real space projectors (new method)

 maximal supplied QI-value         = 16.25
 optimisation between [QCUT,QGAM] = [ 12.51, 25.03] = [ 43.85,175.40] Ry
 Optimized for a Real-space Cutoff    1.47 Angstroem

   l    n(q)    QCUT    max X(q) W(low)/X(q) W(high)/X(q)  e(spline)
   0     11    12.514    11.817    0.25E-04    0.32E-05    0.87E-07
   0     11    12.514     8.461    0.39E-04    0.59E-05    0.18E-06
   1     11    12.514     3.957    0.97E-05    0.57E-05    0.28E-07
   1     11    12.514     4.314    0.42E-04    0.14E-04    0.23E-06
   2     10    12.514    14.565    0.79E-04    0.50E-03    0.16E-05
   2     10    12.514    14.552    0.75E-04    0.48E-03    0.15E-05
 Optimization of the real space projectors (new method)

[...]

   l    n(q)    QCUT    max X(q) W(low)/X(q) W(high)/X(q)  e(spline)
   0      9    12.501   159.560    0.10E-03    0.83E-04    0.71E-07
   0      9    12.501   115.863    0.99E-04    0.81E-04    0.70E-07
   1      8    12.501    88.339    0.20E-03    0.25E-03    0.76E-07
   1      8    12.501    48.592    0.20E-03    0.24E-03    0.75E-07
 Optimization of the real space projectors (new method)

 maximal supplied QI-value         = 24.76
 optimisation between [QCUT,QGAM] = [ 12.38, 25.00] = [ 42.90,175.06] Ry
 Optimized for a Real-space Cutoff    1.16 Angstroem

   l    n(q)    QCUT    max X(q) W(low)/X(q) W(high)/X(q)  e(spline)
   0      9    12.378    20.381    0.16E-03    0.67E-05    0.31E-06
   0      9    12.378    15.268    0.17E-03    0.81E-05    0.33E-06
   1      8    12.378     5.964    0.20E-03    0.16E-03    0.30E-06
   1      8    12.378     5.382    0.18E-03    0.14E-03    0.26E-06
  PAW_PBE Ca_sv 06Sep2000               :
  PAW_PBE Si 05Jan2001                  :
  PAW_PBE O 08Apr2002                   :

 POSCAR: Ca Si  O
  positions in direct lattice
 exchange correlation table for  LEXCH =        8
   RHO(1)=    0.500       N(1)  =     2000
   RHO(2)=  100.500       N(2)  =     4000

 ion  position               nearest neighbor table
   1  0.786  0.514  0.572-  71 1.97  73 2.44  64 2.47  12 2.91  17 2.96  44 3.05  34 3.14
   2  0.222  0.760  0.680-
   3  0.481  0.254  0.515-  69 2.13  66 2.15  82 2.17  59 2.23  42 2.84  28 3.15
   4  0.729  0.823  0.476- 109 2.20
   5  0.408  0.055  0.064- 115 2.01  74 2.25  84 2.54  88 2.55  51 2.58  49 3.01
   6  0.493  0.687  0.991- 116 1.85  51 2.94  25 3.04
   7  0.480  0.415  0.168-  70 2.06 119 2.11  94 2.56  39 2.82
   8  0.467  0.172  0.792-  84 2.12  93 2.53  67 2.54  49 2.99
   9  0.233  0.351  0.170-  94 1.93 117 2.29  65 2.43  49 3.02  38 3.09
  10  0.989  0.310  0.424-  75 2.13  80 2.15  58 2.48  48 3.01
  11  0.896  0.106  0.834- 103 2.14  86 2.37 128 2.47  33 2.71
  12  0.797  0.574  0.348- 109 2.16 110 2.48   1 2.91
  13  0.655  0.251  0.062- 118 1.93 119 2.10  70 2.48
  14  0.812  0.380  0.828-  71 2.32 132 2.34  28 2.94
  15  0.026  0.548  0.844-  83 2.01 112 2.40  77 2.42  64 2.45  30 2.84  38 3.11  44 3.13
  16  0.852  0.811  0.007-  55 2.19 127 2.34  95 2.51  36 2.83  24 2.90
  17  0.681  0.640  0.741-  71 2.17  64 2.41  62 2.48  44 2.87   1 2.96  47 3.13
  18  0.026  0.737  0.395- 100 2.05 109 2.35 107 2.35 111 2.41  26 3.06
  19  0.732  0.184  0.569-  79 1.88 104 2.41 128 2.50  28 3.08
  20  0.820  0.098  0.239-  61 2.32  98 2.37  58 2.42 118 2.54  54 2.58  37 2.74
  21  0.291  0.636  0.439-  68 2.05 101 2.21  89 2.40  31 2.80  46 2.96  39 3.12
  22  0.222  0.105  0.493-  56 2.24  63 2.25  91 2.31  96 2.45  67 2.53  32 2.86  48 2.95  53 2.97

  23  0.423  0.922  0.328-  96 1.97  88 2.19 101 2.45  37 3.14
  24  0.676  0.955  0.963- 127 1.90  55 2.11 103 2.16  45 2.43  87 2.48 115 2.52  16 2.90  51 3.01

[...]

  29  0.867  0.388  0.173-  61 1.57  81 1.58 122 1.65  92 1.80  38 2.80
  30  0.164  0.463  0.686-  90 1.50 125 1.60 112 1.75 130 2.02  34 2.44  89 2.54  15 2.84  48 2.92
                            43 2.94
  31  0.261  0.674  0.221- 100 1.70 113 1.73 131 1.76 101 1.78  97 1.88  50 2.47  39 2.56  21 2.80
                            26 3.10
  32  0.059  0.976  0.587-  56 1.54  91 1.70 107 1.76  86 2.14  22 2.86  53 2.98  54 3.06
  33  0.830  0.917  0.751-  86 1.73 128 1.76  55 1.80 102 1.83  11 2.71  44 2.99
  34  0.036  0.534  0.558- 112 1.61  89 1.62  75 1.76 130 1.96 111 2.02  30 2.44  44 3.14   1 3.14

[...]

  40  0.440  0.003  0.592- 123 1.64  67 1.72 120 1.79  96 1.81  53 2.76  47 2.97
  41  0.121  0.014  0.199- 108 1.56 121 1.76 114 1.77 124 1.83  35 2.51  54 3.01
  42  0.635  0.320  0.363- 104 1.60  70 1.66  59 1.99  66 2.20   3 2.84  37 3.06
  43  0.103  0.236  0.696-  63 1.60 133 1.69  57 1.71 125 1.74  30 2.94
  44  0.898  0.696  0.689- 102 1.58  64 1.61 111 1.78  77 1.79  17 2.87  33 2.99   1 3.05  15 3.13
                            34 3.14
  45  0.643  0.896  0.145- 127 1.59  78 1.67  88 2.23 115 2.26  24 2.43  37 3.08
  46  0.492  0.516  0.470-  68 1.38  73 1.60  66 1.64 105 1.74  21 2.96  39 3.05
  47  0.491  0.794  0.693- 106 1.60  76 1.63 123 1.72  87 2.20  40 2.97  17 3.13
  48  0.217  0.340  0.495-  69 1.44 130 1.50  80 1.59  63 1.75  30 2.92  22 2.95  10 3.01
  49  0.362  0.275  0.980-  99 1.54  94 1.58  74 1.69  93 1.97   8 2.99   5 3.01   9 3.02
  50  0.196  0.683  0.035-  72 1.57  97 1.57 113 1.81 126 1.86  31 2.47  26 2.75  27 3.13
  51  0.444  0.907  0.925-  84 1.60 115 1.65  60 1.68  87 1.79 129 2.54   5 2.58   6 2.94  24 3.01

  52  0.556  0.428  0.890-  62 1.49 132 1.52  93 1.94 119 1.98  28 2.72  25 2.99
  53  0.256  0.021  0.712- 129 1.62  67 1.65  91 1.72 133 1.91  40 2.76  22 2.97  32 2.98
  54  0.967  0.060  0.378-  58 1.37  98 1.59 124 1.74  56 1.77  20 2.58  41 3.01  32 3.06
  55  0.764  0.854  0.862-  33 1.80  24 2.11  16 2.19
  56  0.052  0.050  0.490-  32 1.54  54 1.77  22 2.24
  57  0.979  0.293  0.699-  43 1.71
  58  0.897  0.136  0.412-  54 1.37  20 2.42  10 2.48
  59  0.546  0.189  0.363-  37 1.72  42 1.99   3 2.23
  60  0.337  0.827  0.930-  51 1.68
  61  0.883  0.268  0.202-  29 1.57  20 2.32
  62  0.552  0.542  0.855-  52 1.49  17 2.48  25 2.49
  63  0.154  0.247  0.579-  43 1.60  48 1.75  22 2.25
  64  0.865  0.583  0.739-  44 1.61  17 2.41  15 2.45   1 2.47
  65  0.094  0.266  0.064-  38 1.67  35 1.77   9 2.43
  66  0.486  0.396  0.418-  46 1.64   3 2.15  42 2.20
  67  0.350  0.089  0.649-  53 1.65  40 1.72  22 2.53   8 2.54
  68  0.388  0.523  0.507-  46 1.38  21 2.05
  69  0.317  0.296  0.530-  48 1.44   3 2.13
  70  0.611  0.339  0.234-  42 1.66   7 2.06  13 2.48
  71  0.711  0.474  0.704-  28 1.77   1 1.97  17 2.17  14 2.32
  72  0.087  0.744  0.028-  50 1.57  26 2.19  27 2.45
  73  0.602  0.554  0.521-  46 1.60   1 2.44
  74  0.437  0.231  0.083-  49 1.69   5 2.25
  75  0.962  0.475  0.454-  34 1.76  10 2.13
  76  0.407  0.720  0.759-  47 1.63  25 2.49
  77  0.992  0.730  0.790-  44 1.79  15 2.42
  78  0.584  0.779  0.172-  45 1.67
  79  0.690  0.248  0.699-  28 1.72  19 1.88
  80  0.157  0.298  0.391-  48 1.59  10 2.15
  81  0.945  0.464  0.237-  29 1.58
  82  0.497  0.336  0.667-  28 1.63   3 2.17
  83  0.013  0.398  0.899-  38 1.63  15 2.01
  84  0.449  0.022  0.869-  51 1.60   8 2.12   5 2.54
  85  0.872  0.568  0.988-  36 1.62
  86  0.958  0.964  0.725-  33 1.73  32 2.14  11 2.37
  87  0.552  0.853  0.848-  51 1.79  47 2.20  24 2.48
  88  0.529  0.011  0.221-  37 1.68  23 2.19  45 2.23   5 2.55
  89  0.138  0.614  0.553-  34 1.62  21 2.40  30 2.54
  90  0.237  0.556  0.707-  30 1.50  25 2.30
  91  0.192  0.962  0.606-  32 1.70  53 1.72  22 2.31
  92  0.752  0.469  0.147-  29 1.80  36 2.00
  93  0.421  0.357  0.859-  52 1.94  49 1.97   8 2.53  25 2.55
  94  0.322  0.375  0.046-  49 1.58   9 1.93   7 2.56
  95  0.696  0.691  0.044-  36 1.56  16 2.51
  96  0.382  0.997  0.460-  40 1.81  23 1.97  22 2.45
  97  0.205  0.586  0.113-  50 1.57  31 1.88  26 2.56
  98  0.880  0.968  0.363-  54 1.59  20 2.37
  99  0.269  0.198  0.958-  49 1.54  35 1.97
 100  0.152  0.702  0.297-  31 1.70  18 2.05  26 2.40
 101  0.347  0.743  0.310-  31 1.78  39 2.16  21 2.21  23 2.45
 102  0.857  0.811  0.655-  44 1.58  33 1.83
 103  0.759  0.104  0.936-  11 2.14  24 2.16
 104  0.689  0.347  0.476-  42 1.60  19 2.41
 105  0.529  0.604  0.370-  39 1.73  46 1.74
 106  0.564  0.767  0.593-  47 1.60
 107  0.093  0.852  0.528-  32 1.76  18 2.35
 108  0.141  0.934  0.292-  41 1.56
 109  0.840  0.739  0.369-  12 2.16   4 2.20  18 2.35
 110  0.853  0.652  0.174-  36 1.65  26 2.10  12 2.48
 111  0.953  0.673  0.561-  44 1.78  34 2.02  18 2.41
[...]
 121  0.041  0.991  0.085-  41 1.76  35 2.37
 122  0.912  0.382  0.050-  38 1.56  29 1.65
 123  0.403  0.892  0.651-  40 1.64  47 1.72
 124  0.044  0.111  0.275-  54 1.74  41 1.83
 125  0.182  0.344  0.731-  30 1.60  43 1.74
 126  0.188  0.671  0.887-  50 1.86
 127  0.750  0.941  0.095-  45 1.59  24 1.90  16 2.34
 128  0.781  0.034  0.691-  33 1.76  11 2.47  19 2.50
 129  0.277  0.952  0.819-  53 1.62  27 2.22  51 2.54
 130  0.155  0.437  0.527-  48 1.50  34 1.96  30 2.02
 131  0.316  0.547  0.249-  31 1.76  39 1.99
 132  0.626  0.360  0.818-  52 1.52  28 1.58  14 2.34
 133  0.176  0.142  0.759-  43 1.69  53 1.91
 134  0.080  0.110  0.931-  35 1.73
 135  0.685  0.007  0.382-  37 1.73

IMPORTANT INFORMATION: All symmetrisations will be switched off!
NOSYMM: (Re-)initialisation of all symmetry stuff for point group C_1.

Automatic generation of k-mesh.
 generate k-points for:    2    2    2
Space group operators:
 irot       det(A)        alpha          n_x          n_y          n_z        tau_x        tau_y        tau_z
    1     1.000000     0.000001     1.000000     0.000000     0.000000     0.000000     0.000000     0.000000

 Subroutine IBZKPT returns following result:

 Found      8 irreducible k-points:

 Following reciprocal coordinates:
            Coordinates               Weight
  0.000000  0.000000  0.000000      1.000000
  0.500000  0.000000  0.000000      1.000000
  0.000000  0.500000  0.000000      1.000000
  0.500000  0.500000  0.000000      1.000000
  0.000000  0.000000  0.500000      1.000000
  0.500000  0.000000  0.500000      1.000000
  0.000000  0.500000  0.500000      1.000000
  0.500000  0.500000  0.500000      1.000000

 Following cartesian coordinates:
            Coordinates               Weight
  0.000000  0.000000  0.000000      1.000000
  0.039917  0.000000  0.000000      1.000000
  0.000000  0.039917  0.000000      1.000000
[...]
     0.000000000  0.000000000 12.526070000     0.000000000  0.000000000  0.079833499

  length of vectors
    12.526070000 12.526070000 12.526070000     0.079833499  0.079833499  0.079833499

 FORCES acting on ions
    electron-ion (+dipol)            ewald-force                    non-local-force                 convergence-correction
   -.115E+02 -.275E+01 0.224E+03   0.105E+02 0.115E+01 -.222E+03   0.246E+01 0.143E+01 -.482E+01   -.402E-03 -.115E-02 0.125E-02
   -.190E+02 -.517E+02 0.744E+02   0.168E+02 0.484E+02 -.732E+02   0.121E+01 0.221E+01 -.699E+00   0.142E-02 0.257E-02 -.267E-02
   -.912E+01 0.187E+03 0.578E+02   0.319E+01 -.181E+03 -.579E+02   0.440E+01 -.645E+01 0.561E+00   -.353E-04 -.381E-02 -.137E-02
   0.156E+03 -.938E+02 0.130E+02   -.150E+03 0.939E+02 -.175E+02   -.463E+01 0.106E+01 0.360E+01   -.213E-02 0.291E-02 0.229E-02
   0.175E+03 -.116E+02 -.157E+03   -.172E+03 0.159E+02 0.159E+03   -.440E+01 -.111E+01 -.498E-01   0.687E-03 -.120E-02 0.991E-03
   -.182E+02 -.258E+02 0.823E+02   0.222E+02 0.302E+02 -.803E+02   -.252E+01 -.672E+00 -.537E+01   0.659E-04 0.350E-02 -.183E-02
   0.110E+03 -.604E+02 -.152E+03   -.105E+03 0.574E+02 0.146E+03   -.631E+01 0.285E+01 0.469E+01   0.108E-02 -.304E-02 0.280E-02
   -.936E+02 0.965E+01 -.363E+01   0.932E+02 -.119E+02 0.242E+01   0.997E+00 0.272E+01 -.102E+00   0.138E-02 -.357E-02 -.290E-02
   -.495E+01 0.122E+03 -.288E+03   -.303E+01 -.118E+03 0.284E+03   0.383E+01 -.334E+01 0.720E+01   0.633E-02 -.669E-02 0.403E-02
   0.177E+03 0.103E+03 0.635E+02   -.174E+03 -.102E+03 -.673E+02   -.340E+01 -.216E+01 0.223E+01   0.377E-03 -.424E-02 0.523E-02
   -.712E+02 -.744E+02 -.565E+02   0.690E+02 0.741E+02 0.585E+02   0.329E+01 0.196E+01 -.142E+01   -.148E-02 -.250E-02 -.271E-02
   0.193E+03 0.593E+01 -.494E+01   -.187E+03 0.947E+00 -.347E+01   -.522E+01 -.621E+01 0.535E+01   -.285E-02 0.198E-02 0.467E-02
   -.180E+03 0.662E+02 0.162E+03   0.180E+03 -.662E+02 -.159E+03   0.222E+01 0.607E+00 -.522E+01   -.371E-03 -.390E-02 0.548E-03
   -.872E+02 0.173E+03 -.140E+03   0.897E+02 -.171E+03 0.140E+03   -.106E+00 -.135E+01 0.136E+01   0.110E-03 -.238E-02 -.411E-02
   -.666E+02 -.755E+02 -.118E+03   0.636E+02 0.785E+02 0.121E+03   0.245E+01 0.891E+00 -.166E+01   -.764E-03 0.134E-02 -.505E-02
   -.214E+03 -.763E+02 -.784E+02   0.212E+03 0.727E+02 0.775E+02   0.413E+01 0.173E+01 0.152E+01   -.820E-03 0.401E-02 -.199E-02
   0.116E+03 -.261E+03 -.203E+02   -.118E+03 0.257E+03 0.221E+02   -.330E+00 0.459E+01 -.402E+00   -.326E-03 0.236E-02 -.258E-02
   0.642E+02 -.159E+03 0.800E+02   -.654E+02 0.164E+03 -.744E+02   -.538E+00 -.238E+01 -.282E+01   0.670E-03 0.429E-02 0.313E-02
   -.160E+03 0.189E+03 0.148E+03   0.161E+03 -.194E+03 -.145E+03   0.163E+01 -.124E+00 -.625E+01   -.124E-02 -.213E-02 0.564E-03
   -.366E+02 0.764E+02 0.121E+03   0.392E+02 -.741E+02 -.120E+03   -.155E+01 -.198E+01 -.213E+01   -.104E-02 -.115E-02 0.151E-02
   -.484E+02 -.148E+03 -.679E+02   0.462E+02 0.144E+03 0.683E+02   -.402E+00 0.369E+01 0.278E+00   0.166E-02 0.363E-02 0.273E-02
   -.895E+02 0.604E+02 0.303E+03   0.884E+02 -.588E+02 -.302E+03   0.202E+01 -.581E+00 -.228E+01   0.170E-02 -.224E-02 -.652E-03
   0.105E+02 0.875E+02 -.112E+02   -.109E+02 -.874E+02 0.113E+02   -.106E+00 -.270E+01 -.202E+01   -.642E-03 0.265E-02 0.417E-02
   0.135E+02 -.111E+03 0.121E+03   -.117E+02 0.118E+03 -.131E+03   -.512E+01 -.300E+01 0.242E+01   0.320E-03 0.138E-02 -.200E-02
   0.129E+02 0.636E+02 -.271E+02   -.178E+02 -.616E+02 0.206E+02   0.302E+01 -.154E+01 0.499E+01   0.748E-03 0.210E-02 -.353E-02
   0.502E+02 -.140E+03 -.659E+02   -.522E+02 0.136E+03 0.636E+02   0.173E+01 0.165E+01 0.255E+01   0.830E-03 0.777E-02 0.282E-03
   0.183E+03 -.106E+03 -.734E+02   -.181E+03 0.106E+03 0.753E+02   -.309E+01 0.663E-01 -.857E+00   -.305E-04 0.243E-02 -.175E-02
   0.135E+02 -.332E+02 0.105E+03   -.178E+02 0.244E+02 -.985E+02   0.505E+01 0.683E+01 -.872E+01   0.339E-03 -.107E-02 -.118E-02
   0.843E+02 0.436E+02 -.433E+02   -.740E+02 -.442E+02 0.443E+02   -.113E+02 0.337E+01 -.309E+01   -.379E-02 -.386E-02 -.254E-03
   -.500E+02 0.174E+02 -.377E+02   0.567E+02 -.166E+02 0.430E+02   -.866E+01 -.570E+01 -.861E+01   -.467E-03 -.349E-03 -.827E-03
   -.118E+02 -.447E+02 -.127E+02   0.852E+01 0.486E+02 0.126E+02   0.138E+01 -.265E+01 -.457E+00   0.957E-03 0.207E-02 0.968E-03
   0.143E+03 0.309E+01 -.940E+02   -.136E+03 -.100E+02 0.789E+02   -.705E+01 -.174E+01 0.161E+02   0.341E-03 0.280E-03 -.577E-03
   0.461E+02 0.900E+01 -.391E-01   -.461E+02 -.219E+01 -.478E+01   -.903E+00 -.647E+01 0.117E+01   -.875E-03 0.743E-03 -.714E-03
   0.601E+02 -.258E+02 0.665E+02   -.560E+02 0.286E+02 -.656E+02   -.527E+01 -.279E+00 -.597E+01   -.419E-04 -.541E-03 0.105E-02
   0.172E+02 0.661E+02 -.288E+02   -.259E+02 -.638E+02 0.202E+02   0.484E+01 0.728E+00 0.330E+01   0.727E-04 -.131E-02 -.181E-04
   0.761E+02 0.293E+02 -.239E+01   -.690E+02 -.222E+02 0.278E+00   -.428E+01 -.120E+02 0.474E+01   -.112E-02 0.113E-02 -.852E-03
   -.157E+02 0.163E+02 -.692E+02   0.148E+02 -.204E+02 0.680E+02   0.203E+00 0.377E+01 -.815E-01   -.104E-02 0.234E-03 0.126E-02
   -.650E+02 0.389E+02 0.407E+02   0.565E+02 -.369E+02 -.380E+02   0.947E+01 -.216E+01 -.115E+01   -.635E-03 -.293E-02 -.386E-02
   -.598E+02 -.513E+02 -.376E+02   0.619E+02 0.483E+02 0.370E+02   -.284E+01 0.519E+01 0.661E+00   0.280E-04 0.861E-03 0.106E-02
   -.108E+03 0.300E+02 0.712E+02   0.111E+03 -.311E+02 -.711E+02   0.626E+00 0.213E+01 -.325E+01   0.878E-03 0.130E-03 -.121E-02
   -.149E+02 0.390E+02 0.405E+02   0.114E+02 -.470E+02 -.311E+02   -.706E+00 0.878E+01 -.848E+01   0.329E-03 -.272E-03 0.690E-03
   -.709E+02 0.868E+01 0.266E+02   0.701E+02 -.541E+01 -.289E+02   -.421E+01 -.311E+01 -.837E+00   -.306E-03 -.166E-02 0.881E-03
   0.101E+03 0.920E+02 -.820E+02   -.984E+02 -.867E+02 0.762E+02   -.263E+01 -.250E+01 0.727E+01   -.320E-03 -.715E-03 -.987E-03
   0.345E+02 -.666E+02 -.203E+00   -.286E+02 0.676E+02 0.239E+01   0.306E+01 -.598E+00 -.146E+01   -.245E-03 0.626E-03 -.155E-03
   -.152E+02 0.155E+02 -.137E+03   0.169E+02 -.258E+02 0.137E+03   -.738E+01 0.695E+01 0.468E+01   -.342E-03 0.124E-02 0.238E-03
   -.624E+02 -.463E+02 -.222E+01   0.533E+02 0.452E+02 0.805E+01   0.225E+02 -.209E+00 -.104E+02   0.200E-03 -.287E-03 0.440E-03
   -.870E+02 -.109E+02 0.352E+02   0.829E+02 0.352E+01 -.402E+02   0.251E+01 0.844E+01 0.727E+01   0.403E-03 0.879E-03 -.102E-02
   -.679E+02 -.447E+02 0.108E+03   0.687E+02 0.386E+02 -.107E+03   -.619E+01 0.291E+01 -.381E+01   0.460E-03 -.102E-02 0.379E-03
   -.341E+02 0.881E+01 0.882E+02   0.249E+02 -.840E+01 -.749E+02   0.118E+02 0.353E+01 -.112E+02   0.552E-03 -.135E-02 -.192E-03
   -.573E+02 -.191E+02 0.548E+02   0.488E+02 0.181E+02 -.508E+02   0.106E+02 0.363E+01 -.961E+01   0.682E-03 0.203E-02 -.529E-03
   0.154E+02 0.263E+02 0.124E+02   -.174E+02 -.262E+02 -.137E+02   0.140E+01 -.440E+01 -.295E+01   0.267E-03 0.588E-03 -.798E-03
   0.296E+02 0.167E+02 -.935E+02   -.247E+02 -.106E+02 0.872E+02   -.868E+01 -.107E+02 0.150E+02   -.903E-04 -.574E-03 -.917E-03
   0.439E+02 -.331E+01 -.326E+02   -.437E+02 -.311E+00 0.388E+02   -.310E+01 0.555E+01 -.284E+01   0.108E-03 -.265E-03 -.689E-03
   -.895E+02 0.102E+03 0.272E+02   0.694E+02 -.959E+02 -.261E+02   0.305E+02 -.171E+02 -.528E+01   0.144E-03 -.114E-03 0.937E-03
   -.160E+02 0.429E+02 0.117E+03   0.357E+01 -.547E+02 -.110E+03   0.157E+02 0.127E+02 -.101E+02   0.874E-03 0.259E-02 -.237E-02
   0.963E+02 0.488E+01 0.204E+02   -.912E+02 0.118E+02 -.345E+02   -.583E+01 -.142E+02 0.125E+02   0.174E-03 -.137E-02 0.422E-02
   0.150E+03 0.126E+03 -.668E+01   -.168E+03 -.110E+03 0.536E+01   0.182E+02 -.194E+02 0.192E+01   -.775E-03 -.118E-02 -.141E-02
   0.127E+03 -.816E+02 -.117E+03   -.160E+03 0.110E+03 0.135E+03   0.222E+02 -.126E+02 -.113E+02   -.822E-03 -.357E-03 0.149E-02
   0.701E+02 0.815E+02 0.244E+02   -.893E+02 -.753E+02 -.199E+02   0.219E+02 -.616E+01 -.454E+01   -.423E-03 -.127E-02 0.980E-03
   0.598E+02 0.301E+02 -.629E+02   -.808E+02 -.454E+02 0.603E+02   0.241E+02 0.163E+02 0.412E+01   0.775E-03 0.138E-02 -.101E-02
[...]
   0.106E+03 0.124E+03 0.706E+02   -.127E+03 -.121E+03 -.884E+02   0.169E+02 -.349E+01 0.179E+02   -.336E-02 -.393E-02 -.357E-02
   -.510E+02 0.728E+02 0.100E+03   0.298E+02 -.808E+02 -.940E+02   0.219E+02 0.744E+01 -.630E+01   0.699E-03 0.641E-03 -.185E-02
   -.435E+02 -.340E+02 0.794E+02   0.470E+02 0.578E+02 -.871E+02   -.399E+01 -.255E+02 0.799E+01   0.353E-03 -.137E-02 0.108E-02
   -.116E+03 0.364E+02 -.178E+03   0.134E+03 -.505E+02 0.194E+03   -.184E+02 0.155E+02 -.146E+02   -.499E-03 -.101E-02 -.205E-02
   -.143E+02 0.803E+01 0.189E+02   0.942E+01 -.619E+01 -.345E+02   0.738E+01 -.347E+01 0.180E+02   0.548E-03 0.143E-02 -.158E-02
   -.197E+03 -.262E+02 -.180E+03   0.226E+03 0.415E+02 0.177E+03   -.271E+02 -.167E+02 0.759E+01   0.140E-04 0.141E-02 -.976E-04
   0.646E+02 0.140E+02 0.822E+02   -.747E+02 0.215E+01 -.924E+02   0.103E+02 -.191E+02 0.122E+02   -.121E-02 -.522E-03 -.115E-03
   0.368E+02 -.228E+02 -.398E+02   -.248E+02 0.855E+01 0.647E+02   -.145E+02 0.154E+02 -.284E+02   0.803E-03 0.464E-03 -.123E-02
   -.541E+02 -.532E+02 0.112E+03   0.419E+02 0.755E+02 -.116E+03   0.106E+02 -.177E+02 0.775E+01   0.303E-03 -.120E-02 0.114E-02
   -.132E+02 0.128E+03 -.626E+02   0.579E+01 -.151E+03 0.621E+02   0.117E+02 0.246E+02 0.233E+01   0.220E-02 0.673E-03 0.200E-02
   -.238E+02 0.105E+03 -.116E+03   0.420E+02 -.128E+03 0.122E+03   -.163E+02 0.210E+02 -.138E+01   0.387E-03 -.153E-02 -.180E-02
   0.496E+02 0.193E+02 -.996E+02   -.434E+02 -.220E+02 0.124E+03   -.635E+01 0.617E+00 -.273E+02   -.165E-03 -.137E-02 -.215E-02
   0.968E+02 0.300E+02 0.125E+02   -.106E+03 -.304E+02 -.309E+02   0.107E+02 -.424E+00 0.204E+02   -.378E-03 -.155E-02 -.767E-03
   0.130E+02 0.105E+03 -.941E+02   0.159E+01 -.117E+03 0.111E+03   -.170E+02 0.152E+02 -.195E+02   -.153E-02 0.891E-03 0.122E-02
   -.562E+02 0.444E+02 0.135E+02   0.153E-12 -.824E-12 0.227E-12   0.562E+02 -.443E+02 -.134E+02   0.242E-03 -.525E-02 -.124E-01

 POSITION                                       TOTAL-FORCE (eV/Angst)
      9.84965      6.43796      7.16015         1.413920     -0.174055     -2.824802
      2.77900      9.52101      8.51149        -0.964187     -1.016314      0.542512
      6.02083      3.18482      6.45316        -1.528893     -0.543158      0.530707
      9.13115     10.31264      5.96211         1.201562      1.190283     -0.935579
      5.10572      0.68385      0.80194        -1.500947      3.125957      1.807683
      6.17904      8.60930     12.41326         1.427044      3.702215     -3.353407
      6.01604      5.19579      2.10852        -0.867899     -0.152273     -1.029504
      5.85147      2.15583      9.92211         0.564605      0.454740     -1.317790
      2.92345      4.39807      2.12325        -4.143261      0.276547      3.333824
     12.38646      3.88922      5.31455        -0.179740     -1.135139     -1.487681
     11.22654      1.33171     10.44073         1.076692      1.621885      0.537733
      9.98621      7.19239      4.35525         1.096102      0.669708     -3.055969
      8.20351      3.14917      0.77079         1.650185      0.549185     -1.332750
     10.16704      4.75897     10.36981         2.320765      0.088038      0.785781
      0.33179      6.86555     10.57394        -0.543084      3.887876      0.852772
     10.66630     10.16257      0.08809         1.651733     -1.867317      0.555681
      8.53130      8.02289      9.28517        -1.598531      0.600517      1.361960
      0.32728      9.23640      4.95192        -1.732775      2.283723      2.827110
      9.16378      2.30243      7.12938         2.059992     -4.592969     -3.245360
     10.26836      1.22348      2.98993         1.079278      0.273490     -1.129904
      3.64638      7.96348      5.50278        -2.536583     -0.206972      0.778657
      2.78457      1.31394      6.17812         0.958934      0.973222     -1.946552
      5.30187     11.54663      4.10694        -0.474017     -2.547292     -1.927093
      8.46559     11.96848     12.06846        -3.392280      4.046421     -7.908546
      4.43887      6.88171     10.61528        -1.825123      0.477961     -1.557559
      0.25871      8.24353      2.06304        -0.346179     -2.593057      0.304495
      1.69882     11.12419     11.34134        -0.370915     -0.208352      1.076127
      7.77562      4.58206      8.66654         0.790873     -1.910388     -1.778080
     10.86303      4.86572      2.17261        -0.955012      2.718805     -2.163319
      2.05638      5.79815      8.59209        -1.949705     -4.877348     -3.317634
      3.27318      8.43685      2.76435        -1.931737      1.257370     -0.560217
      0.73890     12.21923      7.35793        -0.420549     -8.685348      0.995710
     10.40023     11.48706      9.41203        -0.891812      0.344031     -3.659193
      0.45297      6.69497      6.98643        -1.181677      2.475583     -5.084338
      1.90672      1.73400      0.56282        -3.885012      3.035705     -5.256681
      9.80106      7.60338      0.91635         2.812854     -4.858141      2.625345
      7.63688      1.08348      3.72517        -0.756691     -0.355579     -1.284193
      0.43913      4.75469      0.32909         1.060737     -0.231256      1.510736
      5.71293      7.78312      3.17631        -0.785015      2.143278      0.049913
      5.51228      0.03205      7.41393         3.302865      0.975770     -3.128612
      1.51723      0.17104      2.49261        -4.178660      0.723331      0.883292
      7.95195      4.01297      4.54708        -4.968259      0.164944     -3.147493
      1.28738      2.95986      8.71812         0.160510      2.805623      1.428850
     11.24225      8.72128      8.63295         8.945618      0.379520      0.719362
      8.05378     11.22455      1.82246        -5.636801     -3.318105      4.787344
      6.16289      6.45979      5.89166        13.437016     -1.327106     -4.552741
      6.14581      9.95176      8.68616        -1.666343      1.102977      2.220553
      2.71679      4.26029      6.20423        -5.370276     -3.184145     -2.828420
      4.53361      3.44865     12.27575         2.564655      3.938878      1.996013
      2.45938      8.55360      0.43912         2.034083      2.675291     -5.579052
      5.55982     11.36437     11.58042        -0.672779     -4.281151     -4.185626
      6.95984      5.35901     11.14466        -3.737135     -4.522189      8.752234
      3.21070      0.26542      8.91917        -2.958071      1.934057      3.334099
     12.11189      0.74584      4.73204        10.409608    -10.643032     -4.163042
      9.57199     10.69216     10.79668         3.291324      0.911351     -3.627113
      0.65550      0.62754      6.13748        -0.683726      2.457600     -1.639689
     12.25935      3.66659      8.75318         0.522161     -3.947921      0.598927
     11.23312      1.70309      5.16096       -10.307329     15.601789      5.890483
      6.83614      2.36574      4.54090         2.635607      0.075262     -0.049468
      4.22013     10.35451     11.64653         3.000124      0.918637      1.526115
[...]
      0.51771     12.40944      1.07056         3.215251      0.500780      2.779746
     11.42976      4.78338      0.62111        -3.800835     -1.205755      0.093082
      5.05396     11.16777      8.15231         0.763557     -0.573605     -0.129877
      0.54949      1.39542      3.44217        -0.496708     -1.752336      0.357635
      2.28045      4.31523      9.15580         0.441215      1.418001      1.740941
      2.35563      8.40367     11.11067         2.519302     -1.618839      2.448776
      9.39670     11.78967      1.19064         1.879716     -1.310398      4.716351
      9.78015      0.42253      8.66117         0.293303     -2.966482      1.993406
      3.46656     11.92494     10.25971        -2.518966      1.224997     -3.499584
      1.94104      5.47704      6.60310        -1.667142      4.592715      3.505977
      3.95509      6.85224      3.11460         4.231485      1.428082      1.818338
      7.84378      4.51497     10.24561         1.831236     -2.241250      4.053651
      2.20833      1.77823      9.50934        -0.212017     -2.102940     -2.566441
      0.99603      1.37316     11.65717         1.389016     -0.839264      1.954681
      8.58082      0.08886      4.78101        -2.470724      2.343734     -2.821482
    total drift:                                0.010647      0.006624     -0.005577

  FREE ENERGIE OF THE ION-ELECTRON SYSTEM (eV)
  free  energy   TOTEN  =      -891.53336858 eV

  energy  without entropy=     -891.51261176  energy(sigma->0) =     -891.52299017