 vasp.5.4.4.18Apr17-6-g9f103f2a35 (build Oct 31 2019 15:01:46) complex

 executed on             LinuxIFC date 2024.04.28  21:35:26

 INCAR:
 POTCAR:    PAW_PBE Ca_sv 06Sep2000
 POTCAR:    PAW_PBE Si 05Jan2001
 POTCAR:    PAW_PBE O 08Apr2002
 POTCAR:    PAW_PBE Ca_sv 06Sep2000
   VRHFIN =Ca: 3s3p4s

   TITEL  = PAW_PBE Ca_sv 06Sep2000
   POMASS =   40.078; ZVAL   =   10.000    mass and valenz
   ENMAX  =  266.622; ENMIN  =  199.967 eV

   TITEL  = PAW_PBE Si 05Jan2001
   POMASS =   28.085; ZVAL   =    4.000    mass and valenz
   ENMAX  =  245.345; ENMIN  =  184.009 eV

   TITEL  = PAW_PBE O 08Apr2002
   POMASS =   16.000; ZVAL   =    6.000    mass and valenz
   ENMAX  =  400.000; ENMIN  =  300.000 eV

 Optimization of the real space projectors (new method)

 maximal supplied QI-value         = 16.25
 optimisation between [QCUT,QGAM] = [ 12.51, 25.03] = [ 43.85,175.40] Ry
 Optimized for a Real-space Cutoff    1.47 Angstroem

   l    n(q)    QCUT    max X(q) W(low)/X(q) W(high)/X(q)  e(spline)
   0     11    12.514    11.817    0.25E-04    0.32E-05    0.87E-07
   0     11    12.514     8.461    0.39E-04    0.59E-05    0.18E-06
   1     11    12.514     3.957    0.97E-05    0.57E-05    0.28E-07
   1     11    12.514     4.314    0.42E-04    0.14E-04    0.23E-06
   2     10    12.514    14.565    0.79E-04    0.50E-03    0.16E-05
   2     10    12.514    14.552    0.75E-04    0.48E-03    0.15E-05
 Optimization of the real space projectors (new method)

[...]

   l    n(q)    QCUT    max X(q) W(low)/X(q) W(high)/X(q)  e(spline)
   0      9    12.501   159.560    0.10E-03    0.83E-04    0.71E-07
   0      9    12.501   115.863    0.99E-04    0.81E-04    0.70E-07
   1      8    12.501    88.339    0.20E-03    0.25E-03    0.76E-07
   1      8    12.501    48.592    0.20E-03    0.24E-03    0.75E-07
 Optimization of the real space projectors (new method)

 maximal supplied QI-value         = 24.76
 optimisation between [QCUT,QGAM] = [ 12.38, 25.00] = [ 42.90,175.06] Ry
 Optimized for a Real-space Cutoff    1.16 Angstroem

   l    n(q)    QCUT    max X(q) W(low)/X(q) W(high)/X(q)  e(spline)
   0      9    12.378    20.381    0.16E-03    0.67E-05    0.31E-06
   0      9    12.378    15.268    0.17E-03    0.81E-05    0.33E-06
   1      8    12.378     5.964    0.20E-03    0.16E-03    0.30E-06
   1      8    12.378     5.382    0.18E-03    0.14E-03    0.26E-06
  PAW_PBE Ca_sv 06Sep2000               :
  PAW_PBE Si 05Jan2001                  :
  PAW_PBE O 08Apr2002                   :

 POSCAR: Ca Si  O
  positions in direct lattice
 exchange correlation table for  LEXCH =        8
   RHO(1)=    0.500       N(1)  =     2000
   RHO(2)=  100.500       N(2)  =     4000

 ion  position               nearest neighbor table
   1  0.522  0.570  0.920- 121 2.04  54 3.08
   2  0.941  0.640  0.077-  93 2.25
   3  0.244  0.854  0.997- 112 2.04  99 2.50  32 2.84
   4  0.496  0.612  0.419-  95 1.99  73 2.00 109 2.39  35 3.00
   5  0.232  0.440  0.098- 135 2.30  67 2.40
   6  0.331  0.094  0.162-  74 2.09  75 2.29  58 2.31  33 2.87
   7  0.996  0.709  0.378-  89 2.26 124 2.52  43 2.91  37 3.16
   8  0.981  0.525  0.818-  87 1.70 101 1.99 133 2.43  50 3.01
   9  0.284  0.081  0.497-  56 2.10 117 2.42 116 2.48  31 3.02
  10  0.455  0.281  0.701-  94 2.05  82 2.55  20 2.83
  11  0.067  0.187  0.697-  78 2.04  61 2.08 102 2.21
  12  0.539  0.917  0.132-  98 2.01 113 2.36  58 2.42  46 2.95  54 2.96
  13  0.277  0.588  0.578-  80 2.00 125 2.37  95 2.44 111 2.46
  14  0.149  0.011  0.815-  78 1.90 108 2.45
  15  0.729  0.183  0.114- 134 2.17 129 2.23 100 2.48  97 2.51  79 2.55  41 2.89  28 3.08
  16  0.843  0.743  0.688-  60 2.33 107 2.40
  17  0.930  0.983  0.013-  63 2.14  59 2.30 132 2.55  42 3.01  34 3.14
  18  0.917  0.032  0.496- 126 2.03  96 2.57  47 2.98
  19  0.766  0.204  0.709-  69 2.15  96 2.31  71 2.42 102 2.45  47 2.99  27 3.12
  20  0.489  0.202  0.518-  82 2.09 116 2.26  90 2.29  10 2.83  39 3.06  35 3.07
  21  0.256  0.656  0.223- 122 1.85  99 2.41  49 2.72  37 2.86
  22  0.671  0.593  0.115-
  23  0.697  0.372  0.479- 104 2.23  66 2.24  92 2.39  71 2.41  52 2.92
  24  0.002  0.289  0.189-  70 1.94  76 2.51  44 2.98
  25  0.478  0.335  0.117-  75 1.99  79 2.14  67 2.30  45 2.60  26 2.89
  26  0.340  0.310  0.269-  65 2.15  75 2.50  25 2.89
  27  0.592  0.068  0.744-  82 2.20  69 2.31  83 2.54  19 3.12
  28  0.859  0.121  0.280- 126 1.55 129 1.62  97 1.68  15 3.08
  29  0.041  0.518  0.548- 119 1.42 125 1.53 128 1.75  91 1.82  50 2.70  51 2.74  38 3.04
  30  0.291  0.880  0.374-  62 1.60  64 1.69 117 1.70  81 1.72  33 2.26
  31  0.437  0.948  0.570-  55 1.54 106 1.74 116 1.83 117 2.16   9 3.02
  32  0.063  0.782  0.941- 112 1.62  93 1.68  77 1.74  59 1.80   3 2.84
  33  0.272  0.905  0.216- 120 1.59  81 1.69  64 1.80  58 1.86  30 2.26  74 2.31   6 2.87  37 3.07

  34  0.744  0.874  0.951- 132 1.62 131 1.73  42 2.55  54 2.71  17 3.14
  35  0.441  0.411  0.472-  92 1.54  65 1.55  95 1.62  94 1.94   4 3.00  20 3.07
  36  0.724  0.539  0.810- 121 1.59 101 1.82  72 2.16
  37  0.096  0.778  0.189- 120 1.57  89 1.68 124 1.85  77 1.96  21 2.86  33 3.07   7 3.16
  38  0.089  0.724  0.600-  80 1.56  86 1.64  91 1.77  60 2.33  29 3.04
  39  0.564  0.126  0.328- 114 1.57  90 1.59 100 1.79  20 3.06
  40  0.261  0.306  0.589- 130 1.62  56 1.79 111 1.81  94 1.98  61 2.20  50 2.98
  41  0.593  0.194  0.959-  79 1.52  83 1.64 134 1.66 110 2.30  15 2.89  42 3.11
  42  0.755  0.051  0.908-  69 1.63  63 1.84 131 1.99  34 2.55  17 3.01  41 3.11
  43  0.791  0.696  0.407- 103 1.54 118 1.79   7 2.91
  44  0.987  0.393  0.004- 135 1.52 123 1.64  84 1.77  87 1.85  24 2.98
  45  0.356  0.263  0.996-  57 1.58  75 1.59  67 1.78  25 2.60
  46  0.626  0.819  0.296-  98 1.61 105 1.70 118 1.96 109 2.18  12 2.95
  47  0.875  0.021  0.704-  85 1.46 102 1.69  96 1.78  69 2.34  18 2.98  19 2.99
  48  0.088  0.173  0.011- 108 1.49  70 1.60  84 1.90
  49  0.429  0.685  0.140-  99 1.66 113 1.70  88 1.70 109 2.39  21 2.72
  50  0.135  0.439  0.696- 125 1.60 133 1.72  61 1.73 111 1.74  29 2.70  40 2.98   8 3.01
  51  0.010  0.469  0.362-  68 1.53  76 1.61 119 1.70  29 2.74
  52  0.845  0.417  0.618- 104 1.55 128 1.73  71 1.78  72 2.19  23 2.92
  53  0.614  0.800  0.525- 107 1.79  55 1.80  73 1.87 118 1.93
  54  0.586  0.768  0.990- 127 1.53 115 1.64 113 1.93  34 2.71  12 2.96   1 3.08
  55  0.525  0.892  0.536-  31 1.54  53 1.80
  56  0.307  0.187  0.601-  40 1.79   9 2.10
  57  0.312  0.231  0.898-  45 1.58
  58  0.367  0.936  0.128-  33 1.86   6 2.31  12 2.42
  59  0.034  0.905  0.913-  32 1.80  17 2.30
  60  0.935  0.767  0.551-  16 2.33  38 2.33
  61  0.137  0.316  0.685-  50 1.73  11 2.08  40 2.20
  62  0.266  0.771  0.397-  30 1.60
  63  0.867  0.106  0.949-  42 1.84  17 2.14
  64  0.376  0.895  0.290-  30 1.69  33 1.80
  65  0.440  0.358  0.375-  35 1.55  26 2.15
  66  0.652  0.400  0.328-  23 2.24
  67  0.368  0.389  0.008-  45 1.78  25 2.30   5 2.40
  68  0.920  0.518  0.327-  51 1.53
  69  0.749  0.079  0.796-  42 1.63  19 2.15  27 2.31  47 2.34
  70  0.050  0.180  0.118-  48 1.60  24 1.94
  71  0.819  0.300  0.576-  52 1.78  23 2.41  19 2.42
  72  0.762  0.403  0.749-  36 2.16  52 2.19
  73  0.525  0.700  0.528-  53 1.87   4 2.00
  74  0.211  0.019  0.114-   6 2.09  33 2.31
  75  0.372  0.242  0.107-  45 1.59  25 1.99   6 2.29  26 2.50
  76  0.071  0.377  0.329-  51 1.61  24 2.51
  77  0.073  0.821  0.058-  32 1.74  37 1.96
  78  0.172  0.087  0.705-  14 1.90  11 2.04
  79  0.560  0.220  0.059-  41 1.52  25 2.14  15 2.55
  80  0.192  0.703  0.565-  38 1.56  13 2.00
  81  0.211  0.948  0.310-  33 1.69  30 1.72
  82  0.585  0.176  0.629-  20 2.09  27 2.20  10 2.55
  83  0.548  0.207  0.852-  41 1.64  27 2.54
  84  0.014  0.276  0.963-  44 1.77  48 1.90
  85  0.942  0.940  0.711-  47 1.46
  86  0.093  0.768  0.708-  38 1.64
  87  0.966  0.505  0.937-   8 1.70  44 1.85
  88  0.473  0.573  0.123-  49 1.70
  89  0.057  0.829  0.290-  37 1.68   7 2.26
  90  0.591  0.105  0.436-  39 1.59  20 2.29
  91  0.999  0.639  0.573-  38 1.77  29 1.82
  92  0.539  0.423  0.520-  35 1.54  23 2.39
  93  0.974  0.703  0.933-  32 1.68   2 2.25
[...]
 121  0.655  0.514  0.895-  36 1.59   1 2.04
 122  0.293  0.534  0.257-  21 1.85
 123  0.873  0.396  0.030-  44 1.64
 124  0.071  0.654  0.224-  37 1.85   7 2.52
 125  0.127  0.520  0.617-  29 1.53  50 1.60  13 2.37
 126  0.925  0.081  0.360-  28 1.55  18 2.03
 127  0.640  0.715  0.911-  54 1.53
 128  0.958  0.467  0.626-  52 1.73  29 1.75
 129  0.771  0.195  0.267-  28 1.62  15 2.23
 130  0.206  0.308  0.487-  40 1.62
 131  0.794  0.927  0.851-  34 1.73  42 1.99
 132  0.824  0.836  0.026-  34 1.62  17 2.55
 133  0.151  0.525  0.783-  50 1.72   8 2.43
 134  0.709  0.219  0.964-  41 1.66  15 2.17
 135  0.072  0.415  0.067-  44 1.52   5 2.30

IMPORTANT INFORMATION: All symmetrisations will be switched off!
NOSYMM: (Re-)initialisation of all symmetry stuff for point group C_1.

Automatic generation of k-mesh.
 generate k-points for:    2    2    2
Space group operators:
 irot       det(A)        alpha          n_x          n_y          n_z        tau_x        tau_y        tau_z
    1     1.000000     0.000000     1.000000     0.000000     0.000000     0.000000     0.000000     0.000000

 Subroutine IBZKPT returns following result:

 Found      8 irreducible k-points:

 Following reciprocal coordinates:
            Coordinates               Weight
  0.000000  0.000000  0.000000      1.000000
  0.500000  0.000000  0.000000      1.000000
  0.000000  0.500000  0.000000      1.000000
  0.500000  0.500000  0.000000      1.000000
  0.000000  0.000000  0.500000      1.000000
  0.500000  0.000000  0.500000      1.000000
  0.000000  0.500000  0.500000      1.000000
  0.500000  0.500000  0.500000      1.000000

 Following cartesian coordinates:
            Coordinates               Weight
  0.000000  0.000000  0.000000      1.000000
  0.035682  0.000000  0.000000      1.000000
  0.000000  0.035682  0.000000      1.000000
  0.035682  0.035682  0.000000      1.000000
  0.000000  0.000000  0.035682      1.000000
  0.035682  0.000000  0.035682      1.000000
  0.000000  0.035682  0.035682      1.000000
  0.035682  0.035682  0.035682      1.000000

 SYSTEM =  unknown system
 POSCAR =  Ca Si  O

 Startparameter for this run:
   NWRITE =      2    write-flag & timer
   PREC   = a         normal or accurate (medium, high low for compatibility)
   ISTART =      0    job   : 0-new  1-cont  2-samecut
   ICHARG =      2    charge: 1-file 2-atom 10-const
   ISPIN  =      1    spin polarized calculation?
   LNONCOLLINEAR =      F non collinear calculations
   LSORBIT =      F    spin-orbit coupling
   INIWAV =      1    electr: 0-lowe 1-rand  2-diag
   LASPH  =      F    aspherical Exc in radial PAW
   METAGGA=      F    non-selfconsistent MetaGGA calc.

 Electronic Relaxation 1
   ENCUT  =  600.0 eV  44.10 Ry    6.64 a.u.  27.99 27.99 27.99*2*pi/ulx,y,z
   ENINI  =  600.0     initial cutoff
   ENAUG  =  605.4 eV  augmentation charge cutoff
   NELM   =     60;   NELMIN=  2; NELMDL= -5     # of ELM steps
   EDIFF  = 0.1E-05   stopping-criterion for ELM
   LREAL  =      T    real-space projection
[...]
     0.000000000  0.000000000 14.012776000     0.000000000  0.000000000  0.071363447

  length of vectors
    14.012776000 14.012776000 14.012776000     0.071363447  0.071363447  0.071363447

 FORCES acting on ions
    electron-ion (+dipol)            ewald-force                    non-local-force                 convergence-correction
   0.247E+03 0.607E+02 0.272E+03   -.242E+03 -.578E+02 -.271E+03   -.663E+01 -.140E+01 -.614E+00   -.211E-03 -.169E-02 0.248E-02
   0.198E+03 0.998E+02 -.152E+03   -.193E+03 -.980E+02 0.145E+03   -.425E+01 -.170E+01 0.543E+01   -.162E-02 -.252E-02 0.238E-02
   -.242E+03 -.396E+02 0.330E+03   0.240E+03 0.361E+02 -.328E+03   0.307E+01 0.415E+01 0.192E+00   0.329E-03 -.190E-02 0.551E-03
   -.137E+03 0.183E+02 0.216E+02   0.137E+03 -.151E+02 -.187E+02   0.166E+01 -.224E+01 -.541E+01   0.535E-02 -.884E-02 -.422E-02
   0.384E+02 -.726E+02 0.124E+03   -.399E+02 0.744E+02 -.125E+03   0.896E+00 -.577E+00 0.343E+00   0.144E-02 -.568E-03 0.194E-02
   0.302E+02 -.162E+03 -.110E+02   -.325E+02 0.154E+03 0.679E+01   0.291E+01 0.602E+01 0.419E+01   0.239E-02 0.478E-02 0.278E-02
   0.120E+03 -.109E+03 -.439E+02   -.120E+03 0.112E+03 0.397E+02   0.221E+00 -.323E+01 0.357E+01   0.297E-03 -.273E-02 -.461E-02
   -.869E+02 0.267E+02 0.131E+03   0.887E+02 -.223E+02 -.135E+03   0.179E+01 -.214E+01 -.556E+01   0.196E-03 -.227E-02 0.590E-03
   0.390E+03 0.121E+03 0.884E+02   -.385E+03 -.120E+03 -.820E+02   -.536E+01 -.132E+01 -.554E+01   0.635E-03 0.225E-02 -.256E-02
   -.192E+02 -.222E+03 -.417E+03   0.207E+02 0.219E+03 0.414E+03   -.451E+00 0.117E+01 0.472E+01   0.202E-02 0.231E-02 -.285E-02
   0.753E+02 -.382E+02 0.395E+02   -.722E+02 0.368E+02 -.402E+02   -.392E+01 0.161E+01 0.658E+00   -.329E-02 0.169E-02 -.107E-02
   -.908E+02 -.176E+03 0.180E+03   0.900E+02 0.175E+03 -.179E+03   -.130E+01 0.325E+01 -.211E+01   0.199E-02 -.491E-03 0.251E-02
   -.319E+03 -.174E+03 -.198E+03   0.318E+03 0.172E+03 0.196E+03   0.331E+01 -.802E-01 0.184E+01   0.293E-02 -.198E-02 -.170E-02
   -.211E+03 0.136E+03 0.625E+02   0.208E+03 -.135E+03 -.640E+02   0.200E+01 -.305E+01 0.368E+01   -.677E-03 0.139E-02 0.513E-03
   -.594E+02 -.145E+03 -.568E+02   0.605E+02 0.143E+03 0.591E+02   -.446E+00 0.138E+01 -.889E+00   -.127E-02 0.642E-02 0.720E-02
   0.212E+03 0.189E+02 -.130E+03   -.211E+03 -.163E+02 0.122E+03   -.101E+01 -.184E+01 0.595E+01   -.338E-02 -.796E-03 0.242E-02
   0.384E+02 0.575E+02 -.212E+03   -.367E+02 -.571E+02 0.208E+03   -.128E+00 -.132E+01 0.437E+01   -.118E-02 0.165E-02 0.234E-02
   -.113E+03 0.101E+03 0.106E+03   0.108E+03 -.982E+02 -.107E+03   0.345E+01 -.334E+01 0.261E+01   -.305E-02 0.493E-02 -.629E-03
   -.301E+01 -.277E+03 -.372E+02   0.482E+01 0.275E+03 0.319E+02   -.155E+01 0.350E+01 0.349E+01   0.521E-03 0.228E-03 -.403E-02
   -.652E+02 -.757E+02 0.123E+03   0.703E+02 0.684E+02 -.121E+03   -.466E+01 0.629E+01 -.306E+01   0.537E-02 0.629E-02 -.635E-02
   0.425E+02 0.103E+03 -.107E+02   -.437E+02 -.104E+03 0.133E+02   -.116E+01 0.448E+01 -.130E+01   0.171E-02 -.277E-02 0.564E-03
   -.202E+03 0.180E+03 -.402E+02   0.197E+03 -.179E+03 0.426E+02   0.404E+01 -.121E+01 -.103E+01   -.110E-02 -.708E-02 0.778E-02
   -.776E+02 -.143E+02 0.948E+02   0.775E+02 0.187E+02 -.965E+02   -.396E+00 -.425E+01 0.118E+01   -.779E-02 0.395E-02 -.276E-01
   0.116E+03 -.827E+02 -.261E+03   -.114E+03 0.824E+02 0.259E+03   -.335E+01 0.267E+01 0.327E+01   -.389E-02 0.151E-02 0.202E-02
   -.289E+03 -.309E+03 -.328E+02   0.293E+03 0.307E+03 0.280E+02   0.831E+00 0.519E+01 0.576E+01   0.624E-02 0.276E-02 0.884E-02
   0.245E+03 -.260E+02 -.284E+02   -.241E+03 0.288E+02 0.384E+02   -.412E+01 -.219E+01 -.629E+01   0.680E-02 0.268E-02 0.146E-02
   0.166E+03 0.351E+03 -.716E+02   -.166E+03 -.345E+03 0.700E+02   -.978E+00 -.580E+01 0.131E+01   0.278E-02 0.211E-02 -.321E-02
   -.295E+02 0.232E+02 -.892E+02   0.287E+02 -.207E+02 0.837E+02   -.142E+01 -.189E+01 -.494E-01   -.165E-02 0.231E-02 0.418E-03
   0.104E+03 0.783E+02 0.274E+02   -.940E+02 -.711E+02 -.271E+02   -.174E+02 -.395E+01 0.120E+02   -.263E-03 -.196E-02 -.108E-02
   0.883E+02 0.779E+01 -.174E+03   -.841E+02 -.153E+02 0.170E+03   -.159E+01 0.669E+01 0.524E+01   0.171E-03 -.224E-03 -.910E-04
   0.659E+02 0.928E+02 -.726E+02   -.608E+02 -.942E+02 0.818E+02   -.797E+01 0.469E+01 -.593E+01   0.761E-03 0.229E-03 -.136E-02
   0.150E+02 0.845E+02 0.782E+02   -.127E+02 -.825E+02 -.803E+02   -.481E+01 0.970E+00 0.802E+00   -.564E-04 -.825E-03 0.763E-03
   0.172E+02 -.488E+02 0.169E+02   -.165E+02 0.488E+02 -.124E+02   0.280E+01 0.416E+01 -.749E+01   -.140E-03 -.485E-03 0.771E-03
   0.142E+03 0.548E+02 0.232E+02   -.135E+03 -.550E+02 -.173E+02   -.580E+01 -.345E+00 -.530E+01   0.556E-04 -.386E-03 0.585E-03
   0.446E+02 -.224E+02 0.926E+01   -.329E+02 0.290E+02 -.941E+01   -.136E+02 -.470E+01 0.426E+01   0.392E-02 -.433E-03 -.333E-02
   0.862E+02 -.495E+02 0.107E+03   -.860E+02 0.496E+02 -.104E+03   0.592E+01 -.251E+01 -.463E+01   -.409E-03 -.987E-03 0.291E-03
   0.141E+03 0.311E+02 0.369E+02   -.140E+03 -.261E+02 -.261E+02   -.546E+01 -.459E+01 -.886E+01   -.189E-03 -.611E-03 0.184E-03
   -.259E+01 -.143E+03 0.743E+01   0.130E+02 0.142E+03 0.345E+01   -.131E+02 0.134E+01 -.706E+01   0.186E-02 -.599E-03 -.348E-03
   -.114E+03 -.163E+02 0.603E+02   0.110E+03 0.134E+02 -.520E+02   0.751E+01 -.452E+00 -.106E+02   0.164E-02 0.451E-02 0.792E-04
   0.320E+02 0.228E+02 -.546E+02   -.352E+02 -.232E+02 0.422E+02   0.390E+01 0.152E+01 0.118E+02   0.576E-03 0.607E-03 -.806E-03
   0.302E+02 -.591E+01 0.519E+02   -.278E+02 0.116E+02 -.509E+02   -.136E+01 -.868E+01 -.697E+01   0.871E-03 0.207E-02 0.163E-02
   0.960E+02 0.467E+02 -.102E+03   -.908E+02 -.444E+02 0.978E+02   -.114E+01 -.334E+00 0.436E+01   0.434E-03 0.969E-03 -.588E-04
   0.288E+01 0.570E+02 -.928E+02   0.179E+01 -.586E+02 0.846E+02   -.696E+01 0.259E+01 0.107E+02   -.204E-02 -.276E-02 -.178E-02
   0.237E+02 0.910E+01 0.479E+02   -.265E+02 -.588E+01 -.393E+02   -.268E+01 -.274E+01 -.129E+02   -.511E-03 -.303E-03 0.106E-02
   0.253E+02 0.156E+02 0.120E+03   -.321E+02 -.139E+02 -.128E+03   0.520E+01 0.168E+01 0.323E+01   0.486E-03 0.110E-02 0.110E-02
   -.116E+03 0.481E+02 -.272E+02   0.110E+03 -.364E+02 0.252E+02   0.270E+01 -.119E+02 0.519E+01   0.157E-03 -.136E-02 -.518E-03
   0.283E+02 0.673E+02 -.286E+01   -.157E+02 -.718E+02 -.616E+01   -.181E+02 0.123E+02 0.666E+01   -.860E-03 0.203E-02 -.111E-02
   -.905E+02 -.107E+03 0.492E+02   0.859E+02 0.935E+02 -.449E+02   0.490E+00 0.192E+02 -.253E+01   -.517E-03 0.995E-03 0.472E-03
   0.994E+01 0.689E+02 -.602E+01   -.842E+01 -.696E+02 -.270E+01   0.271E+01 0.465E+00 0.697E+01   0.972E-03 -.168E-02 0.909E-03
   0.291E+02 0.691E+02 -.154E+03   -.187E+02 -.644E+02 0.154E+03   -.451E+01 -.598E+01 0.279E+01   0.271E-04 -.605E-03 -.596E-04
   0.342E+02 0.790E+02 0.317E+02   -.413E+02 -.807E+02 -.410E+02   0.952E+01 -.514E+00 0.799E+01   -.174E-02 -.113E-02 -.692E-03
   0.183E+02 0.796E+01 -.918E+02   -.246E+02 -.657E+01 0.752E+02   0.468E+01 -.485E+01 0.169E+02   -.141E-02 -.115E-02 -.226E-02
   -.172E+02 0.796E+01 -.134E+03   0.173E+02 -.153E+02 0.136E+03   -.176E+01 0.476E+01 -.382E+01   -.304E-03 -.838E-03 -.489E-03
   -.695E+02 -.483E+02 0.328E+02   0.633E+02 0.463E+02 -.481E+02   0.118E+01 0.528E+01 0.159E+02   -.464E-04 -.111E-02 0.787E-03
   -.769E+02 0.842E+02 -.159E+03   0.883E+02 -.874E+02 0.146E+03   -.679E+01 0.739E+00 0.134E+02   0.861E-03 0.426E-04 -.809E-03
   0.115E+03 0.464E+02 -.136E+03   -.108E+03 -.638E+02 0.144E+03   -.819E+01 0.216E+02 -.743E+01   0.865E-03 0.185E-02 -.155E-02
   0.604E+02 0.128E+02 0.134E+03   -.745E+02 -.227E+02 -.167E+03   0.145E+02 0.951E+01 0.341E+02   0.802E-04 0.152E-02 0.734E-03
   -.900E+02 -.265E+02 0.183E+03   0.101E+03 0.258E+02 -.193E+03   -.126E+02 0.662E+00 0.105E+02   0.816E-03 -.334E-03 0.111E-02
   0.168E+02 0.403E+01 0.139E+03   -.201E+02 0.112E+02 -.146E+03   0.336E+01 -.170E+02 0.632E+01   -.503E-03 0.371E-03 0.628E-03
   0.478E+02 -.183E+03 0.682E+02   -.523E+02 0.185E+03 -.703E+02   0.511E+01 -.427E+00 0.124E+01   -.923E-03 0.996E-03 -.733E-03
[...]
   -.290E+02 0.176E+03 -.748E+02   0.333E+02 -.183E+03 0.832E+02   -.354E+01 0.967E+00 -.961E+01   0.236E-02 -.156E-02 0.452E-03
   0.226E+03 -.166E+02 -.864E+02   -.256E+03 0.182E+02 0.872E+02   0.308E+02 -.265E+01 0.952E+00   -.175E-02 -.457E-03 0.295E-02
   0.813E+02 0.155E+03 0.327E+02   -.860E+02 -.174E+03 -.263E+02   0.579E+01 0.208E+02 -.887E+01   -.371E-03 -.144E-02 -.372E-04
   -.466E+02 -.560E+02 -.456E+02   0.705E+02 0.763E+02 0.509E+02   -.240E+02 -.184E+02 -.681E+01   0.898E-03 -.165E-02 -.611E-03
   -.109E+03 0.103E+02 -.652E+00   0.132E+03 -.207E+02 0.147E+02   -.223E+02 0.106E+02 -.135E+02   -.197E-02 0.251E-02 -.309E-03
   -.623E+02 0.187E+02 0.221E+03   0.794E+02 -.306E+02 -.248E+03   -.140E+02 0.825E+01 0.253E+02   -.487E-03 -.974E-03 0.116E-02
   0.864E+02 0.917E+02 -.308E+02   -.823E+02 -.878E+02 0.455E+02   -.314E+01 -.536E+01 -.149E+02   -.146E-02 -.241E-02 -.133E-02
   -.215E+02 -.151E+03 -.161E+03   -.294E+01 0.169E+03 0.162E+03   0.263E+02 -.178E+02 0.117E+01   -.430E-02 0.721E-02 0.257E-02
   0.166E+03 0.636E+02 0.197E+03   -.183E+03 -.602E+02 -.223E+03   0.180E+02 -.403E+01 0.259E+02   0.576E-03 0.573E-03 -.145E-02
   0.696E+02 0.175E+03 0.100E+03   -.579E+02 -.174E+03 -.122E+03   -.132E+02 -.224E+01 0.244E+02   -.336E-04 0.518E-03 -.422E-03
   0.418E+02 0.110E+03 -.117E+03   -.236E+02 -.122E+03 0.136E+03   -.190E+02 0.120E+02 -.198E+02   -.346E-03 -.568E-03 0.130E-02
   -.219E+03 -.872E+02 -.224E+03   0.227E+03 0.107E+03 0.240E+03   -.885E+01 -.239E+02 -.165E+02   0.635E-03 -.884E-03 0.478E-03
   -.849E+02 -.191E+03 0.725E+02   0.113E+03 0.202E+03 -.776E+02   -.290E+02 -.125E+02 0.387E+01   0.357E-03 0.208E-02 0.230E-02
   -.720E+02 -.731E+02 -.415E+02   0.943E+02 0.821E+02 0.577E+02   -.176E+02 -.821E+01 -.121E+02   -.572E-03 -.353E-03 0.126E-02
   0.203E+03 0.564E+02 -.148E+03   0.668E-12 -.142E-13 -.136E-11   -.203E+03 -.564E+02 0.148E+03   0.304E-01 0.952E-02 -.288E-01

 POSITION                                       TOTAL-FORCE (eV/Angst)
      7.32032      7.98661     12.89740        -1.318583      1.521664      0.065343
     13.18081      8.96737      1.08211         1.113892      0.101074     -1.482995
      3.42172     11.97101     13.97232         1.389810      0.715488      1.811048
      6.94873      8.57311      5.87504         1.500930      0.952458     -2.454829
      3.24398      6.16083      1.37234        -0.597109      1.284422     -0.342784
      4.63384      1.31507      2.27002         0.532273     -1.771675     -0.005486
     13.95680      9.92964      5.29976         0.251694      0.448581     -0.643171
     13.74433      7.35564     11.46575         3.524699      2.241173     -9.575662
      3.97634      1.13867      6.97080         0.179585     -0.060726      0.888620
      6.38171      3.94297      9.81816         1.014723     -1.544832      2.143198
      0.93633      2.61660      9.76513        -0.815476      0.147628     -0.065710
      7.54992     12.85339      1.84778        -2.145940      2.229125     -0.813446
      3.88031      8.24006      8.10569         1.887132     -2.015018     -0.053959
      2.08789      0.15436     11.41836        -0.661894     -2.875943      2.218847
     10.21383      2.56437      1.59757         0.667702     -0.832214      1.359211
     11.81390     10.41248      9.63958         0.723553      0.704416     -1.214289
     13.03497     13.77042      0.17619         1.554282     -0.959204      0.855951
     12.84435      0.45280      6.94635        -1.175421     -0.323122      2.124500
     10.72792      2.85660      9.94146         0.258604      2.105840     -1.780897
      6.85491      2.83532      7.26274         0.477376     -0.980297     -1.458024
      3.59245      9.19192      3.12836        -2.341781      3.541205      1.281767
      9.40770      8.30797      1.60533        -1.579777      0.515608      1.358476
      9.76111      5.20597      6.71241        -0.518682      0.108261     -0.527255
      0.02610      4.05124      2.64399        -1.450985      2.387416      1.487194
      6.69404      4.69736      1.63697         4.695124      3.156078      0.927196
      4.76423      4.34276      3.76449         0.141317      0.547084      3.744262
      8.29928      0.95771     10.42067        -1.558191     -0.029263     -0.238542
     12.04080      1.69656      3.92125        -2.307516      0.649427     -5.450875
      0.57884      7.26384      7.68226        -7.773665      3.218489     12.243134
      4.08182     12.33173      5.24153         2.668665     -0.865650      1.944527
      6.12175     13.28336      7.98103        -2.812604      3.314113      3.273564
      0.88625     10.95903     13.18111        -2.525310      2.933577     -1.325431
      3.81827     12.67666      3.02196         3.432321      4.187131     -2.971137
     10.42639     12.24574     13.33010         1.193373     -0.520173      0.644572
      6.18611      5.76303      6.61513        -1.900064      1.928394      4.102939
     10.15173      7.55463     11.34595         6.058988     -2.367950     -1.096397
      1.34396     10.89895      2.64183        -5.060344      0.419522      1.965450
      1.24080     10.13877      8.40423        -2.758741      0.405436      3.822315
      7.90067      1.76122      4.59164         3.791116     -3.414916     -2.331574
      3.65609      4.28267      8.24864         0.706567      1.046506     -0.583271
      8.31564      2.72101     13.43490         1.025580     -3.001687     -5.982344
     10.58068      0.70950     12.73027         4.029686      1.979790     -0.057572
     11.07880      9.74638      5.70043        -2.288502      0.986871      2.632226
     13.83457      5.50245      0.05225        -5.503578      0.476925     -4.278160
      4.99438      3.68880     13.96283        -1.638587      3.346470     -4.492246
      8.77682     11.47586      4.14461        -3.346284     -0.225077      3.252958
     12.26724      0.29332      9.86179        -5.563674      7.810659     -2.365242
      1.22798      2.41819      0.14723        -4.067123      5.554253      1.766279
      6.01581      9.59244      1.96625         4.237814     -0.231775     -1.743533
      1.89738      6.15037      9.75933         5.896674     -1.190842      2.627143
      0.14384      6.57204      5.06853         2.399030     -2.240589     -1.267540
     11.84472      5.83697      8.65812        -1.618829     -3.455093      0.281192
      8.60486     11.20656      7.35661        -1.694128     -2.529533     -1.196979
      8.21747     10.76754     13.87466        -5.046070      3.186159      0.616482
      7.36077     12.49804      7.51540         4.565126     -2.486172      0.440208
      4.30257      2.62063      8.42270        -1.027962      4.206194      0.760386
      4.37298      3.24079     12.58623         0.416871     -0.471757      1.651086
      5.14730     13.12285      1.79725        -1.939335     -0.114943      0.349854
      0.48162     12.67500     12.79515         0.115002     -1.813635     -0.254087
     13.10520     10.74815      7.72666         0.662202      1.926747     -0.855289
[...]
      9.17377      7.20489     12.54605        -0.418914     -0.480411      1.076171
      4.10782      7.47993      3.59803         0.702061     -5.266796     -1.276501
     12.23291      5.55345      0.41832         1.086792     -1.051897      1.739686
      0.99012      9.15741      3.13901         1.125779      2.421669     -2.541836
      1.77421      7.28988      8.63936        -0.162812      1.845229     -1.476123
     12.95487      1.13708      5.04296         0.394792      0.164623      0.592615
      8.96721     10.02059     12.76996         3.042955     -3.637812     -1.213278
     13.42376      6.53696      8.76569         0.919559     -1.448821     -0.194988
     10.79892      2.72816      3.74559         1.865494      0.434809      2.350117
      2.88116      4.31205      6.82985         0.630635     -0.695458     -0.279553
     11.12909     12.98575     11.93114        -1.501781     -1.083222      2.654869
     11.54639     11.71090      0.36108        -0.895987      0.596175     -0.713931
      2.11072      7.35356     10.96748        -1.424590     -3.672303     -0.535982
      9.93656      3.06253     13.51150        -1.266427     -1.476075     -1.185981
      1.01453      5.80874      0.93614         4.680781      0.791435      4.132171
    total drift:                                0.019229      0.001676     -0.025295

  FREE ENERGIE OF THE ION-ELECTRON SYSTEM (eV)
  free  energy   TOTEN  =      -844.03930770 eV

  energy  without entropy=     -843.88446956  energy(sigma->0) =     -843.96188863