 vasp.5.4.4.18Apr17-6-g9f103f2a35 (build Mar 16 2023 09:39:13) complex

 executed on             LinuxIFC date 2024.04.29  23:23:07

 INCAR:
 POTCAR:    PAW_PBE Ca_sv 06Sep2000
 POTCAR:    PAW_PBE Si 05Jan2001
 POTCAR:    PAW_PBE O 08Apr2002
 POTCAR:    PAW_PBE Ca_sv 06Sep2000
   VRHFIN =Ca: 3s3p4s

   TITEL  = PAW_PBE Ca_sv 06Sep2000
   POMASS =   40.078; ZVAL   =   10.000    mass and valenz
   ENMAX  =  266.622; ENMIN  =  199.967 eV

   TITEL  = PAW_PBE Si 05Jan2001
   POMASS =   28.085; ZVAL   =    4.000    mass and valenz
   ENMAX  =  245.345; ENMIN  =  184.009 eV

   TITEL  = PAW_PBE O 08Apr2002
   POMASS =   16.000; ZVAL   =    6.000    mass and valenz
   ENMAX  =  400.000; ENMIN  =  300.000 eV

 Optimization of the real space projectors (new method)

 maximal supplied QI-value         = 16.25
 optimisation between [QCUT,QGAM] = [ 12.51, 25.03] = [ 43.85,175.40] Ry
 Optimized for a Real-space Cutoff    1.47 Angstroem

   l    n(q)    QCUT    max X(q) W(low)/X(q) W(high)/X(q)  e(spline)
   0     11    12.514    11.817    0.25E-04    0.32E-05    0.87E-07
   0     11    12.514     8.461    0.39E-04    0.59E-05    0.18E-06
   1     11    12.514     3.957    0.97E-05    0.57E-05    0.28E-07
   1     11    12.514     4.314    0.42E-04    0.14E-04    0.23E-06
   2     10    12.514    14.565    0.79E-04    0.50E-03    0.16E-05
   2     10    12.514    14.552    0.75E-04    0.48E-03    0.15E-05
 Optimization of the real space projectors (new method)

[...]

   l    n(q)    QCUT    max X(q) W(low)/X(q) W(high)/X(q)  e(spline)
   0      9    12.501   159.560    0.10E-03    0.83E-04    0.71E-07
   0      9    12.501   115.863    0.99E-04    0.81E-04    0.70E-07
   1      8    12.501    88.339    0.20E-03    0.25E-03    0.76E-07
   1      8    12.501    48.592    0.20E-03    0.24E-03    0.75E-07
 Optimization of the real space projectors (new method)

 maximal supplied QI-value         = 24.76
 optimisation between [QCUT,QGAM] = [ 12.38, 25.00] = [ 42.90,175.06] Ry
 Optimized for a Real-space Cutoff    1.16 Angstroem

   l    n(q)    QCUT    max X(q) W(low)/X(q) W(high)/X(q)  e(spline)
   0      9    12.378    20.381    0.16E-03    0.67E-05    0.31E-06
   0      9    12.378    15.268    0.17E-03    0.81E-05    0.33E-06
   1      8    12.378     5.964    0.20E-03    0.16E-03    0.30E-06
   1      8    12.378     5.382    0.18E-03    0.14E-03    0.26E-06
  PAW_PBE Ca_sv 06Sep2000               :
  PAW_PBE Si 05Jan2001                  :
  PAW_PBE O 08Apr2002                   :

 POSCAR: Ca Si  O
  positions in direct lattice
 exchange correlation table for  LEXCH =        8
   RHO(1)=    0.500       N(1)  =     2000
   RHO(2)=  100.500       N(2)  =     4000

 ion  position               nearest neighbor table
   1  0.332  0.847  0.533-  61 2.34 103 2.37  65 2.40 104 2.57  43 3.13
   2  0.467  0.400  0.619- 114 2.15  57 2.17  66 2.28  35 2.87  29 3.10
   3  0.123  0.685  0.773- 121 2.02 100 2.26  81 2.33  26 2.85  39 2.96  41 3.11
   4  0.808  0.993  0.741- 118 1.99  55 2.01  92 2.37  60 2.40  34 2.91  36 2.94  31 3.10
   5  0.260  0.080  0.860-  64 2.17  93 2.46  26 2.76  48 3.01
   6  0.174  0.031  0.374-  97 2.21  61 2.23
   7  0.798  0.483  0.397-  69 2.08  58 2.17 133 2.19  13 2.77
   8  0.717  0.427  0.093- 126 2.00  98 2.05 106 2.56  52 2.98
   9  0.541  0.777  0.263-  79 2.24 123 2.29 111 2.56  54 3.09
  10  0.527  0.643  0.812- 119 2.18  82 2.28 129 2.35  96 2.45  28 3.07
  11  0.048  0.312  0.024-  83 2.36 110 2.46  77 2.53  40 3.09
  12  0.301  0.252  0.415-  66 1.91  29 2.96
  13  0.781  0.511  0.608- 125 2.14  70 2.23  58 2.30 133 2.49   7 2.77
  14  0.428  0.076  0.588- 122 1.79  93 2.25  23 2.97  29 3.02  53 3.03
  15  0.098  0.360  0.712-  80 2.02  59 2.44  68 2.49  29 2.92
  16  0.930  0.761  0.518- 115 2.09  56 2.23  84 2.26 133 2.50  43 2.78  32 2.83
  17  0.505  0.300  0.231- 132 2.40  85 2.43  73 2.51
  18  0.002  0.276  0.431-  97 2.13 116 2.23  62 2.32
  19  0.835  0.974  0.312-  56 2.13 117 2.39  87 2.44  36 2.98
  20  0.811  0.744  0.059-  63 2.36 127 2.55  45 3.04  33 3.10
  21  0.520  0.140  0.873-  60 2.21 134 2.22 120 2.47  31 3.06
  22  0.788  0.142  0.054- 112 2.03 126 2.23
  23  0.609  0.944  0.535-  67 2.04 101 2.07  87 2.21  14 2.97
  24  0.705  0.226  0.471-  86 1.99  58 2.33 116 2.39 132 2.43  52 2.99
  25  0.390  0.460  0.998-  96 2.06  73 2.24 128 2.26  35 2.77  42 2.95  54 3.09
  26  0.160  0.892  0.838-  76 2.06   5 2.76   3 2.85
  27  0.043  0.512  0.261- 130 1.91  62 2.22 110 2.34
  28  0.605  0.829  0.937-  71 1.61  91 1.64 119 1.75  78 1.87  10 3.07  44 3.12
  29  0.282  0.250  0.644-  93 1.49 114 1.56  80 1.69  66 1.72  15 2.92  35 2.96  12 2.96  14 3.02
                             2 3.10
  30  0.446  0.595  0.434-  57 1.63  99 1.69  79 1.74 104 1.78  47 2.76  41 3.12
  31  0.703  0.208  0.739-  74 1.65  86 1.66  60 1.67  88 1.76  34 2.99  21 3.06   4 3.10
  32  0.770  0.725  0.374-  56 1.62 133 1.63 108 1.69  16 2.83
  33  0.938  0.948  0.058- 112 1.57 135 1.59  63 1.72 127 1.92  48 2.86  45 3.09  20 3.10
  34  0.926  0.179  0.791-  55 1.58  83 1.61  74 1.63 118 2.53   4 2.91  31 2.99
  35  0.334  0.411  0.797- 114 1.53 129 1.61  59 1.66 120 1.94  25 2.77   2 2.87  29 2.96  42 3.10

  36  0.873  0.043  0.529-  87 1.67 118 1.68 116 1.74 109 1.89   4 2.94  19 2.98
  37  0.779  0.720  0.782-  92 1.55 125 1.60  91 1.73 102 1.76  51 3.00
  38  0.253  0.759  0.259-  75 1.59 103 1.72  89 1.73  72 1.75  49 3.05
  39  0.078  0.618  0.987-  77 1.57 131 1.67 121 1.68 100 1.80   3 2.96
  40  0.142  0.227  0.226-  94 1.57  97 1.70 110 1.74 124 1.86  11 3.09  48 3.09
  41  0.264  0.617  0.590- 105 1.55  81 1.58 104 1.74  46 3.05   3 3.11  30 3.12
  42  0.561  0.384  0.868-  82 1.61 128 1.63  88 1.71 120 2.03  25 2.95  35 3.10
  43  0.097  0.882  0.581- 115 1.66  61 1.68  76 1.82 109 2.09  16 2.78   1 3.13
  44  0.464  0.897  0.753-  65 1.56 134 1.56  67 1.62 119 1.78  28 3.12
  45  0.013  0.756  0.179- 127 1.51 130 1.61 131 1.68  75 1.70  20 3.04  33 3.09
  46  0.071  0.506  0.512-  68 1.60  62 1.62  84 1.72 105 1.76  41 3.05
  47  0.377  0.545  0.238- 111 1.60  73 1.67  89 1.78  99 1.82  30 2.76  54 3.03
  48  0.125  0.067  0.049- 135 1.49  64 1.49 113 1.68 124 1.91  33 2.86   5 3.01  40 3.09
  49  0.321  0.957  0.150-  90 1.61 113 1.66  95 1.75  72 1.77  38 3.05
  50  0.561  0.995  0.111- 107 1.57  90 1.63  71 1.83 123 1.93
  51  0.883  0.528  0.857-  70 1.52 106 1.54 102 1.73 100 1.85  37 3.00
  52  0.779  0.278  0.258- 126 1.57  69 1.63 132 1.68 117 1.69   8 2.98  24 2.99
  53  0.436  0.032  0.358-  85 1.61  95 1.61 101 1.72 122 2.04  14 3.03
  54  0.552  0.608  0.094-  96 1.60  98 1.63 111 1.83  78 2.03  47 3.03  25 3.09   9 3.09
  55  0.892  0.074  0.844-  34 1.58   4 2.01
  56  0.842  0.827  0.386-  32 1.62  19 2.13  16 2.23
  57  0.469  0.553  0.550-  30 1.63   2 2.17
  58  0.691  0.404  0.499-   7 2.17  13 2.30  24 2.33
  59  0.221  0.386  0.853-  35 1.66  15 2.44
  60  0.662  0.096  0.789-  31 1.67  21 2.21   4 2.40
  61  0.167  0.888  0.471-  43 1.68   6 2.23   1 2.34
  62  0.082  0.435  0.410-  46 1.62  27 2.22  18 2.32
  63  0.844  0.903  0.976-  33 1.72  20 2.36
  64  0.148  0.144  0.966-  48 1.49   5 2.17
  65  0.363  0.842  0.716-  44 1.56   1 2.40
  66  0.368  0.275  0.545-  29 1.72  12 1.91   2 2.28
  67  0.557  0.881  0.670-  44 1.62  23 2.04
  68  0.987  0.447  0.581-  46 1.60  15 2.49
  69  0.851  0.377  0.287-  52 1.63   7 2.08
  70  0.862  0.473  0.756-  51 1.52  13 2.23
  71  0.607  0.943  0.987-  28 1.61  50 1.83
  72  0.317  0.820  0.156-  38 1.75  49 1.77
  73  0.380  0.435  0.169-  47 1.67  25 2.24  17 2.51
  74  0.828  0.233  0.732-  34 1.63  31 1.65
  75  0.133  0.756  0.232-  38 1.59  45 1.70
  76  0.150  0.952  0.690-  43 1.82  26 2.06
  77  0.077  0.505  0.032-  39 1.57  11 2.53
  78  0.601  0.753  0.060-  28 1.87  54 2.03
  79  0.556  0.658  0.389-  30 1.74   9 2.24
  80  0.165  0.279  0.596-  29 1.69  15 2.02
  81  0.287  0.651  0.705-  41 1.58   3 2.33
  82  0.579  0.477  0.787-  42 1.61  10 2.28
  83  0.977  0.268  0.861-  34 1.61  11 2.36
  84  0.026  0.624  0.468-  46 1.72  16 2.26
  85  0.476  0.148  0.338-  53 1.61  17 2.43
  86  0.667  0.240  0.620-  31 1.66  24 1.99
  87  0.770  0.976  0.489-  36 1.67  23 2.21  19 2.44
  88  0.657  0.320  0.802-  42 1.71  31 1.76
  89  0.271  0.627  0.267-  38 1.73  47 1.78
  90  0.436  0.978  0.109-  49 1.61  50 1.63
  91  0.687  0.758  0.871-  28 1.64  37 1.73
  92  0.826  0.812  0.721-  37 1.55   4 2.37
  93  0.329  0.162  0.702-  29 1.49  14 2.25   5 2.46
  94  0.258  0.204  0.200-  40 1.57
  95  0.348  0.008  0.272-  53 1.61  49 1.75
[...]
 121  0.173  0.675  0.921-  39 1.68   3 2.02
 122  0.342  0.047  0.484-  14 1.79  53 2.04
 123  0.628  0.926  0.225-  50 1.93   9 2.29
 124  0.050  0.152  0.143-  40 1.86  48 1.91
 125  0.733  0.642  0.697-  37 1.60  13 2.14
 126  0.780  0.293  0.138-  52 1.57   8 2.00  22 2.23
 127  0.941  0.847  0.167-  45 1.51  33 1.92  20 2.55
 128  0.544  0.378  0.992-  42 1.63  25 2.26
 129  0.394  0.520  0.802-  35 1.61  10 2.35
 130  0.985  0.643  0.224-  45 1.61  27 1.91
 131  0.023  0.713  0.056-  39 1.67  45 1.68
 132  0.670  0.322  0.314-  52 1.68  17 2.40  24 2.43
 133  0.791  0.638  0.463-  32 1.63   7 2.19  13 2.49  16 2.50
 134  0.442  0.004  0.804-  44 1.56  21 2.22
 135  0.057  0.974  0.039-  48 1.49  33 1.59

IMPORTANT INFORMATION: All symmetrisations will be switched off!
NOSYMM: (Re-)initialisation of all symmetry stuff for point group C_1.

Automatic generation of k-mesh.
 generate k-points for:    2    2    2
Space group operators:
 irot       det(A)        alpha          n_x          n_y          n_z        tau_x        tau_y        tau_z
    1     1.000000     0.000000     1.000000     0.000000     0.000000     0.000000     0.000000     0.000000

 Subroutine IBZKPT returns following result:

 Found      8 irreducible k-points:

 Following reciprocal coordinates:
            Coordinates               Weight
  0.000000  0.000000  0.000000      1.000000
  0.500000  0.000000  0.000000      1.000000
  0.000000  0.500000  0.000000      1.000000
  0.500000  0.500000  0.000000      1.000000
  0.000000  0.000000  0.500000      1.000000
  0.500000  0.000000  0.500000      1.000000
  0.000000  0.500000  0.500000      1.000000
  0.500000  0.500000  0.500000      1.000000

 Following cartesian coordinates:
            Coordinates               Weight
  0.000000  0.000000  0.000000      1.000000
  0.038669  0.000000  0.000000      1.000000
  0.000000  0.038669  0.000000      1.000000
  0.038669  0.038669  0.000000      1.000000
  0.000000  0.000000  0.038669      1.000000
  0.038669  0.000000  0.038669      1.000000
  0.000000  0.038669  0.038669      1.000000
  0.038669  0.038669  0.038669      1.000000

 SYSTEM =  unknown system
 POSCAR =  Ca Si  O

 Startparameter for this run:
   NWRITE =      2    write-flag & timer
   PREC   = a         normal or accurate (medium, high low for compatibility)
   ISTART =      0    job   : 0-new  1-cont  2-samecut
   ICHARG =      2    charge: 1-file 2-atom 10-const
   ISPIN  =      1    spin polarized calculation?
   LNONCOLLINEAR =      F non collinear calculations
   LSORBIT =      F    spin-orbit coupling
[...]
     0.000000000  0.000000000 12.930412990     0.000000000  0.000000000  0.077337050

  length of vectors
    12.930412990 12.930412990 12.930412990     0.077337050  0.077337050  0.077337050

 FORCES acting on ions
    electron-ion (+dipol)            ewald-force                    non-local-force                 convergence-correction
   -.853E+02 0.126E+03 -.793E+02   0.810E+02 -.127E+03 0.764E+02   0.386E+01 0.451E+00 0.181E+01   -.556E-02 0.270E-02 0.571E-02
   -.198E+03 -.436E+02 0.130E+03   0.200E+03 0.482E+02 -.132E+03   0.170E+01 -.330E+01 0.153E+01   -.215E-01 0.106E-03 0.135E-01
   0.422E+02 -.153E+02 0.715E+02   -.419E+02 0.884E+01 -.673E+02   -.129E+01 0.470E+01 -.551E+01   0.167E-02 0.150E-01 0.832E-02
   0.102E+03 0.154E+03 -.620E+02   -.980E+02 -.157E+03 0.647E+02   -.674E+01 -.144E+01 -.139E+01   0.689E-02 -.505E-02 0.672E-02
   0.100E+02 0.111E+02 -.728E+02   -.891E+01 -.506E+01 0.709E+02   0.847E+00 -.377E+01 0.264E+00   -.146E-01 -.257E-01 0.928E-02
   0.151E+03 0.177E+02 0.100E+03   -.152E+03 -.195E+02 -.965E+02   0.258E+00 0.240E+00 -.319E+01   0.155E-02 -.337E-02 -.238E-02
   0.983E+01 -.113E+03 0.103E+03   -.148E+02 0.108E+03 -.104E+03   0.356E+01 0.429E+01 0.619E+00   0.345E-01 0.281E-01 -.233E-01
   -.119E+03 -.949E+02 0.929E+02   0.119E+03 0.935E+02 -.949E+02   0.110E+01 0.262E+01 -.733E+00   0.568E-02 0.502E-02 -.169E-01
   0.254E+02 -.509E+01 -.124E+02   -.219E+02 0.566E+01 0.133E+02   -.313E+01 0.430E-01 -.124E+01   -.444E-02 0.492E-02 -.565E-02
   0.406E+02 -.865E+02 0.107E+03   -.407E+02 0.811E+02 -.106E+03   0.258E+00 0.322E+01 -.209E+01   -.427E-02 0.630E-02 0.619E-02
   -.515E+01 -.796E+02 0.468E+02   0.667E+01 0.829E+02 -.455E+02   -.112E+01 -.163E+01 -.995E+00   0.371E-02 -.248E-02 -.574E-02
   0.263E+02 -.154E+03 0.220E+03   -.262E+02 0.153E+03 -.220E+03   -.200E+01 0.441E+00 -.411E+01   -.669E-02 -.525E-02 -.147E-02
   0.257E+02 0.138E+02 -.255E+02   -.280E+02 -.132E+02 0.333E+02   0.204E+01 -.952E+00 -.571E+01   0.282E-01 0.297E-01 0.363E-01
   -.201E+03 -.170E+02 -.124E+03   0.196E+03 0.221E+02 0.129E+03   0.872E+01 -.245E+01 0.118E+01   -.106E-01 -.735E-02 0.730E-02
   0.148E+03 -.181E+02 -.167E+03   -.150E+03 0.194E+02 0.166E+03   -.915E+00 0.921E+00 0.253E+01   0.216E-02 -.152E-02 0.812E-02
   0.327E+01 0.205E+02 -.181E+02   -.227E+01 -.243E+02 0.185E+02   -.190E+01 0.216E+01 -.622E+00   0.729E-02 0.528E-02 0.519E-02
   0.851E+02 0.375E+02 0.590E+02   -.821E+02 -.380E+02 -.576E+02   -.227E+01 0.281E+00 -.159E+01   -.166E-01 -.563E-02 -.146E-01
   0.314E+02 0.513E+01 -.746E+02   -.306E+02 -.579E+01 0.725E+02   -.153E+01 0.154E+01 0.234E+01   0.149E-01 -.444E-02 -.215E-03
   -.264E+02 -.123E+02 0.110E+03   0.234E+02 0.148E+02 -.110E+03   0.224E+01 -.248E+00 -.140E+01   0.488E-02 -.715E-02 -.461E-02
   0.111E+02 0.111E+03 -.310E+02   -.110E+02 -.108E+03 0.283E+02   -.446E+00 -.266E+01 0.210E+01   0.449E-02 0.141E-02 -.578E-02
   0.381E+02 -.206E+02 -.212E+03   -.359E+02 0.185E+02 0.209E+03   -.182E+01 0.236E+01 0.370E+01   -.113E-01 -.644E-02 0.450E-02
   0.831E+02 -.520E+02 0.167E+03   -.822E+02 0.516E+02 -.161E+03   -.234E+01 0.908E+00 -.666E+01   0.438E-02 -.480E-02 -.762E-02
   -.927E+02 0.708E+02 -.565E+01   0.959E+02 -.753E+02 0.457E+01   -.368E+00 0.369E+01 0.676E+00   -.407E-02 -.454E-02 0.297E-02
   0.112E+03 0.938E+02 0.438E+02   -.109E+03 -.872E+02 -.434E+02   -.208E+01 -.551E+01 -.318E+01   0.271E-02 -.408E-01 0.139E-02
   0.354E+03 0.461E+02 -.893E+02   -.349E+03 -.455E+02 0.921E+02   -.650E+01 -.151E+01 -.234E+01   -.482E-02 0.506E-03 -.217E-02
   0.123E+02 0.533E+02 -.220E+03   -.132E+02 -.537E+02 0.213E+03   0.265E+00 -.112E+01 0.607E+01   0.990E-02 0.172E-01 0.120E-01
   -.716E+02 0.255E+02 0.108E+03   0.736E+02 -.282E+02 -.107E+03   -.630E-01 -.905E+00 -.272E+00   0.629E-02 0.351E-02 -.727E-02
   0.276E+02 -.331E+02 -.265E+02   -.271E+02 0.339E+02 0.241E+02   -.190E+01 -.377E+01 0.262E+01   -.147E-02 0.633E-03 0.571E-04
   0.125E+03 0.545E+02 0.279E+01   -.118E+03 -.556E+02 0.307E+00   -.882E+01 0.431E+01 -.904E+01   -.229E-02 -.306E-02 0.367E-02
   -.436E+02 -.304E+02 0.368E+02   0.485E+02 0.247E+02 -.276E+02   -.276E+01 0.553E+01 -.606E+01   -.496E-02 0.426E-02 -.594E-03
   0.288E+01 0.464E+01 -.381E+02   -.457E+01 -.343E+01 0.331E+02   0.402E+00 0.218E+01 0.414E+01   0.987E-03 -.343E-02 0.667E-02
   0.915E+02 -.227E+01 0.673E+00   -.830E+02 -.268E-02 -.424E+01   -.758E+01 0.331E+00 0.486E-01   0.149E-02 0.407E-02 -.160E-02
   -.401E+02 0.442E+02 0.564E+02   0.286E+02 -.357E+02 -.553E+02   0.543E+01 -.110E+02 -.107E+01   0.432E-02 -.548E-03 -.309E-02
   -.124E+03 -.108E+02 0.365E+02   0.115E+03 0.116E+02 -.236E+02   0.705E+01 0.109E+00 -.116E+02   0.425E-02 -.199E-02 0.325E-02
   0.621E+02 -.463E+02 -.803E+02   -.653E+02 0.478E+02 0.803E+02   0.248E+01 -.169E+01 0.547E+01   -.258E-02 -.735E-03 0.235E-02
   -.571E+01 -.193E+01 -.655E+00   0.834E+01 0.523E+01 0.250E+01   0.258E+01 -.775E+00 -.247E+01   0.329E-02 -.388E-02 0.218E-02
   -.523E+02 -.242E+02 -.837E+01   0.515E+02 0.234E+02 -.331E+01   -.104E+01 -.210E+01 0.128E+02   0.240E-02 0.712E-03 0.280E-02
   -.203E+02 0.301E+02 0.334E+02   0.158E+02 -.257E+02 -.301E+02   0.540E+01 -.327E+01 -.127E+01   -.788E-03 0.201E-02 -.226E-02
   -.515E+02 -.842E+01 -.361E+02   0.532E+02 0.364E-01 0.362E+02   -.213E+01 0.810E+01 -.268E+01   0.380E-03 0.211E-02 -.220E-02
   0.144E+02 -.297E+02 0.401E+02   -.482E+01 0.332E+02 -.414E+02   -.121E+02 -.710E+00 0.158E+00   0.164E-02 -.206E-02 -.315E-02
   0.106E+02 -.440E+02 0.138E+02   -.108E+02 0.413E+02 -.714E+01   0.488E+01 0.369E+01 -.887E+01   -.185E-02 0.258E-02 0.242E-02
   -.373E+02 0.438E+02 -.386E+02   0.400E+02 -.373E+02 0.372E+02   -.247E+01 -.759E+01 -.270E+00   -.114E-02 0.266E-04 0.297E-02
   -.128E+02 0.106E+02 -.177E+02   0.125E+02 -.104E+02 0.170E+02   -.558E+00 0.593E+01 0.173E+01   0.187E-02 0.199E-03 0.469E-02
   -.943E+01 0.162E+02 -.407E+02   0.320E+01 -.171E+02 0.367E+02   0.787E+01 -.272E+01 0.536E+01   -.488E-02 0.686E-03 0.310E-02
   -.505E+02 -.391E+02 -.287E+02   0.464E+02 0.305E+02 0.278E+02   0.978E+01 0.635E+00 0.164E+01   0.198E-02 0.158E-02 -.305E-02
   -.388E+02 -.594E+02 -.342E+02   0.284E+02 0.548E+02 0.276E+02   0.906E+01 0.707E+01 0.360E+01   0.261E-02 0.149E-02 0.181E-02
   0.599E+02 0.376E+02 -.162E+02   -.582E+02 -.390E+02 0.106E+02   -.435E+01 -.898E+00 0.692E+01   -.278E-02 0.173E-02 -.278E-02
   -.102E+02 0.259E+02 -.234E+02   0.948E+01 -.196E+02 0.160E+02   0.220E+01 -.479E+00 0.149E+02   0.416E-02 -.401E-02 -.700E-02
   0.672E+02 0.506E+02 0.726E+02   -.595E+02 -.494E+02 -.727E+02   -.549E+01 -.234E+01 0.268E+01   -.288E-02 0.321E-03 -.514E-02
   -.352E+02 0.258E+02 -.133E+02   0.340E+02 -.142E+02 0.148E+02   0.396E+01 -.142E+02 0.469E+00   -.262E-02 -.123E-02 -.250E-02
   -.699E+02 -.128E+02 -.195E+02   0.601E+02 0.193E+01 0.178E+02   0.106E+02 0.141E+02 0.365E+01   0.624E-03 -.228E-02 0.204E-02
   -.112E+02 0.496E+02 0.107E+02   0.105E+02 -.470E+02 -.123E+02   0.477E+00 -.440E+01 0.469E+01   0.598E-02 -.334E-02 -.910E-02
   -.548E+02 0.105E+02 0.202E+02   0.575E+02 -.476E+01 -.247E+02   -.240E+01 -.607E+01 0.581E+01   -.292E-02 -.208E-02 -.141E-02
   -.636E+02 -.866E+02 -.226E+02   0.575E+02 0.727E+02 0.169E+02   0.389E+01 0.142E+02 0.540E+01   -.120E-02 0.201E-02 -.272E-02
   -.108E+03 0.246E+02 -.159E+03   0.103E+03 -.496E+02 0.177E+03   0.640E+01 0.259E+02 -.157E+02   0.724E-02 -.316E-02 0.246E-02
   -.147E+02 0.138E+02 0.337E+02   0.298E+02 0.625E+01 -.322E+02   -.162E+02 -.218E+02 -.136E+01   0.275E-02 0.141E-02 -.104E-02
   -.102E+03 -.763E+02 -.339E+02   0.110E+03 0.741E+02 0.578E+02   -.798E+01 0.131E+01 -.236E+02   -.103E-01 0.751E-02 0.389E-02
   0.139E+03 -.342E+02 -.297E+02   -.147E+03 0.322E+02 0.302E+02   0.939E+01 0.243E+01 -.247E+00   -.174E-02 0.698E-04 0.545E-02
   0.120E+03 -.459E+01 -.175E+03   -.142E+03 0.139E+00 0.190E+03   0.232E+02 0.512E+01 -.161E+02   -.161E-02 -.239E-02 0.184E-02
   0.566E+01 0.733E+02 -.496E+02   -.121E+02 -.970E+02 0.580E+02   0.709E+01 0.252E+02 -.909E+01   -.117E-02 -.393E-02 0.500E-02
[...]
   0.111E+03 0.132E+02 0.456E+02   -.124E+03 -.143E+02 -.453E+02   0.108E+02 -.430E+00 -.699E+01   -.361E-02 -.286E-02 0.183E-02
   -.716E+02 -.531E+02 -.121E+00   0.811E+02 0.499E+02 0.134E+02   -.113E+02 0.506E+01 -.170E+02   -.189E-02 -.145E-02 -.351E-02
   0.710E+02 0.702E+01 -.211E+02   -.945E+02 -.795E+01 0.252E+02   0.270E+02 0.173E+00 -.473E+01   0.511E-02 -.400E-02 -.611E-02
   0.922E+02 -.384E+02 0.881E+02   -.104E+03 0.239E+02 -.106E+03   0.105E+02 0.147E+02 0.178E+02   0.367E-02 0.573E-02 0.871E-02
   -.590E+02 0.322E+02 0.123E+03   0.640E+02 -.294E+02 -.147E+03   -.469E+01 -.551E+01 0.202E+02   0.451E-02 -.232E-03 -.121E-01
   -.113E+02 -.581E+02 -.660E+02   -.112E+02 0.774E+02 0.746E+02   0.198E+02 -.140E+02 -.968E+01   0.398E-02 0.997E-03 -.451E-02
   -.525E+02 0.142E+03 -.102E+03   0.495E+02 -.145E+03 0.129E+03   0.479E+01 0.241E+01 -.274E+02   -.214E-02 -.298E-03 -.172E-02
   0.972E+02 -.137E+03 -.138E+02   -.850E+02 0.163E+03 0.132E+02   -.140E+02 -.282E+02 0.727E+00   -.401E-02 0.238E-02 0.345E-02
   0.934E+02 0.784E+01 -.929E+01   -.101E+03 -.267E+02 0.166E+02   0.371E+01 0.224E+02 -.716E+01   0.325E-02 0.299E-02 -.475E-02
   -.557E+02 -.318E+02 0.928E+02   0.483E+02 0.411E+02 -.102E+03   0.720E+01 -.828E+01 0.770E+01   0.293E-02 0.302E-02 -.478E-02
   0.148E+03 -.427E+02 0.197E+01   -.165E+03 0.543E+02 0.104E+02   0.153E+02 -.126E+02 -.137E+02   -.563E-02 -.110E-01 -.217E-01
   0.790E+02 -.460E+02 -.413E+02   -.766E+02 0.308E+02 0.620E+02   -.277E+01 0.174E+02 -.213E+02   0.605E-02 0.130E-01 0.113E-03
   0.515E+02 0.360E+01 -.107E+03   -.573E+02 0.176E+02 0.118E+03   0.517E+01 -.181E+02 -.929E+01   -.114E-01 -.175E-02 0.543E-02
   -.611E+02 0.122E+03 0.681E+02   0.668E+02 -.145E+03 -.738E+02   -.713E+01 0.175E+02 0.387E+01   0.106E-01 -.889E-03 -.104E-01
   -.319E+02 0.388E+01 -.516E+02   -.568E-13 -.426E-12 -.142E-12   0.318E+02 -.385E+01 0.516E+02   0.453E-01 -.317E-01 0.175E-01

 POSITION                                       TOTAL-FORCE (eV/Angst)
      4.28704     10.94835      6.89448        -0.481864     -0.471527     -1.123185
      6.04020      5.17380      8.00898         3.258764      1.278603     -0.736459
      1.59311      8.85249      9.99368        -1.021612     -1.760971     -1.340229
     10.45186     12.84561      9.57968        -2.836536     -3.979389      1.277060
      3.36050      1.03282     11.11404         1.928727      2.249844     -1.612694
      2.24367      0.39603      4.84123         0.001384     -1.599499      0.725140
     10.31912      6.24006      5.12722        -1.370821     -0.754521     -0.998817
      9.27652      5.51621      1.20373         1.350616      1.207951     -2.798234
      6.99894     10.04781      3.40336         0.411431      0.613880     -0.358263
      6.81427      8.31881     10.49795         0.176582     -2.202823     -0.696318
      0.61645      4.03135      0.30496         0.409432      1.679612      0.259262
      3.89118      3.25699      5.36992        -1.942438     -0.268720     -4.097570
     10.09560      6.61374      7.86264        -0.235521     -0.408150      2.173459
      5.53186      0.98225      7.59875         3.446971      2.645121      5.695117
      1.26654      4.65277      9.20689        -2.465673      2.225662      2.288618
     12.02690      9.84136      6.70399        -0.889842     -1.650032     -0.196881
      6.53279      3.87578      2.98354         0.709731     -0.252225     -0.207762
      0.02082      3.56888      5.57836        -0.673322      0.875921      0.257471
     10.79181     12.58881      4.03566        -0.806451      2.235871     -1.704501
     10.48986      9.62523      0.76629        -0.394689     -0.306839     -0.656006
      6.71790      1.80877     11.28561         0.329740      0.334780      0.789345
     10.18302      1.83144      0.69953        -1.429805      0.469185     -0.057893
      7.86854     12.21026      6.91237         2.849182     -0.762334     -0.395205
      9.11656      2.92366      6.09656         0.812334      1.078678     -2.823901
      5.04242      5.95224     12.90603        -1.400794     -0.864449      0.428451
      2.06688     11.53584     10.83250        -0.604938     -1.520453     -0.188442
      0.55297      6.61520      3.37979         1.949945     -3.557190     -0.031138
      7.82087     10.71993     12.12126        -1.452679     -2.977550      0.146508
      3.65092      3.22768      8.32100        -1.983778      3.153737     -5.936677
      5.76702      7.69126      5.60957         2.100439     -0.238583      3.103186
      9.08401      2.69544      9.55350        -1.280263      3.377135     -0.787873
      9.95081      9.37247      4.83955         0.916477     -1.942695     -3.516369
     12.12781     12.26148      0.75572        -6.104572     -2.478654      0.020146
     11.97322      2.31228     10.22525        -1.815582      0.888856      1.327756
      4.32212      5.31410     10.30701        -0.766594     -0.163896      5.553508
     11.28537      0.55297      6.83751         5.215336      2.521588     -0.620842
     10.06955      9.31498     10.11025        -1.752481     -2.824866      1.130232
      3.27146      9.81376      3.34651         0.899691      1.116363      2.001278
      1.00463      7.98714     12.76598        -0.395688     -0.285211     -2.600706
      1.83342      2.93009      2.91952        -2.487873      2.731346     -1.169136
      3.41475      7.97426      7.63377         4.601630      0.991467     -2.165923
      7.26024      4.96615     11.22084         0.275036     -1.075979     -1.643470
      1.24918     11.39994      7.50877        -0.829058      6.134223      1.019980
      6.00519     11.59242      9.73744         1.635049     -3.544035      1.421478
      0.17015      9.77006      2.31088         5.705548     -7.930745      0.668645
      0.91285      6.54818      6.61436        -1.386899      2.441409     -3.026970
      4.88058      7.04464      3.07221        -2.583643     -2.288975      1.394749
      1.61491      0.86261      0.63110         1.509475      5.744106      7.502871
      4.15112     12.37052      1.94247         2.258078     -1.170118      2.523182
      7.24896     12.86393      1.43031         2.760812     -2.548375      1.921524
     11.41871      6.82175     11.08707         0.868427      3.259620      1.950386
     10.06669      3.60059      3.33892        -0.218652     -1.873888      3.041667
      5.63538      0.41136      4.62675         0.365100     -0.378618      1.383594
      7.13276      7.86618      1.21368        -2.247607      0.210251     -0.300790
     11.53259      0.96300     10.91352         1.729185      0.889858      2.710406
     10.88742     10.68920      4.98495        -1.059954     -1.834079      0.118694
      6.05870      7.14706      7.11689         0.098049     -0.875410      0.258271
      8.93856      5.21790      6.45294         0.964179      0.366561      0.332631
      2.85937      4.98777     11.03104         1.022951      0.668435     -0.739657
      8.55594      1.24700     10.20073         0.681112      1.539124     -0.701839
[...]
      2.24191      8.72288     11.90716         0.249298      0.988560      1.599850
      4.41622      0.60598      6.25243        -2.832863     -1.558116     -6.632210
      8.12000     11.97588      2.90396        -1.873631      1.814986     -3.737539
      0.64801      1.96964      1.84970         3.569757     -0.763162     -0.637937
      9.48436      8.30390      9.01733        -1.173064      0.244461     -0.114827
     10.08063      3.78325      1.78035         0.218397     -2.701103     -3.357708
     12.16478     10.94629      2.16088        -2.731548      5.345926     -1.144839
      7.03550      4.88367     12.83232         1.800678     -0.525317     -0.525615
      5.08971      6.72908     10.37485        -1.764040     -1.819250      0.139539
     12.74182      8.30964      2.89587        -3.608646      3.618541      0.196229
      0.29430      9.21345      0.72551        -0.166455      0.996976     -1.398345
      8.66161      4.16203      4.05763        -1.350401     -0.971130     -1.330549
     10.23158      8.24935      5.98725        -0.352367      2.183796     -0.691836
      5.71001      0.05029     10.39219        -0.696131      3.028352      1.237211
      0.73593     12.59624      0.50144        -1.404804     -5.550644     -1.901873
    total drift:                               -0.039723     -0.005917      0.021679

  FREE ENERGIE OF THE ION-ELECTRON SYSTEM (eV)
  free  energy   TOTEN  =      -918.10662196 eV

  energy  without entropy=     -918.06662927  energy(sigma->0) =     -918.08662562