 vasp.5.4.4.18Apr17-6-g9f103f2a35 (build Mar 16 2023 09:39:13) complex

 executed on             LinuxIFC date 2024.04.29  22:33:56

 INCAR:
 POTCAR:    PAW_PBE Ca_sv 06Sep2000
 POTCAR:    PAW_PBE Si 05Jan2001
 POTCAR:    PAW_PBE O 08Apr2002
 POTCAR:    PAW_PBE Ca_sv 06Sep2000
   VRHFIN =Ca: 3s3p4s

   TITEL  = PAW_PBE Ca_sv 06Sep2000
   POMASS =   40.078; ZVAL   =   10.000    mass and valenz
   ENMAX  =  266.622; ENMIN  =  199.967 eV

   TITEL  = PAW_PBE Si 05Jan2001
   POMASS =   28.085; ZVAL   =    4.000    mass and valenz
   ENMAX  =  245.345; ENMIN  =  184.009 eV

   TITEL  = PAW_PBE O 08Apr2002
   POMASS =   16.000; ZVAL   =    6.000    mass and valenz
   ENMAX  =  400.000; ENMIN  =  300.000 eV

 Optimization of the real space projectors (new method)

 maximal supplied QI-value         = 16.25
 optimisation between [QCUT,QGAM] = [ 12.51, 25.03] = [ 43.85,175.40] Ry
 Optimized for a Real-space Cutoff    1.47 Angstroem

   l    n(q)    QCUT    max X(q) W(low)/X(q) W(high)/X(q)  e(spline)
   0     11    12.514    11.817    0.25E-04    0.32E-05    0.87E-07
   0     11    12.514     8.461    0.39E-04    0.59E-05    0.18E-06
   1     11    12.514     3.957    0.97E-05    0.57E-05    0.28E-07
   1     11    12.514     4.314    0.42E-04    0.14E-04    0.23E-06
   2     10    12.514    14.565    0.79E-04    0.50E-03    0.16E-05
   2     10    12.514    14.552    0.75E-04    0.48E-03    0.15E-05
 Optimization of the real space projectors (new method)

[...]

   l    n(q)    QCUT    max X(q) W(low)/X(q) W(high)/X(q)  e(spline)
   0      9    12.501   159.560    0.10E-03    0.83E-04    0.71E-07
   0      9    12.501   115.863    0.99E-04    0.81E-04    0.70E-07
   1      8    12.501    88.339    0.20E-03    0.25E-03    0.76E-07
   1      8    12.501    48.592    0.20E-03    0.24E-03    0.75E-07
 Optimization of the real space projectors (new method)

 maximal supplied QI-value         = 24.76
 optimisation between [QCUT,QGAM] = [ 12.38, 25.00] = [ 42.90,175.06] Ry
 Optimized for a Real-space Cutoff    1.16 Angstroem

   l    n(q)    QCUT    max X(q) W(low)/X(q) W(high)/X(q)  e(spline)
   0      9    12.378    20.381    0.16E-03    0.67E-05    0.31E-06
   0      9    12.378    15.268    0.17E-03    0.81E-05    0.33E-06
   1      8    12.378     5.964    0.20E-03    0.16E-03    0.30E-06
   1      8    12.378     5.382    0.18E-03    0.14E-03    0.26E-06
  PAW_PBE Ca_sv 06Sep2000               :
  PAW_PBE Si 05Jan2001                  :
  PAW_PBE O 08Apr2002                   :

 POSCAR: Ca Si  O
  positions in direct lattice
 exchange correlation table for  LEXCH =        8
   RHO(1)=    0.500       N(1)  =     2000
   RHO(2)=  100.500       N(2)  =     4000

 ion  position               nearest neighbor table
   1  0.464  0.656  0.373-  82 2.08 113 2.15  73 2.51  65 2.56  41 2.87  33 2.90
   2  0.647  0.006  0.530- 110 2.00 129 2.11  57 2.20 108 2.45  43 2.79
   3  0.456  0.320  0.692- 126 2.17 116 2.38  90 2.41 104 2.46
   4  0.374  0.173  0.887- 130 2.10  98 2.42 126 2.51
   5  0.096  0.744  0.757- 111 2.03 106 2.47  37 2.90
   6  0.778  0.752  0.912-  91 2.21  99 2.21 107 2.32  22 3.12
   7  0.284  0.945  0.019- 130 2.46  88 2.50  77 2.52
   8  0.728  0.639  0.153-  69 2.30  95 2.49  67 2.51  51 3.03
   9  0.148  0.899  0.291-  74 2.22  70 2.38  54 3.10
  10  0.278  0.683  0.577-  73 2.02 133 2.30 132 2.52  37 3.01
  11  0.565  0.112  0.169-  89 2.16 101 2.30 119 2.47  31 2.97
  12  0.116  0.218  0.396-  74 2.21  58 2.35 135 2.48  54 2.94  21 3.13
  13  0.605  0.387  0.189-  65 2.24  67 2.31 128 2.39  38 2.94
  14  0.786  0.463  0.750-  75 2.10  64 2.23  91 2.40  48 2.81
  15  0.415  0.696  0.926-  86 2.00  61 2.01  49 3.04  52 3.09
  16  0.800  0.289  0.528-  75 2.23  71 2.30  62 2.35  42 2.75  50 3.02
  17  0.462  0.891  0.255-  82 2.09 101 2.36  51 2.89  43 3.08
  18  0.833  0.090  0.329-  93 2.27  57 2.43  62 2.45  32 3.13
  19  0.873  0.063  0.811-  92 2.22  81 2.38 114 2.40 115 2.51  44 2.92
  20  0.100  0.251  0.719- 114 2.12  55 2.22  58 2.25 103 2.38  45 2.77
  21  0.166  0.333  0.189- 121 2.09 134 2.24 112 2.53  30 3.12  12 3.13
  22  0.952  0.829  0.060-  79 2.13 115 2.36  99 2.38 107 2.49  46 2.72  35 2.92   6 3.12
  23  0.394  0.064  0.583- 126 2.18 129 2.27 108 2.38  43 2.87
  24  0.002  0.490  0.302- 135 2.22 121 2.38  96 2.56  32 3.06
  25  0.744  0.763  0.555- 122 2.13  29 3.14
  26  0.246  0.434  0.909-  78 2.16  98 2.17  49 2.74  37 3.12
  27  0.375  0.317  0.373-  83 2.32 105 2.45 128 2.54 134 2.55  34 3.01
  28  0.029  0.766  0.486- 131 1.64 133 1.72  70 1.87 125 2.06  29 2.62  53 2.94
  29  0.912  0.930  0.504-  57 1.57 125 1.72  70 1.81 118 1.91  87 2.13  44 2.30  28 2.62  25 3.14

  30  0.994  0.427  0.049- 121 1.53  76 1.56  80 1.66  96 1.92  46 2.60  32 3.02  21 3.12
  31  0.529  0.987  0.979- 130 1.59  59 1.60  89 1.68  66 1.71  11 2.97  51 2.99  39 3.09
  32  0.902  0.294  0.217- 135 1.55  96 1.63  93 1.67 124 2.04  30 3.02  24 3.06  18 3.13
  33  0.292  0.675  0.230- 120 1.57 117 1.68  84 1.68  82 1.75   1 2.90  38 2.92  52 2.98
  34  0.223  0.405  0.526- 123 1.51 116 1.55  56 1.61  58 1.99  37 3.01  27 3.01
  35  0.961  0.054  0.076- 115 1.57 124 1.67  79 1.74 100 1.75  22 2.92
  36  0.152  0.991  0.728- 106 1.52  63 1.58 103 1.83  44 3.10
  37  0.156  0.533  0.708- 111 1.53  78 1.58 123 1.60 109 1.66   5 2.90  34 3.01  10 3.01  26 3.12

[...]

  52  0.197  0.708  0.023-  77 1.59  60 1.60  61 1.63 117 1.74  33 2.98  15 3.09  46 3.13
  53  0.948  0.570  0.568-  72 1.57 109 1.71 122 1.77 131 1.91  28 2.94
  54  0.279  0.099  0.289-  83 1.59 134 1.65  88 1.71  74 1.74  12 2.94   9 3.10
  55  0.179  0.233  0.870-  45 1.66  20 2.22
  56  0.201  0.408  0.403-  34 1.61
  57  0.803  0.973  0.473-  29 1.57   2 2.20  18 2.43
  58  0.110  0.306  0.555-  34 1.99  20 2.25  12 2.35
  59  0.566  0.006  0.862-  31 1.60  39 1.70
  60  0.101  0.640  0.062-  52 1.60  46 1.81
  61  0.278  0.633  0.961-  52 1.63  15 2.01
  62  0.697  0.182  0.423-  42 1.61  16 2.35  18 2.45
  63  0.182  0.037  0.837-  36 1.58
  64  0.725  0.350  0.865-  40 1.64  48 2.14  14 2.23
  65  0.492  0.502  0.251-  38 1.58  13 2.24   1 2.56
  66  0.522  0.873  0.046-  31 1.71  51 1.93
  67  0.697  0.472  0.061-  48 1.71  13 2.31   8 2.51
  68  0.597  0.543  0.475-  50 1.58  41 1.85
  69  0.594  0.751  0.182-  51 1.65   8 2.30
  70  0.011  0.890  0.413-  29 1.81  28 1.87   9 2.38
  71  0.693  0.383  0.422-  42 1.62  50 1.84  16 2.30
  72  0.908  0.456  0.554-  53 1.57
  73  0.398  0.589  0.542-  41 1.58  10 2.02   1 2.51
  74  0.151  0.069  0.319-  54 1.74  12 2.21   9 2.22
  75  0.726  0.424  0.605-  50 1.68  14 2.10  16 2.23
  76  0.025  0.329  0.986-  30 1.56  45 1.66
  77  0.161  0.807  0.958-  52 1.59   7 2.52
  78  0.128  0.449  0.792-  37 1.58  26 2.16
  79  0.011  0.954  0.150-  35 1.74  22 2.13
  80  0.926  0.497  0.965-  30 1.66  46 1.86
  81  0.892  0.153  0.652-  44 1.55  19 2.38
  82  0.411  0.738  0.244-  33 1.75   1 2.08  17 2.09
  83  0.349  0.139  0.382-  54 1.59  27 2.32
  84  0.294  0.555  0.182-  38 1.66  33 1.68
  85  0.454  0.520  0.053-  38 1.70  49 1.78
  86  0.406  0.556  0.861-  49 1.59  15 2.00
  87  0.960  0.957  0.659-  44 1.61 125 1.89  29 2.13
  88  0.302  0.002  0.203-  54 1.71   7 2.50
  89  0.629  0.002  0.060-  31 1.68  51 2.10  11 2.16
  90  0.557  0.236  0.824-  40 1.80  39 1.82   3 2.41
  91  0.736  0.591  0.876-  48 1.70   6 2.21  14 2.40
  92  0.719  0.133  0.835-  39 1.70  40 1.89  19 2.22
  93  0.788  0.238  0.245-  32 1.67  18 2.27
  94  0.662  0.812  0.747-  47 1.59
  95  0.921  0.646  0.146-  46 1.83   8 2.49
  96  0.896  0.405  0.158-  32 1.63  30 1.92  24 2.56
  97  0.548  0.699  0.636-  41 1.61  47 1.85
  98  0.396  0.359  0.895-  49 1.61  26 2.17   4 2.42
  99  0.941  0.702  0.928-  46 1.55   6 2.21  22 2.38
 100  0.051  0.135  0.015-  45 1.59  35 1.75
 101  0.629  0.956  0.224-  51 1.77  11 2.30  17 2.36
 102  0.578  0.460  0.881-  48 1.45  49 1.69
 103  0.080  0.082  0.647-  44 1.63  36 1.83  20 2.38
 104  0.523  0.489  0.635-  41 1.54  50 1.96   3 2.46
 105  0.521  0.332  0.493-  42 1.79  50 1.93  27 2.45
 106  0.177  0.892  0.669-  36 1.52   5 2.47
 107  0.760  0.824  0.075-  51 1.71   6 2.32  22 2.49
 108  0.554  0.099  0.667-  39 1.65  23 2.38   2 2.45
 109  0.049  0.577  0.653-  37 1.66  53 1.71
 110  0.567  0.883  0.578-  43 1.61  47 1.70   2 2.00
 111  0.205  0.630  0.755-  37 1.53   5 2.03
[...]
 121  0.071  0.452  0.135-  30 1.53  21 2.09  24 2.38
 122  0.836  0.637  0.608-  53 1.77  25 2.13
 123  0.197  0.494  0.597-  34 1.51  37 1.60
 124  0.942  0.153  0.156-  35 1.67  32 2.04
 125  0.929  0.831  0.591-  29 1.72  87 1.89  28 2.06
 126  0.356  0.185  0.694-   3 2.17  23 2.18   4 2.51
 127  0.457  0.862  0.745-  47 1.43
 128  0.553  0.259  0.311-  42 1.63  13 2.39  27 2.54
 129  0.499  0.994  0.461-  43 1.58   2 2.11  23 2.27
 130  0.432  0.061  0.990-  31 1.59   4 2.10   7 2.46
 131  0.989  0.651  0.451-  28 1.64  53 1.91
 132  0.360  0.856  0.543-  43 1.67  10 2.52
 133  0.160  0.787  0.495-  28 1.72  10 2.30
 134  0.285  0.213  0.231-  54 1.65  21 2.24  27 2.55
 135  0.989  0.319  0.295-  32 1.55  24 2.22  12 2.48

IMPORTANT INFORMATION: All symmetrisations will be switched off!
NOSYMM: (Re-)initialisation of all symmetry stuff for point group C_1.

Automatic generation of k-mesh.
 generate k-points for:    2    2    2
Space group operators:
 irot       det(A)        alpha          n_x          n_y          n_z        tau_x        tau_y        tau_z
    1     1.000000     0.000000     1.000000     0.000000     0.000000     0.000000     0.000000     0.000000

 Subroutine IBZKPT returns following result:

 Found      8 irreducible k-points:

 Following reciprocal coordinates:
            Coordinates               Weight
  0.000000  0.000000  0.000000      1.000000
  0.500000  0.000000  0.000000      1.000000
  0.000000  0.500000  0.000000      1.000000
  0.500000  0.500000  0.000000      1.000000
  0.000000  0.000000  0.500000      1.000000
  0.500000  0.000000  0.500000      1.000000
  0.000000  0.500000  0.500000      1.000000
  0.500000  0.500000  0.500000      1.000000

 Following cartesian coordinates:
            Coordinates               Weight
  0.000000  0.000000  0.000000      1.000000
  0.038669  0.000000  0.000000      1.000000
  0.000000  0.038669  0.000000      1.000000
  0.038669  0.038669  0.000000      1.000000
  0.000000  0.000000  0.038669      1.000000
  0.038669  0.000000  0.038669      1.000000
  0.000000  0.038669  0.038669      1.000000
  0.038669  0.038669  0.038669      1.000000

 SYSTEM =  unknown system
 POSCAR =  Ca Si  O

 Startparameter for this run:
   NWRITE =      2    write-flag & timer
   PREC   = a         normal or accurate (medium, high low for compatibility)
   ISTART =      0    job   : 0-new  1-cont  2-samecut
   ICHARG =      2    charge: 1-file 2-atom 10-const
   ISPIN  =      1    spin polarized calculation?
   LNONCOLLINEAR =      F non collinear calculations
   LSORBIT =      F    spin-orbit coupling
   INIWAV =      1    electr: 0-lowe 1-rand  2-diag
   LASPH  =      F    aspherical Exc in radial PAW
   METAGGA=      F    non-selfconsistent MetaGGA calc.

 Electronic Relaxation 1
[...]
     0.000000000  0.000000000 12.930412990     0.000000000  0.000000000  0.077337050

  length of vectors
    12.930412990 12.930412990 12.930412990     0.077337050  0.077337050  0.077337050

 FORCES acting on ions
    electron-ion (+dipol)            ewald-force                    non-local-force                 convergence-correction
   -.658E+02 0.960E+02 0.215E+02   0.680E+02 -.927E+02 -.227E+02   -.131E+01 -.480E+01 0.165E+01   -.110E-03 0.636E-03 -.163E-03
   -.239E+03 -.106E+03 0.214E+01   0.235E+03 0.107E+03 -.329E+01   0.493E+01 0.195E+01 0.848E+00   -.161E-02 -.652E-03 -.119E-02
   -.601E+02 -.350E+02 -.469E+01   0.539E+02 0.327E+02 0.171E+01   0.503E+01 0.266E+01 0.198E+01   -.128E-02 0.199E-03 -.552E-04
   0.122E+03 0.997E+02 -.895E+02   -.123E+03 -.969E+02 0.854E+02   -.552E+00 -.632E+00 0.190E+01   -.106E-02 0.509E-03 -.956E-03
   0.198E+03 -.176E+03 -.924E+02   -.192E+03 0.175E+03 0.918E+02   -.600E+01 0.217E+01 0.915E+00   0.916E-03 -.309E-03 0.257E-03
   0.771E+02 -.142E+03 0.147E+03   -.788E+02 0.139E+03 -.148E+03   -.437E-01 0.357E+01 -.691E+00   0.133E-03 0.123E-03 0.162E-02
   0.905E+02 -.284E+02 0.857E+02   -.922E+02 0.294E+02 -.839E+02   0.649E+00 -.721E+00 -.128E+01   -.434E-03 -.393E-03 0.323E-03
   -.792E+02 0.257E+02 -.214E+03   0.788E+02 -.225E+02 0.211E+03   0.504E+00 -.298E+01 0.234E+01   0.105E-03 0.119E-02 0.111E-02
   0.764E+02 0.109E+03 0.248E+02   -.780E+02 -.104E+03 -.233E+02   0.135E+01 -.445E+01 -.139E+01   0.202E-04 -.821E-03 -.796E-03
   0.674E+02 -.104E+03 -.174E+02   -.660E+02 0.107E+03 0.142E+02   -.264E+01 -.442E+00 0.315E+01   0.604E-03 -.291E-03 -.631E-03
   -.745E+01 -.120E+03 -.754E+02   0.125E+02 0.118E+03 0.722E+02   -.451E+01 0.297E+01 0.325E+01   0.148E-03 -.138E-02 0.496E-03
   0.101E+03 0.707E+02 -.657E+02   -.100E+03 -.711E+02 0.704E+02   -.565E+00 0.731E+00 -.257E+01   0.669E-03 0.490E-03 0.115E-03
   -.179E+03 0.602E+01 0.246E+02   0.177E+03 -.708E+01 -.250E+02   0.214E+01 -.291E+00 -.521E-02   -.790E-03 0.694E-03 0.269E-04
   -.196E+03 -.519E+02 -.308E+02   0.194E+03 0.522E+02 0.270E+02   0.386E+01 0.648E+00 0.276E+01   -.121E-03 0.548E-03 -.360E-04
   -.229E+03 -.329E+03 0.551E+02   0.224E+03 0.322E+03 -.565E+02   0.582E+01 0.836E+01 0.129E+01   -.875E-03 -.308E-03 0.835E-03
   -.206E+03 0.650E+02 -.570E+02   0.206E+03 -.608E+02 0.583E+02   0.247E+01 -.363E+01 -.303E+00   -.322E-04 0.492E-03 -.129E-03
   0.480E+02 -.128E+03 -.341E+02   -.458E+02 0.124E+03 0.336E+02   -.167E+01 0.459E+01 0.814E+00   0.377E-03 -.832E-03 0.140E-03
   -.503E+02 0.184E+03 0.144E+03   0.475E+02 -.181E+03 -.145E+03   0.241E+01 -.350E+01 0.214E+00   -.168E-03 -.110E-02 -.125E-02
   0.809E+02 0.176E+03 -.121E+03   -.784E+02 -.170E+03 0.121E+03   -.102E+01 -.525E+01 -.393E-02   0.116E-02 0.427E-03 0.143E-02
   0.204E+02 -.742E+02 0.100E+03   -.197E+02 0.734E+02 -.102E+03   0.536E+00 0.155E+01 -.295E+00   0.164E-02 0.380E-03 0.590E-03
   -.128E+02 0.899E+02 0.672E+02   0.197E+02 -.897E+02 -.684E+02   -.392E+01 -.117E+01 0.112E+01   0.227E-03 0.523E-03 -.213E-03
   0.632E+01 -.342E+02 -.965E+02   -.632E+01 0.400E+02 0.992E+02   0.127E+00 -.457E+01 -.174E+01   0.304E-03 0.893E-04 0.122E-02
   0.233E+03 0.332E+02 -.510E+01   -.233E+03 -.296E+02 0.717E+01   -.180E+01 -.299E+01 -.168E+01   -.398E-03 0.173E-03 -.718E-04
   0.136E+03 -.287E+03 -.196E+03   -.135E+03 0.285E+03 0.193E+03   -.118E+01 0.353E+01 0.314E+01   0.774E-03 0.987E-03 -.796E-03
   -.892E+02 0.508E+02 0.153E+03   0.911E+02 -.558E+02 -.147E+03   -.253E+01 0.416E+01 -.479E+01   -.103E-02 -.405E-03 -.145E-02
   0.127E+03 0.239E+02 -.938E+02   -.127E+03 -.239E+02 0.896E+02   -.120E+01 0.624E+00 0.474E+01   -.440E-03 -.502E-03 -.241E-03
   -.288E+00 -.587E+02 0.423E+02   0.424E+00 0.540E+02 -.413E+02   0.172E+00 0.400E+01 -.990E+00   -.276E-03 0.410E-03 0.606E-03
   0.565E+02 0.235E+02 0.378E+02   -.473E+02 -.246E+02 -.389E+02   -.556E+01 0.460E+01 0.108E+01   0.430E-03 -.211E-03 -.343E-03
   0.212E+02 0.652E+02 0.614E+02   -.254E+02 -.660E+02 -.630E+02   0.964E+01 -.392E+00 0.122E+01   0.171E-03 -.304E-03 -.502E-03
   0.733E+02 -.150E+02 0.484E+02   -.670E+02 0.128E+02 -.466E+02   -.111E+02 0.992E+00 -.139E+01   0.315E-03 0.175E-03 -.186E-03
   0.366E+00 0.639E+02 0.524E+02   0.334E+01 -.590E+02 -.475E+02   -.102E-01 -.609E+01 -.227E+01   -.445E-04 -.252E-03 0.384E-03
   0.647E+02 0.485E+02 0.454E+02   -.674E+02 -.432E+02 -.395E+02   -.167E+01 -.951E+01 -.866E+01   0.321E-03 -.760E-04 -.382E-03
   0.134E+02 0.125E+02 -.216E+02   -.211E+02 -.929E+01 0.279E+02   0.800E+01 -.120E+01 -.694E+01   0.984E-04 0.170E-03 0.166E-03
   0.602E+02 0.224E+02 0.372E+02   -.528E+02 -.225E+02 -.341E+02   -.991E+01 -.613E+01 -.402E+01   0.286E-03 -.582E-04 0.498E-04
   0.461E+02 0.291E+01 -.238E+02   -.454E+02 -.631E+01 0.208E+02   0.369E+01 0.499E+01 0.506E+01   0.268E-03 -.238E-03 0.125E-03
   -.212E+02 0.123E+02 -.276E+02   0.268E+02 -.198E+02 0.311E+02   -.733E+01 0.115E+02 -.429E+01   0.419E-03 0.256E-03 0.214E-03
   0.272E+02 0.283E+02 -.137E+02   -.280E+02 -.278E+02 0.187E+02   -.200E+01 -.394E+01 -.619E+01   0.243E-03 -.330E-03 0.121E-03
   -.163E+02 -.103E+01 -.326E+02   0.142E+02 -.387E+01 0.308E+02   -.105E+01 0.362E+01 -.221E+01   -.215E-03 0.208E-03 0.115E-03
   -.547E+02 0.494E+02 0.195E+02   0.521E+02 -.484E+02 -.226E+02   0.249E+00 -.628E+00 0.266E+01   -.643E-03 0.737E-04 0.321E-04
   -.115E+03 0.373E+02 -.873E+02   0.108E+03 -.314E+02 0.868E+02   0.244E+01 -.621E+01 0.999E+00   -.307E-03 -.124E-03 0.107E-03
   -.668E+02 -.669E+02 -.223E+02   0.583E+02 0.613E+02 0.277E+02   0.855E+01 0.730E+01 -.583E+01   -.354E-03 0.191E-03 -.383E-03
   0.227E+01 0.369E+02 -.144E-01   -.101E+01 -.378E+02 -.643E+01   -.493E+01 -.405E+00 0.402E+01   -.613E-03 0.679E-04 -.742E-05
   0.879E+02 0.443E+02 0.615E+02   -.871E+02 -.412E+02 -.589E+02   -.276E+01 -.715E+01 -.319E+01   -.231E-03 -.437E-03 -.423E-03
   0.390E+02 -.256E+02 0.191E+02   -.374E+02 0.262E+02 -.149E+02   0.175E+01 0.801E+00 -.658E-01   0.555E-03 0.144E-04 -.653E-04
   0.833E+01 0.200E+02 -.558E+02   -.967E+01 -.246E+02 0.494E+02   0.196E+01 0.380E+01 0.487E+01   0.483E-03 0.945E-04 0.662E-04
   0.112E+02 0.389E+02 -.665E+01   -.139E+02 -.315E+02 0.519E+01   0.409E+01 -.105E+02 0.653E+01   0.259E-03 -.402E-04 0.513E-03
   -.343E+02 0.295E+02 -.814E+02   0.274E+02 -.247E+02 0.915E+02   0.131E+02 -.933E+01 -.141E+02   -.406E-03 -.137E-03 -.362E-03
   -.789E+02 -.465E+02 -.533E+02   0.716E+02 0.478E+02 0.528E+02   0.162E+02 0.226E+00 0.629E+01   -.945E-04 0.132E-03 0.281E-03
   -.674E+02 0.159E+02 -.516E+02   0.587E+02 -.121E+02 0.425E+02   0.865E+01 -.262E+01 0.969E+01   -.439E-03 -.976E-04 -.604E-04
   -.344E+02 0.274E+01 -.162E+02   0.380E+02 0.487E+01 0.152E+02   -.406E+01 -.906E+01 0.264E+01   -.608E-03 0.303E-03 -.495E-04
   -.103E+03 0.954E+01 0.604E+01   0.101E+03 -.142E+02 0.746E+00   0.218E+00 0.813E+01 -.695E+01   -.189E-05 -.784E-04 0.467E-03
   0.144E+02 -.419E+02 0.251E+00   -.149E+02 0.414E+02 -.604E+01   0.241E+01 -.119E+00 0.628E+01   -.261E-04 -.103E-03 0.193E-03
   0.959E+01 -.413E+02 0.536E+02   -.183E+02 0.304E+02 -.497E+02   0.656E+01 0.129E+02 -.260E+01   0.346E-03 0.461E-04 -.138E-03
   -.135E+01 0.785E+02 0.236E+02   0.209E+01 -.705E+02 -.219E+02   -.279E+01 -.775E+01 -.372E+01   0.967E-04 -.121E-03 -.134E-04
   -.924E+02 0.430E+02 -.775E+02   0.115E+03 -.454E+02 0.660E+02   -.222E+02 0.390E+01 0.142E+02   0.826E-03 0.272E-03 -.582E-04
   0.650E+02 -.122E+03 0.869E+02   -.710E+02 0.127E+03 -.111E+03   0.626E+01 -.509E+01 0.221E+02   0.171E-03 0.257E-03 -.431E-03
   0.358E+02 0.892E+02 0.997E+02   -.599E+02 -.783E+02 -.107E+03   0.228E+02 -.120E+02 0.714E+01   -.501E-03 -.538E-03 -.918E-03
   0.102E+03 0.212E+01 0.105E+02   -.112E+03 -.594E+01 -.820E+01   0.128E+02 0.471E+01 -.344E+01   0.683E-03 0.200E-03 0.183E-03
   -.596E+02 0.132E+03 0.468E+02   0.632E+02 -.148E+03 -.615E+02   -.304E+01 0.179E+02 0.119E+02   -.489E-03 0.245E-03 -.137E-03
   0.587E+02 0.138E+02 -.666E+02   -.612E+02 -.295E+02 0.884E+02   -.209E+01 0.143E+02 -.232E+02   0.341E-03 -.272E-03 0.383E-03
[...]
   0.177E+02 -.524E+01 -.331E+02   -.324E+02 0.105E+02 0.409E+02   0.171E+02 -.639E+01 -.815E+01   -.217E-03 0.389E-04 -.205E-04
   0.450E+02 -.353E+02 0.602E+02   -.444E+02 0.493E+02 -.644E+02   -.115E+01 -.907E+01 0.619E+01   0.642E-03 0.121E-03 0.817E-05
   0.569E+02 0.300E+02 0.210E+01   -.532E+02 -.216E+02 0.795E+01   -.543E+01 -.746E+01 -.805E+01   0.609E-03 -.211E-03 -.900E-04
   0.514E+02 0.146E+03 -.714E+02   -.503E+02 -.153E+03 0.975E+02   -.149E+01 0.211E+01 -.324E+02   0.410E-03 -.485E-03 -.738E-03
   0.135E+03 0.732E+02 0.587E+01   -.141E+03 -.724E+02 -.678E+01   0.600E+01 -.133E+01 0.206E+01   -.752E-03 0.211E-03 0.302E-03
   0.160E+03 -.136E+02 -.161E+03   -.199E+03 0.291E+02 0.179E+03   0.322E+02 -.137E+02 -.129E+02   -.108E-02 0.330E-03 -.248E-03
   0.147E+02 0.805E+02 0.994E+02   -.299E+02 -.892E+02 -.117E+03   0.151E+02 0.928E+01 0.166E+02   -.864E-03 -.215E-03 -.532E-04
   0.444E+02 -.109E+03 0.185E+03   -.423E+02 0.138E+03 -.198E+03   -.303E+01 -.261E+02 0.105E+02   -.281E-03 0.212E-03 -.890E-03
   0.914E+02 -.681E+01 -.610E+02   -.109E+03 0.248E+02 0.667E+02   0.159E+02 -.192E+02 -.407E+01   -.656E-03 -.947E-04 0.366E-04
   0.911E+02 0.245E+02 0.167E+03   -.946E+02 -.398E+02 -.186E+03   0.272E+01 0.136E+02 0.206E+02   0.920E-03 0.156E-03 -.530E-03
   0.154E+03 -.327E+02 -.219E+02   -.181E+03 0.299E+02 0.337E+02   0.289E+02 0.300E+01 -.135E+02   -.183E-03 -.405E-03 -.147E-03
   0.115E+01 -.489E+02 0.514E+02   0.225E+02 0.586E+02 -.521E+02   -.279E+02 -.115E+02 0.127E+01   0.592E-03 -.354E-03 -.260E-03
   -.361E+02 0.402E+02 0.158E+03   0.437E+02 -.216E+02 -.172E+03   -.946E+01 -.181E+02 0.136E+02   -.946E-04 0.518E-03 -.560E-04
   0.504E+02 0.396E+02 -.122E+03   -.311E+02 -.354E+02 0.143E+03   -.164E+02 -.518E+01 -.177E+02   0.132E-02 0.491E-05 -.670E-04
   -.537E+02 0.653E+02 -.348E+02   0.604E-13 -.909E-12 -.483E-12   0.537E+02 -.653E+02 0.348E+02   -.827E-03 -.270E-02 -.166E-03

 POSITION                                       TOTAL-FORCE (eV/Angst)
      5.99896      8.48720      4.82080         0.901013     -1.451154      0.463494
      8.36009      0.08367      6.85177         0.922272      3.707643     -0.303533
      5.89798      4.14059      8.94188        -1.202038      0.312201     -0.998597
      4.83237      2.24254     11.47542        -1.555949      2.078963     -2.242398
      1.24656      9.61480      9.79345        -0.768988      1.934111      0.371989
     10.06191      9.72893     11.78795        -1.750199      0.620871     -1.866813
      3.67535     12.22108      0.24288        -1.063548      0.351399      0.541494
      9.41792      8.26698      1.98078         0.144608      0.313400     -0.146239
      1.91445     11.62163      3.76017        -0.267639     -0.041717      0.069116
      3.59438      8.82528      7.45787        -1.225559      2.365074     -0.011158
      7.30361      1.44472      2.17880         0.562358      0.961251      0.115228
      1.50327      2.81367      5.11695        -0.217243      0.396329      2.038977
      7.82870      5.00473      2.44028         0.414116     -1.357813     -0.436312
     10.16038      5.99278      9.69947         1.268250      1.026972     -1.051375
      5.36881      9.00016     11.96784         1.345373      1.625257     -0.130268
     10.34973      3.73596      6.83199         2.402260      0.619033      1.060378
      5.97205     11.51993      3.30232         0.553583      0.099263      0.324392
     10.77203      1.16850      4.25491        -0.418995      0.081342     -0.696413
     11.29178      0.80871     10.48673         1.477747      0.787915      0.426145
      1.28878      3.24351      9.29977         1.225115      0.671541     -2.062519
      2.15085      4.29954      2.43842         3.032933     -0.995884     -0.128735
     12.30962     10.71506      0.78017         0.129539      1.236859      0.973463
      5.09245      0.82477      7.53695        -1.133903      0.651126      0.390479
      0.02643      6.34188      3.89878         0.607857      1.266410     -0.097557
      9.61830      9.86149      7.17603        -0.655932     -0.854822      1.264712
      3.18578      5.61167     11.74902        -0.962681      0.615317      0.457423
      4.85306      4.09308      4.82131         0.308025     -0.724671     -0.010869
      0.37528      9.90180      6.27988         3.650083      3.554389     -0.004228
     11.79673     12.02887      6.51962         5.457142     -1.199705     -0.317604
     12.85005      5.52134      0.62850        -4.776951     -1.205323      0.395386
      6.83949     12.76178     12.65698         3.693479     -1.198567      2.653453
     11.66165      3.79691      2.80248        -4.365131     -4.235496     -2.741904
      3.77872      8.72455      2.97270         0.310793      1.968231     -0.577026
      2.88748      5.23907      6.79614        -2.480739     -6.221956     -0.847520
     12.42522      0.69921      0.98040         4.468067      1.595622      2.047470
      1.96863     12.81496      9.41814        -1.696401      4.114387     -0.746124
      2.01751      6.89380      9.15039        -2.771513     -3.450643     -1.192470
      5.20761      6.30434      2.18879        -3.203193     -1.279615     -4.041830
      7.75864      1.38995     10.15801        -2.299440      0.366996     -0.510894
      8.61246      3.19620     11.77225        -3.796139     -0.349345      0.509703
      6.64477      7.68279      7.49978        -0.028216      1.692452     -0.471010
      8.03793      3.62861      5.34533        -3.665589     -1.283154     -2.415737
      6.16131     11.36007      6.37257        -1.991514     -4.001582     -0.519016
     12.44461      0.89166      7.80630         3.422945      1.371104      4.044508
      0.83793      2.86210     12.00113         0.627591     -0.813393     -1.570024
     12.54606      8.06888      0.18735         1.367053     -3.091841      5.074522
      7.12051     10.71848      9.00470         6.123333     -4.504718     -3.933782
      8.69052      6.35773     12.06469         8.900396      1.503533      5.772944
      5.88683      6.00306     11.98765        -0.007007      1.181196      0.648442
      8.01447      5.65252      6.86122        -0.456530     -1.443451      1.708817
      8.32647     11.07569      1.69064        -1.024593      3.496386     -0.157578
      2.54814      9.15861      0.29390         1.884825     -0.576079      0.491017
     12.25545      7.36574      7.34094        -2.125581      2.125569      1.325430
      3.60436      1.28477      3.73847        -2.039290      0.266832     -2.059055
      2.31102      3.00814     11.25217         0.406872      1.492250      2.655523
      2.59464      5.27115      5.21554         0.305596     -0.257965     -2.405751
     10.38547     12.58531      6.11715        -1.239810     -1.125372     -0.635627
      1.42135      3.95404      7.17408         2.181963      0.889590     -1.097017
      7.32304      0.07609     11.15205         0.613943      1.342902     -2.716979
      1.31069      8.27960      0.79795        -4.627449     -1.284038     -1.417877
[...]
      0.91382      5.84140      1.74602         2.604757      2.067717      1.335455
     10.80536      8.23418      7.86725         2.434996     -1.179801     -0.275335
      2.54229      6.38640      7.72106        -0.592243      4.954301      2.023365
     12.18338      1.98321      2.01810        -1.759253      0.990518      1.999605
     12.01535     10.74929      7.64415        -0.442972     -5.330267     -6.287961
      4.60861      2.39006      8.98012         0.201804     -0.465750      1.155201
      5.90303     11.14164      9.63219        -7.174949      1.737083      4.590133
      7.14782      3.34459      4.01538        -0.110873      0.648270     -1.419765
      6.45861     12.85320      5.96007        -0.913520      1.996716     -2.834466
      5.58420      0.79478     12.80144        -1.778308     -1.163754      1.581059
     12.78492      8.41269      5.82967        -0.841310     -1.712596      1.187417
      4.65319     11.07460      7.01808         2.334028      0.193574     -1.714153
      2.06583     10.18221      6.39947        -4.305049     -1.783189      0.536998
      3.68436      2.75715      2.99260        -1.942325      0.523712     -0.704026
     12.79113      4.12924      3.81045         2.905147     -0.940120      2.825973
    total drift:                               -0.010080      0.006386      0.012895

  FREE ENERGIE OF THE ION-ELECTRON SYSTEM (eV)
  free  energy   TOTEN  =      -927.85366028 eV

  energy  without entropy=     -927.85366028  energy(sigma->0) =     -927.85366028