 vasp.5.4.4.18Apr17-6-g9f103f2a35 (build Oct 31 2019 15:01:46) complex

 executed on             LinuxIFC date 2024.04.29  18:06:29

 INCAR:
 POTCAR:    PAW_PBE Ca_sv 06Sep2000
 POTCAR:    PAW_PBE Si 05Jan2001
 POTCAR:    PAW_PBE O 08Apr2002
 POTCAR:    PAW_PBE Ca_sv 06Sep2000
   VRHFIN =Ca: 3s3p4s

   TITEL  = PAW_PBE Ca_sv 06Sep2000
   POMASS =   40.078; ZVAL   =   10.000    mass and valenz
   ENMAX  =  266.622; ENMIN  =  199.967 eV

   TITEL  = PAW_PBE Si 05Jan2001
   POMASS =   28.085; ZVAL   =    4.000    mass and valenz
   ENMAX  =  245.345; ENMIN  =  184.009 eV

   TITEL  = PAW_PBE O 08Apr2002
   POMASS =   16.000; ZVAL   =    6.000    mass and valenz
   ENMAX  =  400.000; ENMIN  =  300.000 eV

 Optimization of the real space projectors (new method)

 maximal supplied QI-value         = 16.25
 optimisation between [QCUT,QGAM] = [ 12.51, 25.03] = [ 43.85,175.40] Ry
 Optimized for a Real-space Cutoff    1.47 Angstroem

   l    n(q)    QCUT    max X(q) W(low)/X(q) W(high)/X(q)  e(spline)
   0     11    12.514    11.817    0.25E-04    0.32E-05    0.87E-07
   0     11    12.514     8.461    0.39E-04    0.59E-05    0.18E-06
   1     11    12.514     3.957    0.97E-05    0.57E-05    0.28E-07
   1     11    12.514     4.314    0.42E-04    0.14E-04    0.23E-06
   2     10    12.514    14.565    0.79E-04    0.50E-03    0.16E-05
   2     10    12.514    14.552    0.75E-04    0.48E-03    0.15E-05
 Optimization of the real space projectors (new method)

[...]

   l    n(q)    QCUT    max X(q) W(low)/X(q) W(high)/X(q)  e(spline)
   0      9    12.501   159.560    0.10E-03    0.83E-04    0.71E-07
   0      9    12.501   115.863    0.99E-04    0.81E-04    0.70E-07
   1      8    12.501    88.339    0.20E-03    0.25E-03    0.76E-07
   1      8    12.501    48.592    0.20E-03    0.24E-03    0.75E-07
 Optimization of the real space projectors (new method)

 maximal supplied QI-value         = 24.76
 optimisation between [QCUT,QGAM] = [ 12.38, 25.00] = [ 42.90,175.06] Ry
 Optimized for a Real-space Cutoff    1.16 Angstroem

   l    n(q)    QCUT    max X(q) W(low)/X(q) W(high)/X(q)  e(spline)
   0      9    12.378    20.381    0.16E-03    0.67E-05    0.31E-06
   0      9    12.378    15.268    0.17E-03    0.81E-05    0.33E-06
   1      8    12.378     5.964    0.20E-03    0.16E-03    0.30E-06
   1      8    12.378     5.382    0.18E-03    0.14E-03    0.26E-06
  PAW_PBE Ca_sv 06Sep2000               :
  PAW_PBE Si 05Jan2001                  :
  PAW_PBE O 08Apr2002                   :

 POSCAR: Ca Si  O
  positions in direct lattice
 exchange correlation table for  LEXCH =        8
   RHO(1)=    0.500       N(1)  =     2000
   RHO(2)=  100.500       N(2)  =     4000

 ion  position               nearest neighbor table
   1  0.123  0.105  0.569- 112 2.20  91 2.40  66 2.49  50 2.91
   2  0.534  0.998  0.242-  79 2.16  89 2.35  60 2.35  73 2.47  56 2.48  28 2.91  29 3.14
   3  0.928  0.256  0.457- 111 2.31  63 2.57
   4  0.593  0.659  0.754- 106 2.11 134 2.35
   5  0.227  0.863  0.804-  91 2.11 105 2.12  68 2.40  38 2.87
   6  0.445  0.513  0.202- 133 1.89  80 2.32 117 2.44  78 2.45  43 2.78
   7  0.243  0.530  0.908-  78 2.05  88 2.43  43 2.73  20 3.08
   8  0.665  0.193  0.430-  74 2.10  87 2.15  60 2.35 132 2.48 123 2.57  35 2.90  30 3.09  10 3.13

   9  0.248  0.832  0.252-  89 2.19 131 2.29  62 2.45  44 2.97  28 3.10
  10  0.728  0.155  0.191- 109 2.09  94 2.12 123 2.21  79 2.46  60 2.50  37 2.64  31 2.86   8 3.13

[...]

  23  0.483  0.737  0.470-  86 2.08 106 2.30 113 2.53  32 3.13
  24  0.688  0.474  0.085-  98 2.10  80 2.31 101 2.48  57 2.56  12 3.08
  25  0.016  0.062  0.955- 119 2.20  64 2.22  59 2.33  81 2.35 120 2.39  38 2.97  50 3.08  51 3.10
                            31 3.13
  26  0.512  0.004  0.945-  79 2.19 126 2.47 102 2.50  37 2.95
  27  0.793  0.262  0.938-  59 2.01  94 2.25 121 2.42  98 2.48  34 2.70  47 3.13  37 3.16
  28  0.318  0.057  0.177-  89 1.60 108 1.63 110 2.04  85 2.11  38 2.63  46 2.90   2 2.91   9 3.10

[...]

  44  0.238  0.649  0.403-  62 1.67  96 1.70  99 1.74 113 1.82  40 2.70   9 2.97  39 2.97
  45  0.520  0.904  0.678- 102 1.44  75 1.60 106 1.74  15 3.02
  46  0.132  0.086  0.312-  85 1.65 112 1.84  84 1.89 103 2.38  51 2.69  28 2.90
  47  0.815  0.416  0.742-  92 1.53  67 1.61 114 1.65 121 1.92  14 3.03  27 3.13
  48  0.861  0.828  0.554- 130 1.52 107 1.56  55 1.57 116 1.99  22 2.89  11 2.91  53 2.93
  49  0.917  0.599  0.073-  69 1.52 101 1.63  57 1.69 124 2.03  14 2.90  12 3.02  19 3.11  41 3.14

  50  0.005  0.978  0.724-  65 1.56  97 1.69  91 1.83 107 1.90   1 2.91  25 3.08  42 3.08
  51  0.032  0.200  0.160- 103 1.67 120 1.69  84 1.71 109 1.77 129 2.29  46 2.69  34 2.82  20 2.93
                            25 3.10
  52  0.902  0.869  0.142-  64 1.52 125 1.67  93 1.73 124 2.15 127 2.19  31 2.35  19 2.78
  53  0.757  0.920  0.366- 116 1.50  60 1.64  93 1.70  71 1.80  48 2.93
  54  0.470  0.258  0.185- 123 1.62  95 1.75 108 1.76 117 1.86  37 2.23
  55  0.897  0.764  0.453-  48 1.57  19 2.09  11 2.50
  56  0.501  0.068  0.424-  29 1.67   2 2.48
  57  0.836  0.580  0.179-  49 1.69  12 2.05  19 2.31  24 2.56
  58  0.787  0.720  0.822-  41 1.57  14 2.14  22 2.25
  59  0.947  0.230  0.911-  34 1.53  27 2.01  25 2.33
  60  0.690  0.030  0.341-  53 1.64   8 2.35   2 2.35  10 2.50
  61  0.644  0.708  0.002-  41 1.53  33 1.65
  62  0.341  0.675  0.322-  44 1.67   9 2.45
  63  0.110  0.346  0.484-  39 1.74  18 2.20   3 2.57
  64  0.927  0.940  0.047-  52 1.52  31 1.77  25 2.22
  65  0.954  0.907  0.814-  50 1.56  22 2.43
  66  0.307  0.125  0.499-  29 1.61  15 2.37   1 2.49
  67  0.934  0.462  0.747-  47 1.61  14 2.23  13 2.28
  68  0.179  0.719  0.687-  40 1.67   5 2.40
  69  0.020  0.606  0.010-  49 1.52  17 2.39  14 2.46
  70  0.383  0.142  0.809-  36 1.57  15 1.96
  71  0.678  0.801  0.364-  53 1.80
  72  0.431  0.709  0.102-  43 1.65  33 1.70
  73  0.393  0.934  0.364-  29 1.57   2 2.47
  74  0.631  0.350  0.476-  35 1.68  30 1.86   8 2.10
  75  0.397  0.935  0.663-  45 1.60  15 2.30
  76  0.357  0.563  0.676-  32 1.53  40 1.86
  77  0.175  0.256  0.715-  36 1.75  13 2.03
  78  0.323  0.513  0.050-  43 1.68   7 2.05   6 2.45
  79  0.584  0.066  0.092-  37 1.80   2 2.16  26 2.19  10 2.46
  80  0.521  0.532  0.034-  33 1.70  24 2.31   6 2.32
  81  0.180  0.110  0.876-  36 1.89  38 2.22  25 2.35
  82  0.742  0.889  0.946-  31 1.93  41 2.00  22 2.38
  83  0.946  0.486  0.481-  39 1.82  11 2.44
  84  0.066  0.068  0.177-  51 1.71  46 1.89
  85  0.256  0.048  0.334-  46 1.65  29 1.85  28 2.11
  86  0.525  0.576  0.468-  32 2.04  23 2.08
  87  0.753  0.307  0.335-  30 1.93   8 2.15  12 2.47
  88  0.095  0.406  0.935-  34 1.70  20 2.10   7 2.43
  89  0.366  0.939  0.180-  28 1.60   9 2.19   2 2.35
  90  0.083  0.479  0.299-  39 1.68
  91  0.146  0.961  0.693-  50 1.83   5 2.11   1 2.40
  92  0.723  0.436  0.821-  47 1.53
  93  0.838  0.880  0.265-  53 1.70  52 1.73  19 2.30
  94  0.746  0.114  0.028-  31 1.68  10 2.12  27 2.25  37 2.42
  95  0.464  0.282  0.047-  37 1.72  54 1.75
  96  0.253  0.528  0.463-  44 1.70  40 2.26  39 2.28
  97  0.994  0.110  0.750-  50 1.69  42 2.24
  98  0.656  0.310  0.073-  37 1.68  24 2.10  27 2.48
  99  0.116  0.710  0.378-  44 1.74  21 2.37
 100  0.404  0.378  0.538-  35 1.76  32 1.89  18 2.46
 101  0.847  0.535  0.984-  49 1.63  14 2.20  24 2.48
 102  0.581  0.945  0.767-  45 1.44  22 2.48  26 2.50
 103  0.106  0.264  0.251-  51 1.67  46 2.38
 104  0.126  0.554  0.583-  40 1.65  39 2.21  13 2.53
 105  0.326  0.918  0.931-  38 1.63   5 2.12
 106  0.531  0.769  0.644-  45 1.74   4 2.11  23 2.30
 107  0.945  0.904  0.607-  48 1.56  50 1.90
 108  0.362  0.174  0.215-  28 1.63  54 1.76
 109  0.893  0.174  0.173-  51 1.77  10 2.09
 110  0.313  0.106  0.022-  38 1.74  28 2.04
 111  0.860  0.156  0.595-  42 1.44   3 2.31
[...]
 121  0.812  0.263  0.746-  42 1.58  47 1.92  27 2.42
 122  0.729  0.535  0.348-  30 1.63  11 2.56  12 2.56
 123  0.570  0.207  0.249-  54 1.62  10 2.21  37 2.45   8 2.57
 124  0.839  0.739  0.050-  41 1.77  49 2.03  52 2.15
 125  0.992  0.773  0.164-  52 1.67  19 2.18  17 2.24
 126  0.558  0.193  0.911-  37 1.80  16 2.46  26 2.47
 127  0.739  0.932  0.135-  31 1.50  52 2.19
 128  0.741  0.058  0.714-  42 1.51  22 2.23
 129  0.957  0.349  0.086-  34 1.53  51 2.29  12 2.47
 130  0.767  0.787  0.618-  48 1.52  22 2.15
 131  0.201  0.672  0.177-  43 1.96   9 2.29  17 2.34
 132  0.548  0.202  0.590-  35 1.61  15 2.19   8 2.48
 133  0.563  0.443  0.265-  30 1.61   6 1.89
 134  0.487  0.717  0.897-  33 1.59   4 2.35
 135  0.552  0.398  0.671-  35 1.63  16 1.91  32 2.53

IMPORTANT INFORMATION: All symmetrisations will be switched off!
NOSYMM: (Re-)initialisation of all symmetry stuff for point group C_1.

Automatic generation of k-mesh.
 generate k-points for:    2    2    2
Space group operators:
 irot       det(A)        alpha          n_x          n_y          n_z        tau_x        tau_y        tau_z
    1     1.000000     0.000001     1.000000     0.000000     0.000000     0.000000     0.000000     0.000000

 Subroutine IBZKPT returns following result:

 Found      8 irreducible k-points:

 Following reciprocal coordinates:
            Coordinates               Weight
  0.000000  0.000000  0.000000      1.000000
  0.500000  0.000000  0.000000      1.000000
  0.000000  0.500000  0.000000      1.000000
  0.500000  0.500000  0.000000      1.000000
  0.000000  0.000000  0.500000      1.000000
  0.500000  0.000000  0.500000      1.000000
  0.000000  0.500000  0.500000      1.000000
  0.500000  0.500000  0.500000      1.000000

 Following cartesian coordinates:
            Coordinates               Weight
  0.000000  0.000000  0.000000      1.000000
  0.039917  0.000000  0.000000      1.000000
  0.000000  0.039917  0.000000      1.000000
  0.039917  0.039917  0.000000      1.000000
  0.000000  0.000000  0.039917      1.000000
  0.039917  0.000000  0.039917      1.000000
  0.000000  0.039917  0.039917      1.000000
  0.039917  0.039917  0.039917      1.000000

 SYSTEM =  unknown system
 POSCAR =  Ca Si  O

 Startparameter for this run:
   NWRITE =      2    write-flag & timer
   PREC   = a         normal or accurate (medium, high low for compatibility)
   ISTART =      0    job   : 0-new  1-cont  2-samecut
   ICHARG =      2    charge: 1-file 2-atom 10-const
   ISPIN  =      1    spin polarized calculation?
   LNONCOLLINEAR =      F non collinear calculations
   LSORBIT =      F    spin-orbit coupling
   INIWAV =      1    electr: 0-lowe 1-rand  2-diag
   LASPH  =      F    aspherical Exc in radial PAW
   METAGGA=      F    non-selfconsistent MetaGGA calc.

 Electronic Relaxation 1
   ENCUT  =  600.0 eV  44.10 Ry    6.64 a.u.  25.02 25.02 25.02*2*pi/ulx,y,z
   ENINI  =  600.0     initial cutoff
   ENAUG  =  605.4 eV  augmentation charge cutoff
   NELM   =     60;   NELMIN=  2; NELMDL= -5     # of ELM steps
   EDIFF  = 0.1E-05   stopping-criterion for ELM
   LREAL  =      T    real-space projection
   NLSPLINE    = F    spline interpolate recip. space projectors
   LCOMPAT=      F    compatible to vasp.4.4
   GGA_COMPAT  = T    GGA compatible to vasp.4.4-vasp.4.6
   LMAXPAW     = -100 max onsite density
[...]
     0.000000000  0.000000000 12.526070000     0.000000000  0.000000000  0.079833499

  length of vectors
    12.526070000 12.526070000 12.526070000     0.079833499  0.079833499  0.079833499

 FORCES acting on ions
    electron-ion (+dipol)            ewald-force                    non-local-force                 convergence-correction
   -.169E+02 -.850E+02 0.160E+02   0.188E+02 0.850E+02 -.126E+02   -.102E+01 0.165E+01 -.928E+00   -.739E-03 -.702E-03 0.230E-02
   0.186E+02 0.331E+03 -.687E+02   -.154E+02 -.329E+03 0.727E+02   -.202E+01 -.253E+01 -.146E+01   0.470E-02 -.320E-02 0.330E-04
   -.147E+02 -.644E+01 -.291E+02   0.134E+02 0.816E+01 0.333E+02   0.939E+00 -.933E+00 -.367E+01   -.108E-02 0.249E-03 0.281E-03
   0.767E+02 0.150E+03 0.634E+02   -.787E+02 -.146E+03 -.633E+02   0.243E+01 -.526E+01 0.239E+00   -.118E-02 0.863E-03 0.222E-02
   -.645E+02 0.217E+03 0.112E+03   0.672E+02 -.216E+03 -.116E+03   -.173E+01 -.248E+01 0.254E+01   -.201E-03 -.268E-02 0.202E-03
   0.962E+02 -.164E+03 -.137E+03   -.969E+02 0.160E+03 0.137E+03   -.305E+01 0.516E+01 -.379E+00   0.782E-03 0.196E-02 -.221E-02
   -.432E+02 -.999E+02 0.278E+03   0.452E+02 0.956E+02 -.276E+03   -.238E+01 0.349E+01 -.438E+01   0.809E-03 0.213E-02 0.445E-04
   -.760E+02 0.120E+03 -.262E+03   0.726E+02 -.123E+03 0.262E+03   0.225E+01 -.141E+01 0.156E+01   0.687E-03 -.122E-02 -.823E-03
   0.504E+02 -.225E+02 -.116E+03   -.448E+02 0.150E+02 0.115E+03   -.498E+01 0.528E+01 0.115E+01   0.216E-03 -.419E-02 -.951E-03
   -.132E+03 -.436E+01 -.195E+03   0.135E+03 0.392E+01 0.196E+03   -.203E+01 0.282E+00 0.129E+01   -.111E-02 -.109E-02 -.383E-03
   0.761E+02 -.161E+02 0.418E+01   -.740E+02 0.109E+02 -.359E+01   -.199E+01 0.462E+01 -.231E+01   -.909E-03 0.446E-02 -.308E-02
   -.120E+03 0.399E+02 -.167E+03   0.121E+03 -.386E+02 0.170E+03   0.593E+00 -.346E+01 -.190E+00   -.103E-02 0.189E-02 -.106E-02
   -.329E+02 -.111E+03 0.601E+02   0.309E+02 0.109E+03 -.619E+02   0.117E+01 0.318E+01 0.103E+01   0.649E-03 0.133E-02 0.936E-03
   -.219E+03 -.108E+03 0.244E+03   0.216E+03 0.102E+03 -.243E+03   0.451E+01 0.454E+01 -.188E+01   0.140E-02 0.193E-02 0.138E-02
   -.327E+02 0.331E+02 0.681E+02   0.363E+02 -.342E+02 -.695E+02   -.191E+01 0.253E+00 -.212E+01   0.657E-03 -.162E-03 0.199E-02
   0.350E+02 -.111E+03 -.627E+02   -.372E+02 0.106E+03 0.629E+02   0.163E+01 0.258E+01 0.462E+01   -.655E-03 -.216E-03 0.235E-02
   0.524E+02 0.495E+02 0.170E+03   -.528E+02 -.530E+02 -.164E+03   -.326E+01 0.273E+01 -.484E+01   -.414E-03 -.215E-02 -.176E-02
   -.397E+02 0.825E+01 -.267E+02   0.406E+02 -.525E+01 0.261E+02   0.451E+00 -.266E+01 -.221E+00   0.524E-03 0.213E-02 0.358E-03
   0.391E+01 0.119E+03 -.139E+03   -.424E+01 -.116E+03 0.140E+03   -.444E-01 -.398E+01 -.167E+00   -.456E-02 0.190E-02 -.247E-03
   -.254E+03 -.105E+03 -.128E+03   0.253E+03 0.104E+03 0.129E+03   0.293E+01 0.880E+00 0.215E+01   0.332E-03 0.277E-02 -.148E-02
   -.731E+02 0.241E+02 -.307E+02   0.692E+02 -.288E+02 0.320E+02   0.272E+01 0.329E+01 -.297E+00   -.118E-02 -.204E-02 0.180E-02
   0.673E+02 -.309E+02 0.861E+02   -.677E+02 0.345E+02 -.832E+02   0.212E+00 -.126E+01 -.113E+01   0.337E-03 -.941E-03 0.315E-04
   -.915E+02 -.126E+03 0.535E+02   0.926E+02 0.124E+03 -.540E+02   -.110E+01 0.450E+01 -.108E+01   0.488E-02 0.119E-02 -.176E-02
   0.622E+02 -.161E+03 0.269E+02   -.657E+02 0.161E+03 -.303E+02   0.299E+01 0.156E+01 0.264E+01   -.768E-03 0.180E-02 -.764E-03
   0.204E+02 0.641E+02 0.118E+03   -.167E+02 -.620E+02 -.121E+03   -.338E+01 -.573E+00 0.975E+00   -.122E-02 -.128E-02 -.136E-02
   0.450E+02 0.209E+03 0.136E+03   -.441E+02 -.205E+03 -.138E+03   -.119E+01 -.412E+01 -.114E+00   0.156E-02 -.585E-04 -.211E-03
   0.134E+03 -.901E+02 0.164E+03   -.137E+03 0.866E+02 -.166E+03   -.161E+01 0.359E+01 0.132E+01   -.196E-02 0.164E-03 0.326E-03
   0.866E+02 -.899E+01 0.264E+02   -.763E+02 0.810E+01 -.281E+02   -.922E+01 0.344E+01 -.711E+00   0.157E-02 -.107E-03 -.527E-03
   0.212E+02 0.309E+02 -.102E+03   -.970E+01 -.325E+02 0.100E+03   -.722E+01 0.337E+01 0.114E+01   0.736E-03 -.361E-03 0.622E-03
   0.249E+02 -.383E+02 -.884E+02   -.225E+02 0.471E+02 0.816E+02   -.410E+00 -.102E+02 0.895E+01   0.651E-04 0.579E-03 -.483E-03
   -.294E+02 -.726E+01 0.915E+02   0.153E+02 0.163E+01 -.811E+02   0.107E+02 0.602E+01 -.174E+02   -.305E-03 -.662E-03 0.742E-04
   -.621E+02 -.135E+02 0.173E+02   0.598E+02 0.149E+02 -.137E+02   0.721E+01 -.669E+01 -.112E+02   -.201E-03 0.562E-03 0.591E-03
   0.300E+00 -.202E+02 -.165E+02   -.337E+01 0.189E+02 0.720E+01   0.247E+01 -.293E+00 0.871E+01   0.605E-04 0.527E-04 -.275E-04
   0.306E+01 -.134E+03 0.122E+03   -.346E+01 0.124E+03 -.115E+03   0.436E+01 0.117E+02 -.101E+02   -.189E-03 0.717E-03 -.138E-03
   0.243E+02 -.313E+02 0.145E+02   -.202E+02 0.274E+02 -.750E+01   -.385E+01 0.451E+01 -.603E+01   -.190E-04 0.233E-03 0.349E-03
   0.214E+02 -.650E+02 -.262E+01   -.169E+02 0.607E+02 0.132E+01   -.921E+01 0.743E+01 0.376E+01   0.328E-03 0.391E-03 0.567E-04
   0.449E+02 0.603E+01 0.463E+02   -.473E+02 -.151E+01 -.558E+02   0.294E+01 -.550E+01 0.849E+00   0.305E-05 0.241E-03 -.141E-02
   -.296E+02 -.404E+01 -.924E+01   0.325E+02 0.828E+00 0.493E+01   -.282E-01 0.709E+01 0.811E+00   0.908E-04 -.110E-02 -.136E-02
   0.584E+00 -.561E+02 -.271E+02   -.937E+01 0.492E+02 0.198E+02   0.513E+01 0.628E+01 0.903E+01   -.110E-04 0.597E-03 0.806E-04
   -.258E+02 0.209E+02 -.987E+02   0.136E+02 -.123E+02 0.966E+02   0.977E+01 -.613E+01 0.236E+01   -.522E-04 0.486E-03 0.763E-03
   0.338E+02 0.236E+02 0.153E+02   -.342E+02 -.197E+02 -.144E+02   0.481E+01 0.304E+01 0.397E+01   -.365E-03 -.283E-03 0.556E-03
   0.110E+02 0.267E+01 -.346E+02   -.191E+02 -.421E+01 0.190E+02   0.906E+01 0.247E+01 0.200E+02   -.149E-03 -.254E-03 0.272E-03
   -.826E+01 0.394E+02 -.102E+02   0.454E+01 -.329E+02 0.813E+01   -.110E+01 -.323E+01 0.532E+01   0.497E-03 0.518E-04 -.658E-03
   0.236E+02 0.121E+02 0.177E+02   -.181E+02 -.109E+02 -.197E+02   -.414E+01 -.885E+00 0.107E+01   0.136E-03 0.431E-04 0.820E-04
   -.119E+02 0.168E+02 0.122E+03   0.747E+01 -.151E+02 -.106E+03   -.137E+01 -.839E+01 -.200E+02   0.209E-03 -.611E-03 0.352E-04
   0.523E+02 -.191E+02 -.296E+02   -.510E+02 0.171E+02 0.325E+02   -.531E+01 0.209E+01 -.328E+01   -.843E-03 -.129E-03 0.582E-03
   0.137E+01 0.715E+02 0.894E+02   -.597E+01 -.561E+02 -.854E+02   0.467E+01 -.157E+02 -.706E+01   -.399E-04 -.269E-03 0.955E-03
   -.345E+01 0.199E+02 -.120E+02   0.381E+00 -.231E+02 0.105E+02   0.249E+01 0.757E+01 -.449E+01   -.104E-02 0.199E-04 -.968E-03
   -.495E+02 -.556E+01 -.749E+02   0.480E+02 0.141E+01 0.631E+02   -.454E+01 0.655E+01 0.121E+02   -.175E-03 0.446E-03 -.252E-03
   -.180E+02 0.278E+02 0.729E+02   0.158E+02 -.278E+02 -.607E+02   0.410E+01 0.632E-02 -.136E+02   -.178E-03 -.745E-03 0.138E-03
   -.126E+02 -.347E+01 -.100E+03   0.113E+02 0.156E+01 0.102E+03   -.311E+01 0.166E+01 -.123E+01   -.821E-03 0.677E-03 -.582E-03
   -.504E+01 -.956E-01 -.704E+02   0.102E+02 -.179E+01 0.692E+02   -.858E+01 -.446E+01 0.700E+01   -.922E-03 -.896E-03 0.258E-03
   0.679E+02 0.413E+02 -.369E+02   -.659E+02 -.370E+02 0.449E+02   -.708E+01 -.728E+01 -.123E+02   -.230E-02 -.390E-02 0.109E-03
   0.536E+02 -.786E+02 -.163E+02   -.548E+02 0.768E+02 0.186E+02   -.634E+01 0.530E+01 0.132E+01   0.736E-03 0.533E-03 -.843E-03
   -.705E+02 0.594E+02 -.536E+02   0.787E+02 -.689E+02 0.310E+02   -.654E+01 0.734E+01 0.241E+02   -.351E-02 0.910E-03 -.615E-03
   -.519E+02 0.417E+02 -.157E+03   0.778E+02 -.384E+02 0.159E+03   -.275E+02 -.196E+01 -.965E+00   0.250E-02 -.843E-03 -.391E-04
   0.841E+02 -.751E+02 -.697E+02   -.104E+03 0.794E+02 0.843E+02   0.217E+02 -.391E+01 -.156E+02   -.609E-03 0.116E-02 -.280E-03
   0.672E+01 0.531E+02 0.125E+03   0.272E+01 -.528E+02 -.156E+03   -.111E+02 -.190E+01 0.304E+02   0.261E-03 0.737E-04 0.725E-03
   -.178E+02 0.444E+01 0.201E+03   0.127E+02 -.305E+02 -.223E+03   0.307E+01 0.253E+02 0.177E+02   -.536E-03 0.434E-03 0.164E-03
   -.271E+02 0.722E+02 -.146E+03   0.151E+02 -.553E+02 0.147E+03   0.123E+02 -.164E+02 -.201E+01   0.108E-03 -.378E-02 0.271E-03
[...]
   0.518E+02 -.145E+03 -.789E+02   -.407E+02 0.172E+03 0.755E+02   -.110E+02 -.284E+02 0.429E+01   -.391E-03 0.212E-02 -.777E-03
   0.800E+02 -.694E+02 -.139E+03   -.629E+02 0.608E+02 0.157E+03   -.185E+02 0.935E+01 -.184E+02   0.871E-03 -.614E-04 -.853E-03
   0.508E+02 -.274E+01 -.116E+02   -.472E+02 0.771E+01 0.239E+02   -.283E+01 -.634E+01 -.138E+02   -.415E-03 -.376E-03 0.539E-03
   -.103E+03 0.126E+02 -.880E+02   0.121E+03 -.297E+02 0.918E+02   -.187E+02 0.193E+02 -.341E+01   -.136E-02 -.684E-03 -.335E-03
   0.480E+01 -.597E+00 0.197E+03   -.937E+01 -.521E+00 -.217E+03   0.648E+01 0.269E+00 0.222E+02   0.132E-03 0.535E-03 0.106E-02
   0.154E+03 0.159E+03 -.787E+02   -.179E+03 -.178E+03 0.105E+03   0.237E+02 0.189E+02 -.242E+02   -.686E-03 -.192E-02 0.146E-02
   0.145E+03 -.200E+02 0.655E+02   -.175E+03 -.160E+01 -.658E+02   0.285E+02 0.192E+02 0.228E+01   0.269E-03 -.371E-03 0.243E-03
   0.482E+02 -.141E+03 -.109E+03   -.597E+02 0.147E+03 0.138E+03   0.801E+01 -.162E+01 -.237E+02   -.470E-03 0.114E-02 -.807E-03
   0.123E+03 0.774E+02 0.502E+02   -.153E+03 -.903E+02 -.360E+02   0.279E+02 0.106E+02 -.130E+02   0.168E-04 0.777E-03 -.267E-02
   0.332E+02 0.144E+03 -.772E+02   -.460E+02 -.150E+03 0.902E+02   0.155E+02 0.541E+01 -.155E+02   0.753E-04 -.294E-03 -.113E-02
   -.743E+02 0.792E+02 -.732E+02   0.826E+02 -.107E+03 0.793E+02   -.854E+01 0.292E+02 -.652E+01   0.315E-03 0.106E-03 0.643E-03
   0.433E+01 -.583E+02 -.953E+02   -.194E+02 0.584E+02 0.824E+02   0.188E+02 -.261E+01 0.141E+02   0.414E-03 0.108E-02 -.900E-03
   0.113E+03 -.411E+02 0.121E+03   -.125E+03 0.580E+02 -.144E+03   0.112E+02 -.180E+02 0.209E+02   -.327E-03 -.391E-03 0.340E-03
   -.600E+02 -.123E+03 0.352E+02   0.711E+02 0.136E+03 -.203E+02   -.111E+02 -.103E+02 -.187E+02   -.677E-03 -.159E-04 0.122E-02
   -.478E+02 -.331E+02 0.162E+02   0.369E-12 0.853E-13 -.746E-12   0.478E+02 0.331E+02 -.161E+02   -.886E-02 -.369E-02 -.704E-02

 POSITION                                       TOTAL-FORCE (eV/Angst)
      1.53677      1.31203      7.13168         0.840740      1.690770      2.490315
      6.68446     12.49933      3.02764         1.256457     -0.912654      2.571341
     11.62687      3.20511      5.72014        -0.381797      0.786397      0.533535
      7.43294      8.25210      9.44720         0.429822     -0.509212      0.384247
      2.84164     10.81383     10.07698         0.928663     -1.437201     -1.534695
      5.57711      6.43026      2.53515        -3.720233      1.228480     -0.100093
      3.04094      6.63413     11.37815        -0.397455     -0.773893     -2.681940
      8.33249      2.41985      5.38363        -1.179265     -4.113226      0.815294
      3.10676     10.42026      3.15393         0.663407     -2.243194      0.347296
      9.12326      1.94511      2.39749         1.123749     -0.159801      2.641673
     10.00855      7.59232      6.57937         0.151066     -0.568850     -1.717226
     10.93309      5.43366      3.04608         1.735972     -2.103409      2.290158
      1.28717      5.03075      8.93559        -0.805909      0.796900     -0.839081
     11.48806      7.65601     10.54883         1.374378     -1.370959     -0.782717
      5.14394      1.47462      8.23369         1.725819     -0.884621     -3.523868
      6.52158      4.53018     10.22880        -0.619370     -2.083425      4.755199
      1.48853      9.59888      0.48167        -3.639057     -0.794039      1.060732
      3.34726      4.08474      5.10448         1.409733      0.339674     -0.786863
     11.24329      8.87500      3.69926        -0.378949     -0.870230      0.876485
      2.14352      4.62330      1.00233         2.252583      0.264110      3.168421
      1.41592     10.69991      6.26176        -1.109438     -1.446770      0.975164
      9.63831     11.11258      9.48881        -0.163362      2.271726      1.779502
      6.04610      9.23013      5.88389         0.016255      1.971825     -1.575800
      8.61879      5.93147      1.07039        -0.514189      1.508706     -0.721744
      0.20241      0.77817     11.96027         0.312446      1.553758     -2.137357
      6.41577      0.05413     11.83964        -0.327823      0.312099     -1.806060
      9.93113      3.28138     11.74669        -4.157870      0.181995     -0.450296
      3.98415      0.71658      2.21985         1.047041      2.558129     -2.429083
      4.64101      0.49128      5.34815         4.318466      1.757018     -0.244742
      8.22566      5.34195      4.39810         1.995518     -1.505545      2.168696
      9.96032     12.41109      0.59633        -3.357241      0.388026     -6.970415
      5.27287      6.53567      7.27627         4.893084     -5.222761     -7.614872
      6.51170      8.34339      0.11210        -0.607139     -1.523603     -0.622176
     12.48261      4.03237     12.20181         3.958796      1.784124     -2.489233
      6.66521      4.09714      7.06344         0.189963      0.607727      0.997744
      3.41167      2.51582     10.00902        -4.710468      3.183799      2.453720
      7.22050      2.55240      0.66366         0.508677     -0.973291     -8.680599
      2.99348     12.42257     12.45224         2.926429      3.877037     -3.507583
      1.03678      5.91593      5.42335        -3.651577     -0.632090      1.715972
      2.93671      7.78132      7.72066        -2.468924      2.466567      0.224512
      9.37125      9.12875     11.79039         4.334379      6.963669      4.913107
     10.32693      1.80737      8.82363         0.952737      0.923817      4.390455
      3.98538      8.07582      0.96431        -4.820539      3.260139      3.275093
      2.98290      8.13319      5.04530         1.327850      0.355395     -0.933022
      6.51769     11.32245      8.48939        -5.766488     -6.686191     -4.511596
      1.65239      1.07263      3.91254        -4.085462      0.082295     -0.329382
     10.20606      5.21287      9.29725         0.071725     -0.295466     -3.040950
     10.78642     10.37014      6.94424        -0.588095      4.396214     -5.968879
     11.48523      7.50361      0.91577        -6.056539      2.389704      0.257433
      0.05915     12.25159      9.07341         1.856833     -0.011693     -1.418391
      0.39619      2.50032      2.00557        -4.436867     -0.242422     -0.025987
     11.29611     10.88819      1.77947        -3.382767     -6.343181      5.803996
      9.48804     11.52595      4.58134        -5.134614     -3.039908     -4.269165
      5.88640      3.23290      2.31662        -7.597669      3.479457      3.585077
     11.23624      9.56887      5.66977         1.670651     -2.188913      1.461757
      6.27410      0.85556      5.31030        -1.609599      1.330894      0.437279
     10.47017      7.26045      2.24593         2.284371      0.413620     -0.937987
      9.85797      9.02283     10.29805        -1.649016     -1.590130     -0.359324
     11.86737      2.87601     11.41518        -1.985087     -0.766259     -3.739866
      8.63944      0.37205      4.27574         0.323576      0.439324     -1.489500
[...]
     10.17409      3.29648      9.33861        -0.579364      4.072133      1.726051
      9.12705      6.69557      4.35425         0.142131     -1.504652      0.930034
      7.13540      2.58915      3.11407        -1.426681      0.699597     -0.755601
     10.50417      9.25485      0.62370         0.791705     -1.368734     -1.599177
     12.42142      9.68200      2.05273        -0.329058      2.205159      0.434834
      6.99256      2.42103     11.41083         1.909098     -0.847297      2.314434
      9.25780     11.67142      1.69315        -1.177387     -0.822773      2.422066
      9.28544      0.72329      8.93881        -1.375705     -2.394786      1.979038
     11.99278      4.37268      1.08145        -3.516482      4.507104      4.512231
      9.60533      9.85577      7.74689        -2.036291     -2.225822      1.120523
      2.51721      8.41673      2.21521         2.761690     -0.481772     -2.529774
      6.86830      2.53000      7.38702        -0.285348      1.225442     -0.389192
      7.05163      5.54314      3.31527         3.698526     -2.548790      1.203043
      6.09898      8.98188     11.23769        -0.658040     -1.105256     -1.768371
      6.91608      4.98410      8.41118        -0.038393      2.725115     -3.855161
    total drift:                                0.007767     -0.027734      0.023244

  FREE ENERGIE OF THE ION-ELECTRON SYSTEM (eV)
  free  energy   TOTEN  =      -899.42029096 eV

  energy  without entropy=     -899.39993385  energy(sigma->0) =     -899.41011240