 vasp.5.4.4.18Apr17-6-g9f103f2a35 (build Mar 16 2023 09:39:13) complex

 executed on             LinuxIFC date 2024.04.30  00:14:24

 INCAR:
 POTCAR:    PAW_PBE Ca_sv 06Sep2000
 POTCAR:    PAW_PBE Si 05Jan2001
 POTCAR:    PAW_PBE O 08Apr2002
 POTCAR:    PAW_PBE Ca_sv 06Sep2000
   VRHFIN =Ca: 3s3p4s

   TITEL  = PAW_PBE Ca_sv 06Sep2000
   POMASS =   40.078; ZVAL   =   10.000    mass and valenz
   ENMAX  =  266.622; ENMIN  =  199.967 eV

   TITEL  = PAW_PBE Si 05Jan2001
   POMASS =   28.085; ZVAL   =    4.000    mass and valenz
   ENMAX  =  245.345; ENMIN  =  184.009 eV

   TITEL  = PAW_PBE O 08Apr2002
   POMASS =   16.000; ZVAL   =    6.000    mass and valenz
   ENMAX  =  400.000; ENMIN  =  300.000 eV

 Optimization of the real space projectors (new method)

 maximal supplied QI-value         = 16.25
 optimisation between [QCUT,QGAM] = [ 12.51, 25.03] = [ 43.85,175.40] Ry
 Optimized for a Real-space Cutoff    1.47 Angstroem

   l    n(q)    QCUT    max X(q) W(low)/X(q) W(high)/X(q)  e(spline)
   0     11    12.514    11.817    0.25E-04    0.32E-05    0.87E-07
   0     11    12.514     8.461    0.39E-04    0.59E-05    0.18E-06
   1     11    12.514     3.957    0.97E-05    0.57E-05    0.28E-07
   1     11    12.514     4.314    0.42E-04    0.14E-04    0.23E-06
   2     10    12.514    14.565    0.79E-04    0.50E-03    0.16E-05
   2     10    12.514    14.552    0.75E-04    0.48E-03    0.15E-05
 Optimization of the real space projectors (new method)

[...]

   l    n(q)    QCUT    max X(q) W(low)/X(q) W(high)/X(q)  e(spline)
   0      9    12.501   159.560    0.10E-03    0.83E-04    0.71E-07
   0      9    12.501   115.863    0.99E-04    0.81E-04    0.70E-07
   1      8    12.501    88.339    0.20E-03    0.25E-03    0.76E-07
   1      8    12.501    48.592    0.20E-03    0.24E-03    0.75E-07
 Optimization of the real space projectors (new method)

 maximal supplied QI-value         = 24.76
 optimisation between [QCUT,QGAM] = [ 12.38, 25.00] = [ 42.90,175.06] Ry
 Optimized for a Real-space Cutoff    1.16 Angstroem

   l    n(q)    QCUT    max X(q) W(low)/X(q) W(high)/X(q)  e(spline)
   0      9    12.378    20.381    0.16E-03    0.67E-05    0.31E-06
   0      9    12.378    15.268    0.17E-03    0.81E-05    0.33E-06
   1      8    12.378     5.964    0.20E-03    0.16E-03    0.30E-06
   1      8    12.378     5.382    0.18E-03    0.14E-03    0.26E-06
  PAW_PBE Ca_sv 06Sep2000               :
  PAW_PBE Si 05Jan2001                  :
  PAW_PBE O 08Apr2002                   :

 POSCAR: Ca Si  O
  positions in direct lattice
 exchange correlation table for  LEXCH =        8
   RHO(1)=    0.500       N(1)  =     2000
   RHO(2)=  100.500       N(2)  =     4000

 ion  position               nearest neighbor table
   1  0.779  0.381  0.740-  69 2.22 108 2.41
   2  0.084  0.454  0.896-  56 2.21  96 2.24  65 2.49
   3  0.621  0.989  0.778- 106 2.06 100 2.15 101 2.50  34 3.03  45 3.12
   4  0.695  0.290  0.028- 111 1.97  76 2.07  31 3.00
   5  0.963  0.408  0.248-  62 2.23  64 2.35 104 2.54
   6  0.356  0.138  0.877- 101 2.08  79 2.38  67 2.49 102 2.52  52 2.95
   7  0.176  0.807  0.313-  75 2.22 119 2.38  80 2.39  39 2.79
   8  0.194  0.687  0.896-  91 2.19  58 2.37  78 2.39  96 2.53  44 3.08  13 3.17
   9  0.574  0.403  0.575- 108 1.94 124 2.55
  10  0.354  0.075  0.199-  67 2.10  88 2.10 135 2.41 118 2.55  40 3.11
  11  0.162  0.877  0.054-  88 2.27  91 2.31 115 2.38  58 2.52
  12  0.540  0.461  0.915-  81 2.14  73 2.16  74 2.18  20 3.06
  13  0.961  0.698  0.972- 115 2.09  56 2.14 126 2.24 127 2.27  54 3.01   8 3.17
  14  0.886  0.116  0.376- 130 2.01 131 2.14 128 2.41  19 2.99  30 3.13
  15  0.442  0.674  0.071-  74 2.14  90 2.25  58 2.26 109 2.43  36 2.54  42 2.97
  16  0.175  0.495  0.473- 104 2.15  82 2.20 122 2.50  44 3.16
  17  0.605  0.127  0.412- 130 1.98 128 2.48 120 2.49  38 2.89
  18  0.223  0.350  0.274- 104 2.00  61 2.21 121 2.38  51 2.75
  19  0.867  0.137  0.606- 128 1.98 133 2.31  53 2.82  14 2.99
  20  0.349  0.421  0.781- 102 2.02 134 2.28  48 2.87  12 3.06
  21  0.080  0.917  0.744-  91 2.21  84 2.34  85 2.46  43 2.82  23 2.90
  22  0.849  0.066  0.899-  99 2.24  71 2.38  59 2.48  49 2.86  32 2.89  45 2.90
  23  0.153  0.108  0.651-  85 2.14  60 2.32  21 2.90
  24  0.591  0.696  0.817-  63 2.05 132 2.23  81 2.36
  25  0.672  0.865  0.043- 100 1.99 126 2.34  66 2.41 125 2.49  45 2.93
  26  0.594  0.807  0.297-  66 2.49 113 2.53
  27  0.738  0.764  0.607-  63 2.17  94 2.42  41 2.86
  28  0.625  0.498  0.302- 105 1.65 116 1.72  70 1.75 113 2.23  31 3.14
  29  0.280  0.759  0.616- 103 1.66  93 1.69  97 1.71  87 1.83  44 2.92  39 2.97
  30  0.016  0.928  0.456- 131 1.51  84 1.60  75 1.92 119 1.97  37 2.96  14 3.13
  31  0.535  0.298  0.196-  76 1.65 135 1.66  70 1.81  86 1.97   4 3.00  28 3.14
  32  0.057  0.146  0.911-  99 1.59  77 1.66  71 1.81  65 1.97  22 2.89  49 3.06
  33  0.397  0.611  0.354-  82 1.51 113 1.78  83 1.90 114 2.08  47 3.08
  34  0.594  0.222  0.786- 101 1.62  92 1.66 111 1.72  73 1.74   3 3.03
  35  0.700  0.604  0.085- 116 1.59  66 1.64 127 1.65  81 1.86  54 2.55
  36  0.411  0.847  0.984-  58 1.54  55 1.61  90 1.69 132 1.69  15 2.54  43 2.72
  37  0.922  0.723  0.419-  98 1.52 119 1.57  94 1.71  57 1.74  50 2.58  30 2.96
  38  0.691  0.079  0.211- 125 1.54  86 1.54 130 1.74 123 2.00  17 2.89
  39  0.340  0.882  0.431-  97 1.58 107 1.59 118 1.72  83 1.95   7 2.79  29 2.97
  40  0.125  0.059  0.272-  75 1.58 121 1.71 117 1.75  88 1.92  51 3.10  10 3.11
  41  0.563  0.882  0.542- 120 1.55 106 1.71 107 1.77 129 1.81  27 2.86
  42  0.332  0.473  0.057- 109 1.54  61 1.80  78 1.83  74 1.98  52 2.91  15 2.97
  43  0.280  0.908  0.831-  87 1.74  91 1.75  85 1.77  55 1.80  36 2.72  21 2.82
  44  0.123  0.611  0.682-  96 1.60  72 1.67  93 1.73 122 1.85  29 2.92  50 2.99   8 3.08  16 3.16

  45  0.802  0.850  0.858- 110 1.47 126 1.56 100 1.69  63 1.80  22 2.90  25 2.93   3 3.12
  46  0.142  0.606  0.136-  80 1.57  62 1.67 115 1.72  78 1.99
  47  0.503  0.641  0.565- 114 1.59 129 1.59 124 1.66 103 1.83  33 3.08
  48  0.314  0.289  0.607- 112 1.45 134 1.63  68 1.78 102 1.78  20 2.87
  49  0.941  0.065  0.100-  59 1.60  71 1.74 123 1.75 117 1.86  22 2.86  32 3.06
  50  0.925  0.586  0.565-  94 1.59 122 1.65  89 1.75  57 1.83  37 2.58  44 2.99
  51  0.126  0.241  0.429-  60 1.70  68 1.72 121 1.78 104 1.90  18 2.75  40 3.10
  52  0.250  0.266  0.033-  61 1.67  67 1.70  79 1.71  65 1.98  42 2.91   6 2.95
  53  0.828  0.326  0.503-  64 1.60 133 1.67 108 1.70 128 2.02  19 2.82
  54  0.836  0.503  0.985-  95 1.58  69 1.65  56 1.68 127 1.71  35 2.55  13 3.01
  55  0.342  0.945  0.950-  36 1.61  43 1.80
  56  0.940  0.543  0.918-  54 1.68  13 2.14   2 2.21
  57  0.952  0.592  0.426-  37 1.74  50 1.83
  58  0.318  0.774  0.998-  36 1.54  15 2.26   8 2.37  11 2.52
  59  0.921  0.958  0.042-  49 1.60  22 2.48
  60  0.074  0.138  0.493-  51 1.70  23 2.32
  61  0.251  0.371  0.107-  52 1.67  42 1.80  18 2.21
  62  0.068  0.500  0.146-  46 1.67   5 2.23
  63  0.722  0.774  0.773-  45 1.80  24 2.05  27 2.17
  64  0.871  0.339  0.388-  53 1.60   5 2.35
  65  0.141  0.273  0.925-  32 1.97  52 1.98   2 2.49
  66  0.665  0.710  0.146-  35 1.64  25 2.41  26 2.49
  67  0.312  0.154  0.064-  52 1.70  10 2.10   6 2.49
  68  0.235  0.279  0.495-  51 1.72  48 1.78
  69  0.763  0.473  0.884-  54 1.65   1 2.22
  70  0.592  0.367  0.304-  28 1.75  31 1.81
  71  0.960  0.162  0.010-  49 1.74  32 1.81  22 2.38
  72  0.067  0.719  0.725-  44 1.67
  73  0.541  0.344  0.795-  34 1.74  12 2.16
  74  0.409  0.559  0.957-  42 1.98  15 2.14  12 2.18
  75  0.099  0.958  0.336-  40 1.58  30 1.92   7 2.22
  76  0.549  0.336  0.075-  31 1.65   4 2.07
  77  0.134  0.049  0.943-  32 1.66
  78  0.221  0.549  0.016-  42 1.83  46 1.99   8 2.39
  79  0.338  0.308  0.944-  52 1.71   6 2.38
  80  0.206  0.644  0.231-  46 1.57   7 2.39
  81  0.616  0.598  0.969-  35 1.86  12 2.14  24 2.36
  82  0.287  0.576  0.374-  33 1.51  16 2.20
  83  0.367  0.755  0.355-  33 1.90  39 1.95
  84  0.076  0.933  0.564-  30 1.60  21 2.34
  85  0.246  0.010  0.746-  43 1.77  23 2.14  21 2.46
  86  0.625  0.175  0.189-  38 1.54  31 1.97
  87  0.259  0.805  0.747-  43 1.74  29 1.83
  88  0.216  0.993  0.175-  40 1.92  10 2.10  11 2.27
  89  0.820  0.566  0.649-  50 1.75
  90  0.479  0.843  0.096-  36 1.69  15 2.25
  91  0.166  0.853  0.877-  43 1.75   8 2.19  21 2.21  11 2.31
  92  0.648  0.179  0.678-  34 1.66
  93  0.226  0.641  0.601-  29 1.69  44 1.73
  94  0.908  0.707  0.550-  50 1.59  37 1.71  27 2.42
  95  0.856  0.415  0.068-  54 1.58
  96  0.169  0.539  0.771-  44 1.60   2 2.24   8 2.53
  97  0.272  0.860  0.530-  39 1.58  29 1.71
  98  0.846  0.753  0.336-  37 1.52
  99  0.984  0.132  0.812-  32 1.59  22 2.24
 100  0.707  0.926  0.906-  45 1.69  25 1.99   3 2.15
 101  0.506  0.139  0.820-  34 1.62   6 2.08   3 2.50
 102  0.314  0.273  0.744-  48 1.78  20 2.02   6 2.52
 103  0.397  0.708  0.632-  29 1.66  47 1.83
 104  0.110  0.377  0.375-  51 1.90  18 2.00  16 2.15   5 2.54
[...]
 121  0.164  0.179  0.311-  40 1.71  51 1.78  18 2.38
 122  0.035  0.532  0.601-  50 1.65  44 1.85  16 2.50
 123  0.808  0.087  0.109-  49 1.75  38 2.00
 124  0.579  0.585  0.652-  47 1.66   9 2.55
 125  0.625  0.983  0.188-  38 1.54  25 2.49
 126  0.814  0.789  0.961-  45 1.56  13 2.24  25 2.34
 127  0.810  0.626  0.024-  35 1.65  54 1.71  13 2.27
 128  0.765  0.183  0.501-  19 1.98  53 2.02  14 2.41  17 2.48
 129  0.551  0.744  0.517-  47 1.59  41 1.81
 130  0.736  0.109  0.335-  38 1.74  17 1.98  14 2.01
 131  0.910  0.957  0.417-  30 1.51  14 2.14
 132  0.471  0.806  0.876-  36 1.69  24 2.23
 133  0.933  0.300  0.574-  53 1.67  19 2.31
 134  0.295  0.413  0.613-  48 1.63  20 2.28
 135  0.420  0.247  0.224-  31 1.66  10 2.41

IMPORTANT INFORMATION: All symmetrisations will be switched off!
NOSYMM: (Re-)initialisation of all symmetry stuff for point group C_1.

Automatic generation of k-mesh.
 generate k-points for:    2    2    2
Space group operators:
 irot       det(A)        alpha          n_x          n_y          n_z        tau_x        tau_y        tau_z
    1     1.000000     0.000000     1.000000     0.000000     0.000000     0.000000     0.000000     0.000000

 Subroutine IBZKPT returns following result:

 Found      8 irreducible k-points:

 Following reciprocal coordinates:
            Coordinates               Weight
  0.000000  0.000000  0.000000      1.000000
  0.500000  0.000000  0.000000      1.000000
  0.000000  0.500000  0.000000      1.000000
  0.500000  0.500000  0.000000      1.000000
  0.000000  0.000000  0.500000      1.000000
  0.500000  0.000000  0.500000      1.000000
  0.000000  0.500000  0.500000      1.000000
  0.500000  0.500000  0.500000      1.000000

 Following cartesian coordinates:
            Coordinates               Weight
  0.000000  0.000000  0.000000      1.000000
  0.038669  0.000000  0.000000      1.000000
  0.000000  0.038669  0.000000      1.000000
  0.038669  0.038669  0.000000      1.000000
  0.000000  0.000000  0.038669      1.000000
  0.038669  0.000000  0.038669      1.000000
  0.000000  0.038669  0.038669      1.000000
  0.038669  0.038669  0.038669      1.000000

 SYSTEM =  unknown system
[...]
     0.000000000  0.000000000 12.930412990     0.000000000  0.000000000  0.077337050

  length of vectors
    12.930412990 12.930412990 12.930412990     0.077337050  0.077337050  0.077337050

 FORCES acting on ions
    electron-ion (+dipol)            ewald-force                    non-local-force                 convergence-correction
   -.192E+03 0.847E+02 0.497E+00   0.190E+03 -.775E+02 -.956E+00   0.171E+01 -.532E+01 0.234E-01   -.542E-03 -.116E-02 -.886E-03
   0.173E+03 0.269E+03 0.830E+02   -.174E+03 -.266E+03 -.818E+02   0.749E+00 -.345E+01 -.202E+00   0.952E-03 -.835E-03 -.692E-03
   -.751E+01 -.154E+03 0.110E+03   0.179E+01 0.153E+03 -.111E+03   0.397E+01 0.200E+01 0.267E+00   -.295E-04 0.980E-03 -.168E-03
   -.247E+03 0.360E+02 -.144E+03   0.244E+03 -.367E+02 0.142E+03   0.520E+01 0.109E+01 0.346E+01   -.912E-03 -.114E-02 -.556E-03
   0.199E+03 0.149E+02 0.206E+02   -.199E+03 -.103E+02 -.201E+02   -.744E+00 -.331E+01 -.497E+00   0.326E-03 -.134E-02 0.997E-03
   -.286E+02 0.762E+02 0.484E+02   0.323E+02 -.714E+02 -.501E+02   -.426E+01 -.383E+01 0.139E+01   -.808E-03 0.120E-02 0.248E-03
   0.856E+02 0.795E+02 0.391E+02   -.854E+02 -.829E+02 -.391E+02   0.294E+00 0.138E+01 -.646E+00   0.244E-03 0.115E-02 -.191E-03
   0.390E+02 0.157E+03 0.843E+02   -.348E+02 -.154E+03 -.837E+02   -.262E+01 -.272E+01 -.866E+00   0.941E-04 0.357E-03 -.245E-03
   0.120E+03 0.812E+02 0.153E+03   -.119E+03 -.790E+02 -.152E+03   -.496E+01 -.103E+01 -.491E+00   -.315E-03 -.148E-02 0.345E-03
   -.287E+03 0.473E+01 -.181E+03   0.282E+03 -.310E+01 0.178E+03   0.592E+01 -.173E+01 0.367E+01   -.484E-03 0.105E-02 -.252E-03
   0.181E+03 -.847E+02 -.225E+03   -.179E+03 0.869E+02 0.221E+03   -.177E+01 -.996E+00 0.279E+01   -.294E-03 0.175E-02 -.424E-03
   -.819E+02 0.110E+03 0.542E+02   0.832E+02 -.108E+03 -.508E+02   -.237E+00 -.268E+01 -.185E+01   -.636E-03 -.146E-02 0.410E-03
   0.367E+02 -.788E+02 -.468E+02   -.430E+02 0.767E+02 0.491E+02   0.388E+01 0.310E+01 -.304E+01   -.187E-03 0.698E-03 -.478E-03
   -.820E+02 -.457E+02 0.148E+03   0.749E+02 0.440E+02 -.146E+03   0.745E+01 0.311E+01 -.215E+01   -.108E-02 -.154E-03 0.891E-04
   -.806E+02 0.140E+01 -.201E+03   0.805E+02 -.495E+01 0.201E+03   0.151E+01 0.131E+01 0.186E+01   0.357E-03 -.495E-03 0.498E-04
   0.612E+02 0.216E+02 -.265E+02   -.587E+02 -.209E+02 0.276E+02   -.184E+01 0.357E+00 0.815E+00   0.461E-03 -.182E-02 0.349E-03
   0.329E+03 -.754E+02 -.872E+02   -.321E+03 0.736E+02 0.908E+02   -.872E+01 0.200E+01 -.562E+00   0.750E-03 0.547E-03 -.191E-03
   -.146E+03 0.270E+02 -.327E+02   0.147E+03 -.256E+02 0.292E+02   0.235E+01 -.801E+00 0.988E+00   0.563E-03 -.858E-03 0.406E-03
   -.483E+02 0.152E+03 -.219E+03   0.444E+02 -.145E+03 0.215E+03   0.411E+01 -.711E+01 0.521E+01   -.699E-03 0.105E-02 -.149E-02
   -.109E+01 -.133E+03 0.704E+02   -.262E+01 0.127E+03 -.738E+02   0.325E+01 0.698E+01 0.363E+01   -.505E-04 -.141E-02 0.642E-04
   0.253E+03 -.933E+02 0.125E+03   -.253E+03 0.854E+02 -.123E+03   -.180E+01 0.532E+01 -.144E+01   0.248E-03 0.799E-03 0.486E-03
   0.113E+03 -.161E+03 0.114E+03   -.111E+03 0.160E+03 -.110E+03   -.328E+01 0.890E+00 -.281E+01   0.620E-03 0.304E-03 0.887E-03
   -.119E+02 -.206E+03 0.691E+02   0.150E+02 0.205E+03 -.711E+02   -.236E+01 0.205E+01 0.119E+01   0.928E-06 0.119E-02 -.934E-04
   0.257E+02 0.946E+02 0.134E+03   -.240E+02 -.923E+02 -.132E+03   -.282E+01 -.342E+01 -.120E+01   0.839E-04 0.246E-04 0.484E-03
   -.157E+02 -.136E+03 -.231E+03   0.167E+02 0.133E+03 0.233E+03   -.160E+01 0.175E+01 0.125E+01   0.576E-03 0.501E-03 0.132E-02
   -.163E+03 -.133E+03 -.108E+03   0.164E+03 0.128E+03 0.104E+03   -.223E+00 0.341E+01 0.304E+01   0.794E-03 0.103E-02 -.678E-03
   -.875E+02 -.670E+02 0.203E+03   0.910E+02 0.615E+02 -.198E+03   -.205E+01 0.345E+01 -.509E+01   0.141E-03 0.232E-03 -.196E-03
   -.186E+02 0.780E+02 -.452E+02   0.299E+02 -.704E+02 0.514E+02   -.953E+01 -.363E+01 -.650E+01   -.178E-03 -.392E-03 -.390E-04
   0.204E+02 -.423E+02 0.451E+02   -.119E+02 0.366E+02 -.432E+02   -.591E+01 0.493E+01 0.903E+00   -.738E-05 -.927E-04 0.312E-03
   0.171E+02 0.877E+01 -.107E+02   -.270E+02 -.619E+01 0.149E+02   0.143E+02 -.660E+01 -.492E+01   -.227E-03 0.613E-03 0.763E-04
   -.238E+02 -.132E+01 -.926E+02   0.151E+02 0.110E+01 0.864E+02   0.765E+01 -.160E+01 0.592E+01   -.371E-03 -.161E-03 0.888E-04
   -.473E+01 -.119E+03 0.148E+02   0.549E+01 0.108E+03 -.148E+02   0.247E+01 0.111E+02 0.481E+01   0.146E-03 -.365E-03 -.212E-03
   -.683E+02 0.613E+02 -.842E+01   0.589E+02 -.617E+02 0.919E+01   0.145E+02 0.455E+01 -.941E+00   -.233E-03 -.312E-03 -.135E-03
   -.447E+02 -.824E+01 0.605E+02   0.413E+02 0.172E+01 -.591E+02   0.150E+01 0.664E+01 0.247E+00   0.842E-04 0.197E-03 0.300E-03
   -.877E+02 0.726E+02 -.559E+02   0.828E+02 -.620E+02 0.603E+02   0.872E+00 -.574E+01 -.597E+01   -.574E-03 0.128E-03 0.200E-03
   -.109E+03 -.119E+03 -.244E+02   0.104E+03 0.111E+03 0.236E+02   0.968E+01 0.768E+01 0.162E-01   0.176E-03 -.127E-03 0.109E-03
   0.675E+02 0.783E+01 0.626E+02   -.713E+02 -.564E+01 -.714E+02   0.316E+01 -.637E+01 0.936E+01   -.366E-03 0.498E-03 -.174E-03
   -.783E+02 0.250E+02 -.696E+00   0.658E+02 -.266E+02 0.208E+01   0.176E+02 0.208E+01 -.106E+01   0.415E-03 -.196E-03 0.440E-03
   -.202E+02 -.714E+02 0.173E+02   0.230E+02 0.756E+02 -.152E+02   -.836E+00 -.344E+01 -.660E+01   0.125E-04 0.526E-03 -.318E-03
   0.306E+02 -.331E+02 -.399E+01   -.318E+02 0.283E+02 0.171E+01   0.426E+01 0.480E+01 -.289E+01   -.302E-04 0.939E-04 -.179E-03
   -.101E+02 -.385E+02 -.775E-01   0.137E+02 0.490E+02 0.147E+01   -.973E+01 -.109E+02 0.759E+00   0.213E-03 0.551E-03 -.623E-04
   -.337E+02 0.111E+03 0.326E+02   0.345E+02 -.973E+02 -.195E+02   -.316E+01 -.112E+02 -.165E+02   0.485E-03 -.603E-03 -.557E-04
   -.131E+03 -.802E+02 0.590E+02   0.120E+03 0.790E+02 -.606E+02   0.776E+01 0.860E+00 0.113E+01   -.539E-03 0.262E-03 0.960E-05
   0.713E+02 0.490E+02 0.587E+02   -.703E+02 -.447E+02 -.501E+02   -.322E+01 -.266E+01 -.944E+01   0.191E-03 -.127E-03 0.309E-03
   -.348E+02 -.484E+01 0.517E+02   0.396E+02 0.234E+01 -.497E+02   -.122E+02 -.242E+01 -.271E+00   0.255E-03 0.213E-03 0.135E-03
   0.769E+02 0.166E+02 -.534E+02   -.765E+02 -.156E+02 0.630E+02   -.122E+01 -.272E+01 -.118E+02   0.466E-03 -.202E-03 0.837E-04
   0.111E+02 0.308E+02 -.812E+01   -.566E+01 -.355E+02 0.672E+01   -.653E+01 0.459E+01 0.523E+01   -.570E-04 -.330E-03 0.114E-03
   0.599E+02 0.718E+02 0.617E+02   -.422E+02 -.683E+02 -.599E+02   -.218E+02 0.146E+01 0.113E+01   0.141E-03 -.136E-03 0.605E-04
   -.171E+02 -.140E+02 -.137E+03   0.116E+02 0.690E+01 0.126E+03   0.492E+01 0.937E+01 0.103E+02   -.148E-03 -.416E-03 0.225E-04
   0.494E+02 0.106E+03 0.684E+01   -.523E+02 -.100E+03 -.446E+01   0.110E+00 -.759E+01 -.207E+01   -.272E-03 -.383E-03 0.108E-03
   0.529E+02 -.145E+02 -.327E+02   -.480E+02 0.977E+01 0.381E+02   -.337E+01 0.469E+01 -.363E+01   -.634E-04 -.113E-03 0.318E-03
   0.114E+03 0.395E+02 -.461E+02   -.101E+03 -.382E+02 0.422E+02   -.102E+02 -.190E+01 -.312E+00   0.447E-03 -.514E-03 -.768E-04
   0.209E+02 -.876E+02 0.251E+02   -.155E+02 0.850E+02 -.275E+02   -.659E+01 0.533E-01 0.276E+01   -.261E-03 -.639E-03 -.364E-04
   -.150E+02 0.756E+02 -.425E+02   0.175E+02 -.795E+02 0.397E+02   -.734E+00 0.435E+01 -.113E+01   -.138E-03 -.331E-03 -.130E-03
   -.103E+03 -.194E+03 -.359E+02   0.948E+02 0.219E+03 0.479E+02   0.732E+01 -.221E+02 -.156E+02   -.633E-03 0.439E-03 -.168E-03
   -.779E+00 0.112E+03 0.118E+03   0.110E+02 -.107E+03 -.133E+03   -.824E+01 -.687E+01 0.156E+02   0.158E-03 -.130E-03 -.287E-03
   0.446E+02 0.128E+03 0.163E+03   -.378E+02 -.147E+03 -.181E+03   -.687E+01 0.178E+02 0.184E+02   -.275E-03 -.256E-03 0.717E-03
   0.336E+02 0.228E+02 -.847E+02   -.567E+02 -.404E+02 0.877E+02   0.193E+02 0.142E+02 -.168E+01   -.283E-03 -.202E-03 -.423E-04
   -.152E+02 0.127E+03 -.120E+03   0.745E+01 -.158E+03 0.108E+03   0.997E+01 0.301E+02 0.120E+02   0.255E-04 0.239E-03 0.290E-03
   0.209E+02 -.103E+02 -.288E+02   -.290E+02 -.951E+01 0.376E+02   0.759E+01 0.221E+02 -.101E+02   -.727E-04 0.275E-03 -.230E-04
[...]
   0.618E+02 0.158E+03 -.279E+02   -.530E+02 -.181E+03 0.272E+02   -.632E+01 0.248E+02 0.242E+01   0.715E-04 -.411E-03 0.215E-03
   0.496E+02 -.568E+02 -.853E+02   -.613E+02 0.588E+02 0.748E+02   0.106E+02 -.947E+00 0.137E+02   0.233E-05 -.374E-03 0.443E-03
   -.741E+02 0.783E+02 -.179E+02   0.925E+02 -.900E+02 0.336E+02   -.195E+02 0.124E+02 -.156E+02   0.196E-03 -.681E-03 -.640E-04
   0.506E+02 0.141E+02 -.521E+02   -.728E+02 -.377E+02 0.437E+02   0.217E+02 0.204E+02 0.880E+01   0.577E-03 -.948E-04 0.432E-03
   -.709E+02 0.163E+02 -.107E+03   0.717E+02 -.326E+02 0.134E+03   0.782E+00 0.159E+02 -.261E+02   -.197E-04 0.411E-03 0.433E-03
   -.526E+02 -.123E+01 -.147E+03   0.648E+02 0.287E+02 0.139E+03   -.130E+02 -.307E+02 0.103E+02   -.628E-03 0.233E-03 -.281E-03
   0.132E+03 -.105E+02 0.124E+02   -.145E+03 0.603E+01 -.133E+02   0.144E+02 0.593E+01 0.136E+00   -.577E-03 0.109E-05 -.446E-03
   -.108E+03 -.110E+02 0.809E+02   0.113E+03 0.161E+02 -.982E+02   -.108E+01 -.138E+01 0.167E+02   0.378E-03 0.170E-03 -.936E-04
   -.657E+01 0.246E+02 0.668E+02   0.137E+02 -.191E+02 -.507E+02   -.751E+01 -.757E+01 -.212E+02   0.137E-03 -.734E-04 0.258E-03
   0.173E+03 0.885E+02 0.269E+02   -.209E+03 -.887E+02 -.407E+02   0.328E+02 0.185E+01 0.143E+02   -.648E-03 0.549E-03 -.440E-03
   -.364E+02 -.718E+02 0.125E+03   0.428E+02 0.660E+02 -.145E+03   -.646E+01 0.706E+01 0.227E+02   0.528E-05 0.270E-05 0.249E-03
   -.143E+03 -.953E+02 -.110E+03   0.168E+03 0.957E+02 0.120E+03   -.278E+02 -.483E+00 -.898E+01   0.180E-04 -.323E-03 0.102E-03
   0.708E+01 -.525E+02 0.903E+02   -.112E+02 0.783E+02 -.911E+02   0.413E+01 -.246E+02 0.416E+00   -.476E-04 -.735E-03 0.949E-04
   -.151E+02 0.409E+01 -.161E+03   -.772E+01 -.120E+02 0.163E+03   0.247E+02 0.870E+01 -.182E+01   -.199E-03 0.102E-03 -.146E-03
   -.520E+01 0.292E+02 -.797E+01   0.498E-12 0.401E-12 0.128E-11   0.519E+01 -.292E+02 0.796E+01   -.410E-04 -.442E-02 0.813E-03

 POSITION                                       TOTAL-FORCE (eV/Angst)
     10.07850      4.93267      9.57017         0.049314      1.825018     -0.436171
      1.08550      5.87628     11.58174         0.074451     -0.620595      1.011960
      8.03304     12.79134     10.06612        -1.757079      1.496784     -0.327432
      8.99167      3.75056      0.36234         2.685782      0.416698      1.682600
     12.45560      5.27196      3.20100        -1.050200      1.194315      0.039176
      4.60511      1.77883     11.34428        -0.570543      0.897316     -0.317507
      2.27584     10.43202      4.04739         0.520276     -1.987230     -0.600741
      2.50816      8.88468     11.58450         1.636215     -0.472674     -0.302658
      7.42115      5.21058      7.43138        -3.248136      1.201591      0.283865
      4.57173      0.96523      2.57955         1.493362     -0.090919      0.676743
      2.09461     11.33697      0.69944         0.215054      1.246097     -0.869564
      6.98594      5.96631     11.82776         1.080241     -0.619343      1.470835
     12.42983      9.02455     12.56594        -2.466540      0.970264     -0.682831
     11.45277      1.49922      4.86083         0.399492      1.420057     -0.269107
      5.72146      8.71781      0.91923         1.328350     -2.248137      2.182496
      2.26700      6.40274      6.11542         0.595354      0.997134      1.969922
      7.81726      1.63851      5.32742        -0.746089      0.282137      2.950726
      2.88618      4.52127      3.54255         3.973234      0.569311     -2.456523
     11.20707      1.77660      7.83209         0.262208     -0.119744      1.483971
      4.51847      5.44506     10.09825        -0.466894      0.596292      0.196300
      1.03526     11.86069      9.62566        -1.572927     -2.620283      0.436962
     10.98293      0.84815     11.62876        -0.991559     -0.447241      1.162276
      1.97465      1.39240      8.41895         0.736382      0.889920     -0.882095
      7.64742      9.00598     10.56797        -1.106931     -1.134011      0.209822
      8.68599     11.18282      0.55722        -0.603838     -1.544032      3.471799
      7.67643     10.43252      3.83524         0.336889     -1.473864     -1.038007
      9.54736      9.87367      7.84305         1.421526     -2.022287      0.326885
      8.07745      6.43811      3.90496         1.771857      3.996489     -0.314018
      3.62583      9.81821      7.96197         2.555969     -0.808516      2.802832
      0.21038     11.99814      5.89188         4.416908     -4.020971     -0.742817
      6.92167      3.85908      2.53654        -1.015390     -1.816591     -0.300736
      0.73862      1.89109     11.77381         3.225928      0.415338      4.831309
      5.13806      7.89617      4.57742         5.047909      4.108248     -0.172824
      7.68691      2.86606     10.16663        -1.983611      0.121579      1.583028
      9.05602      7.81269      1.10423        -4.042712      4.779673     -1.569091
      5.31335     10.95408     12.72749         4.485211      0.213363     -0.709163
     11.92736      9.34240      5.42418        -0.701118     -4.184277      0.541468
      8.93943      1.02361      2.73323         5.031403      0.461526      0.321616
      4.39554     11.40238      5.57362         1.941733      0.762334     -4.512153
      1.61206      0.76854      3.51569         3.112728     -0.079379     -5.171386
      7.28194     11.40123      7.00913        -6.123040     -0.428560      2.149685
      4.29741      6.11590      0.73954        -2.345541      2.234148     -3.352999
      3.62161     11.74723     10.74903        -3.127864     -0.406666     -0.489706
      1.59037      7.90182      8.81226        -2.259326      1.654181     -0.880897
     10.36494     10.99408     11.09208        -7.499405     -4.915716      1.658963
      1.84225      7.83034      1.75287        -0.771449     -1.729116     -2.231428
      6.50272      8.29394      7.30785        -1.116409     -0.098469      3.837949
      4.05801      3.73098      7.84599        -4.039591      4.893611      2.901204
     12.16582      0.83750      1.29676        -0.616107      2.224171     -1.093208
     11.95486      7.57585      7.30393        -2.835505     -1.646197      0.307809
      1.63009      3.11828      5.54364         1.590533     -0.014540      1.728006
      3.22624      3.43326      0.43047         3.325550     -0.602361     -4.220533
     10.70516      4.21946      6.50928        -1.229423     -2.557535      0.353114
     10.80975      6.49842     12.73473         1.788122      0.480424     -3.884035
      4.42273     12.22198     12.28842        -1.245220      3.498698     -3.566491
     12.14920      7.02007     11.87407         1.945314     -1.291983     -0.016897
     12.30899      7.64835      5.50639        -0.089183     -1.252503      0.827552
      4.11432     10.00757     12.90971        -3.791395     -3.452678      1.299928
     11.90940     12.38793      0.53663         2.258201     -0.487731      0.116058
      0.95785      1.79085      6.36929        -0.471520      2.297867     -1.315933
[...]
      2.12310      2.32099      4.02739        -0.066304      0.182749      1.558463
      0.45116      6.88413      7.76731         2.461049      1.371431      1.737612
     10.44290      1.12897      1.41253        -1.078436      1.052516      3.175036
      7.48730      7.56268      8.42686        -1.190923      0.743620      0.090192
      8.07920     12.71562      2.42712        -0.521564     -3.212092      0.391997
     10.52800     10.20176     12.42603         1.626204     -0.393490      0.862199
     10.47710      8.09364      0.30955        -0.752184     -3.242159      2.361895
      9.89383      2.36471      6.47638         1.411142      1.425998     -0.806826
      7.12977      9.62199      6.68949         3.578551      3.658963     -0.575078
      9.51085      1.41393      4.33349        -0.365830     -2.160113     -5.076137
     11.76769     12.37813      5.39682        -2.925900      1.620222      0.400554
      6.09541     10.41816     11.32278        -0.022155      1.259798      1.877025
     12.06828      3.87853      7.41802        -1.890528     -0.102105      1.121708
      3.81812      5.34236      7.93048        -0.025450      1.189083     -0.461844
      5.43564      3.19864      2.89207         1.933091      0.809167      0.890548
    total drift:                               -0.003007     -0.008771     -0.007886

  FREE ENERGIE OF THE ION-ELECTRON SYSTEM (eV)
  free  energy   TOTEN  =      -920.46953301 eV

  energy  without entropy=     -920.46953301  energy(sigma->0) =     -920.46953301