 vasp.5.4.4.18Apr17-6-g9f103f2a35 (build Oct 31 2019 15:01:46) complex

 executed on             LinuxIFC date 2024.04.30  01:02:25

 INCAR:
 POTCAR:    PAW_PBE Ca_sv 06Sep2000
 POTCAR:    PAW_PBE Si 05Jan2001
 POTCAR:    PAW_PBE O 08Apr2002
 POTCAR:    PAW_PBE Ca_sv 06Sep2000
   VRHFIN =Ca: 3s3p4s

   TITEL  = PAW_PBE Ca_sv 06Sep2000
   POMASS =   40.078; ZVAL   =   10.000    mass and valenz
   ENMAX  =  266.622; ENMIN  =  199.967 eV

   TITEL  = PAW_PBE Si 05Jan2001
   POMASS =   28.085; ZVAL   =    4.000    mass and valenz
   ENMAX  =  245.345; ENMIN  =  184.009 eV

   TITEL  = PAW_PBE O 08Apr2002
   POMASS =   16.000; ZVAL   =    6.000    mass and valenz
   ENMAX  =  400.000; ENMIN  =  300.000 eV

 Optimization of the real space projectors (new method)

 maximal supplied QI-value         = 16.25
 optimisation between [QCUT,QGAM] = [ 12.51, 25.03] = [ 43.85,175.40] Ry
 Optimized for a Real-space Cutoff    1.47 Angstroem

   l    n(q)    QCUT    max X(q) W(low)/X(q) W(high)/X(q)  e(spline)
   0     11    12.514    11.817    0.25E-04    0.32E-05    0.87E-07
   0     11    12.514     8.461    0.39E-04    0.59E-05    0.18E-06
   1     11    12.514     3.957    0.97E-05    0.57E-05    0.28E-07
   1     11    12.514     4.314    0.42E-04    0.14E-04    0.23E-06
   2     10    12.514    14.565    0.79E-04    0.50E-03    0.16E-05
   2     10    12.514    14.552    0.75E-04    0.48E-03    0.15E-05
 Optimization of the real space projectors (new method)

[...]

   l    n(q)    QCUT    max X(q) W(low)/X(q) W(high)/X(q)  e(spline)
   0      9    12.501   159.560    0.10E-03    0.83E-04    0.71E-07
   0      9    12.501   115.863    0.99E-04    0.81E-04    0.70E-07
   1      8    12.501    88.339    0.20E-03    0.25E-03    0.76E-07
   1      8    12.501    48.592    0.20E-03    0.24E-03    0.75E-07
 Optimization of the real space projectors (new method)

 maximal supplied QI-value         = 24.76
 optimisation between [QCUT,QGAM] = [ 12.38, 25.00] = [ 42.90,175.06] Ry
 Optimized for a Real-space Cutoff    1.16 Angstroem

   l    n(q)    QCUT    max X(q) W(low)/X(q) W(high)/X(q)  e(spline)
   0      9    12.378    20.381    0.16E-03    0.67E-05    0.31E-06
   0      9    12.378    15.268    0.17E-03    0.81E-05    0.33E-06
   1      8    12.378     5.964    0.20E-03    0.16E-03    0.30E-06
   1      8    12.378     5.382    0.18E-03    0.14E-03    0.26E-06
  PAW_PBE Ca_sv 06Sep2000               :
  PAW_PBE Si 05Jan2001                  :
  PAW_PBE O 08Apr2002                   :

 POSCAR: Ca Si  O
  positions in direct lattice
 exchange correlation table for  LEXCH =        8
   RHO(1)=    0.500       N(1)  =     2000
   RHO(2)=  100.500       N(2)  =     4000

 ion  position               nearest neighbor table
   1  0.954  0.429  0.607-  58 2.12  60 2.22 127 2.43  92 2.49  32 2.86  20 3.08
   2  0.758  0.325  0.949-  67 2.18  84 2.19 128 2.30 120 2.30 118 2.55   6 3.01  46 3.16
   3  0.457  0.977  0.875-  73 2.02 107 2.23 115 2.34 130 2.37  74 2.40  83 2.54  42 2.68  16 2.85
                            17 3.12
   4  0.473  0.315  0.587- 117 2.03  75 2.37 111 2.51  61 2.51 132 2.53  45 2.59  54 2.86  30 3.04

   5  0.218  0.124  0.382- 122 1.82 123 2.34 133 2.36
   6  0.792  0.223  0.174-  84 2.01  67 2.09 134 2.11  71 2.39 126 2.53   2 3.01
   7  0.578  0.586  0.991-  80 1.87  94 2.13  66 2.24 120 2.32  35 2.48  15 3.15
   8  0.243  0.319  0.881-  95 2.02  81 2.19  72 2.25  38 2.41 111 2.44  54 3.04
   9  0.881  0.167  0.673- 124 1.81 106 1.97  97 2.31 102 2.38  58 2.43  28 2.65  53 2.96  32 3.03
                            38 3.12
  10  0.525  0.019  0.411- 113 2.11  82 2.12 122 2.12 132 2.26
  11  0.960  0.932  0.781-  76 2.22  70 2.34 112 2.46 121 2.57
  12  0.610  0.546  0.678-  88 1.90  64 2.26  79 2.31  33 3.12
  13  0.055  0.862  0.461-  90 2.01  87 2.43  56 2.52 125 2.57
  14  0.695  0.820  0.358-  96 1.92 113 2.06  87 2.45  48 2.95  52 3.09  47 3.14
  15  0.704  0.490  0.197- 120 2.10  55 2.14 129 2.22 126 2.27  80 2.47  40 2.66  25 2.81  44 2.86
                            46 3.12   7 3.15
  16  0.477  0.851  0.677-  74 1.93  93 2.12  63 2.15  86 2.31   3 2.85
  17  0.209  0.999  0.944- 112 2.17  83 2.22 130 2.29  36 3.01   3 3.12  24 3.14
  18  0.693  0.843  0.849-  74 1.94 135 2.21  76 2.32  86 2.39  29 2.95
  19  0.991  0.528  0.328-  55 2.10  92 2.15  69 2.38  46 3.03  27 3.14  22 3.16
  20  0.018  0.527  0.833- 100 2.00 103 2.34  49 2.52  21 3.05   1 3.08
  21  0.144  0.709  0.711- 127 2.11  70 2.14 116 2.34 109 2.52 100 2.54  33 3.01  20 3.05
  22  0.212  0.568  0.463-  91 2.03  78 2.21 109 2.23  37 2.60  51 2.99  19 3.16
  23  0.062  0.305  0.178-  69 2.01 131 2.04  46 2.41  84 2.44 110 2.45  24 3.13
  24  0.279  0.178  0.118- 131 2.19 110 2.34 123 2.36  81 2.52  73 2.54  23 3.13  17 3.14
  25  0.524  0.348  0.161- 126 1.91 120 1.97  15 2.81
  26  0.189  0.311  0.586-  72 2.06  58 2.09 111 2.17  91 2.36
  27  0.151  0.603  0.139-  59 1.84  78 1.96 103 2.19  89 2.45  36 2.80  19 3.14
  28  0.753  0.179  0.495- 106 1.54  97 1.76  62 1.84  82 2.07 108 2.20  53 2.30  71 2.30  44 2.52
                           124 2.55   9 2.65  32 2.69  31 2.93
  29  0.747  0.044  0.977-  67 1.49  76 1.61  85 1.68 107 1.79  42 2.69  52 2.80  18 2.95
  30  0.485  0.490  0.406-  98 1.45  61 1.65  75 1.69 119 1.83  37 2.63   4 3.04  51 3.14  44 3.14

  31  0.618  0.074  0.667-  86 1.56  97 1.66 115 1.71 132 1.95  45 2.68  28 2.93
  32  0.957  0.252  0.449- 108 1.63  58 1.70  69 1.82  71 2.14 106 2.15  28 2.69   1 2.86   9 3.03

  33  0.354  0.576  0.696- 109 1.60  88 1.61 117 1.72 116 1.74  21 3.01  12 3.12
  34  0.295  0.894  0.232- 123 1.51 114 1.76  65 1.84 104 2.23
  35  0.504  0.745  0.099- 105 1.59  94 1.63  65 1.82  66 1.89   7 2.48  52 3.10  39 3.14
  36  0.097  0.786  0.008- 112 1.41  59 1.57  89 1.89 114 2.11  77 2.27 100 2.51  27 2.80  43 2.82
                            39 2.88  17 3.01
  37  0.296  0.443  0.310-  91 1.64 119 1.66 110 1.70  78 1.73  75 2.43  22 2.60  30 2.63
  38  0.070  0.230  0.837- 102 1.69  72 1.73  81 1.81 101 2.25   8 2.41   9 3.12
  39  0.312  0.722  0.926-  66 1.56  89 1.57 116 1.67  83 1.69  36 2.88  35 3.14
  40  0.833  0.601  0.058-  80 1.48 128 1.62  57 1.99  46 2.38 135 2.49  15 2.66  43 3.12
  41  0.211  0.003  0.659- 133 1.59  93 1.60  70 1.83 101 1.89 130 1.91  45 2.78
  42  0.542  0.117  0.024-  73 1.63  68 1.72 118 1.74 107 2.05  52 2.68   3 2.68  29 2.69
  43  0.955  0.784  0.193-  57 1.59  77 1.84 125 1.90  59 2.07  50 2.76  36 2.82  40 3.12
  44  0.701  0.349  0.387-  71 1.54 126 1.63  62 1.85  61 2.11  28 2.52  15 2.86  30 3.14
  45  0.403  0.128  0.663- 132 1.55 111 1.94 115 1.99 130 2.17 133 2.32  93 2.51   4 2.59  31 2.68
                            41 2.78
  46  0.937  0.440  0.100-  55 1.68  84 1.81 128 1.90 103 2.08  40 2.38  23 2.41  19 3.03  15 3.12
                             2 3.16
  47  0.776  0.597  0.462-  92 1.62  79 1.62  99 1.75 129 1.77  48 2.38  14 3.14
  48  0.796  0.759  0.572- 121 1.60  96 1.64  99 1.70  79 1.85  47 2.38  49 2.86  14 2.95  53 3.06

[...]

  54  0.485  0.350  0.820-  64 1.45  95 1.62 118 2.30 117 2.37   4 2.86   8 3.04
  55  0.875  0.454  0.224-  46 1.68  19 2.10  15 2.14
  56  0.247  0.786  0.493-  51 2.01  13 2.52
  57  0.876  0.679  0.197-  43 1.59  40 1.99
  58  0.022  0.271  0.573-  32 1.70  26 2.09   1 2.12   9 2.43
  59  0.043  0.691  0.079-  36 1.57  27 1.84  43 2.07
  60  0.847  0.541  0.704-  49 1.67   1 2.22
  61  0.592  0.448  0.479-  30 1.65  44 2.11   4 2.51
  62  0.620  0.237  0.452-  28 1.84  44 1.85
  63  0.525  0.818  0.509-  51 1.99  16 2.15
  64  0.589  0.387  0.773-  54 1.45  12 2.26
  65  0.419  0.856  0.152-  35 1.82  34 1.84
  66  0.422  0.684  0.980-  39 1.56  35 1.89   7 2.24
  67  0.771  0.158  0.015-  29 1.49   6 2.09   2 2.18
  68  0.574  0.086  0.159-  52 1.64  42 1.72
  69  0.012  0.333  0.335-  32 1.82  23 2.01  19 2.38
  70  0.123  0.883  0.690-  41 1.83  21 2.14  11 2.34
  71  0.812  0.295  0.357-  44 1.54  32 2.14  28 2.30   6 2.39
  72  0.121  0.323  0.741-  38 1.73  26 2.06   8 2.25
  73  0.420  0.062  0.014-  42 1.63   3 2.02  24 2.54
  74  0.540  0.807  0.816-  16 1.93  18 1.94   3 2.40
  75  0.455  0.355  0.396-  30 1.69   4 2.37  37 2.43
  76  0.812  0.990  0.874-  29 1.61  11 2.22  18 2.32
  77  0.013  0.907  0.125-  50 1.70  43 1.84  36 2.27
  78  0.214  0.556  0.281-  37 1.73  27 1.96  22 2.21
  79  0.686  0.657  0.542-  47 1.62  48 1.85  12 2.31
  80  0.714  0.631  0.050-  40 1.48   7 1.87  15 2.47
  81  0.135  0.203  0.970-  38 1.81   8 2.19  24 2.52
  82  0.698  0.027  0.438-  53 1.71  28 2.07  10 2.12
  83  0.290  0.850  0.874-  39 1.69  17 2.22   3 2.54
  84  0.893  0.301  0.068-  46 1.81   6 2.01   2 2.19  23 2.44
  85  0.736  0.943  0.071-  29 1.68  52 1.69
  86  0.640  0.948  0.691-  31 1.56  16 2.31  18 2.39
  87  0.874  0.910  0.386-  53 1.91  13 2.43  14 2.45
  88  0.477  0.622  0.715-  33 1.61  12 1.90
  89  0.193  0.675  0.953-  39 1.57  36 1.89  27 2.45
  90  0.062  0.955  0.324-  50 1.58  13 2.01
  91  0.224  0.407  0.419-  37 1.64  22 2.03  26 2.36
  92  0.856  0.492  0.437-  47 1.62  19 2.15   1 2.49
  93  0.325  0.936  0.665-  41 1.60  16 2.12  45 2.51
  94  0.531  0.626  0.156-  35 1.63   7 2.13
  95  0.388  0.400  0.898-  54 1.62   8 2.02
  96  0.712  0.849  0.514-  48 1.64  14 1.92  53 2.28
  97  0.696  0.180  0.630-  31 1.66  28 1.76   9 2.31
  98  0.448  0.595  0.450-  30 1.45  51 1.74
  99  0.884  0.690  0.486-  48 1.70  47 1.75
 100  0.993  0.689  0.857-  49 1.86  20 2.00  36 2.51  21 2.54
 101  0.095  0.086  0.723-  41 1.89  38 2.25
 102  0.931  0.231  0.852-  38 1.69   9 2.38
 103  0.076  0.495  0.015-  46 2.08  27 2.19  20 2.34
 104  0.352  0.755  0.338-  51 1.53  34 2.23
 105  0.596  0.833  0.067-  35 1.59  52 1.94
 106  0.819  0.267  0.559-  28 1.54   9 1.97  32 2.15
 107  0.625  0.049  0.892-  29 1.79  42 2.05   3 2.23
 108  0.918  0.123  0.443-  32 1.63  53 2.01  28 2.20
 109  0.239  0.536  0.643-  33 1.60  22 2.23  21 2.52
 110  0.256  0.339  0.224-  37 1.70  24 2.34  23 2.45
 111  0.313  0.254  0.703-  45 1.94  26 2.17   8 2.44   4 2.51
 112  0.080  0.874  0.934-  36 1.41  17 2.17  11 2.46
 113  0.633  0.962  0.286-  52 1.57  14 2.06  10 2.11
[...]
 121  0.837  0.782  0.696-  48 1.60  49 1.80  11 2.57
 122  0.361  0.078  0.395-   5 1.82  10 2.12
 123  0.277  0.018  0.231-  34 1.51   5 2.34  24 2.36
 124  0.829  0.034  0.628-  53 1.57   9 1.81  28 2.55
 125  0.083  0.754  0.280-  43 1.90  13 2.57
 126  0.638  0.329  0.269-  44 1.63  25 1.91  15 2.27   6 2.53
 127  0.055  0.603  0.605-  21 2.11   1 2.43
 128  0.844  0.490  0.984-  40 1.62  46 1.90   2 2.30
 129  0.690  0.600  0.344-  47 1.77  15 2.22
 130  0.298  0.047  0.783-  41 1.91  45 2.17  17 2.29   3 2.37
 131  0.109  0.143  0.170-  23 2.04  24 2.19  50 2.23
 132  0.492  0.108  0.573-  45 1.55  31 1.95  10 2.26   4 2.53
 133  0.236  0.099  0.574-  41 1.59  45 2.32   5 2.36
 134  0.895  0.086  0.205-  50 1.58   6 2.11
 135  0.789  0.690  0.878-  49 1.62  18 2.21  40 2.49

IMPORTANT INFORMATION: All symmetrisations will be switched off!
NOSYMM: (Re-)initialisation of all symmetry stuff for point group C_1.

Automatic generation of k-mesh.
 generate k-points for:    2    2    2
[...]
     0.000000000  0.000000000 12.093787620     0.000000000  0.000000000  0.082687081

  length of vectors
    12.093787620 12.093787620 12.093787620     0.082687081  0.082687081  0.082687081

 FORCES acting on ions
    electron-ion (+dipol)            ewald-force                    non-local-force                 convergence-correction
   0.387E+02 -.704E+02 -.109E+03   -.395E+02 0.761E+02 0.107E+03   0.254E-01 -.291E+01 0.180E+01   0.479E-03 -.237E-02 0.212E-02
   0.302E+02 -.464E+02 0.351E+03   -.306E+02 0.449E+02 -.347E+03   -.559E+00 0.150E+01 -.577E+01   -.461E-02 -.629E-02 -.618E-02
   0.707E+02 0.516E+02 -.132E+03   -.713E+02 -.545E+02 0.131E+03   -.215E-01 -.505E+00 -.146E+01   -.184E-01 0.617E-02 -.151E-01
   0.198E+01 0.413E+02 0.748E+01   -.116E+01 -.357E+02 -.130E+02   0.109E+01 -.524E+01 0.227E+01   -.214E-02 -.390E-02 0.347E-02
   0.136E+03 -.456E+02 0.244E+02   -.132E+03 0.409E+02 -.259E+02   -.726E+01 0.533E+01 0.518E+00   -.318E-02 -.274E-02 0.755E-02
   0.735E+02 0.179E+03 -.788E+02   -.684E+02 -.183E+03 0.786E+02   -.607E+01 0.281E+01 0.332E+01   -.285E-02 -.527E-02 -.873E-03
   0.192E+03 0.900E+02 0.256E+03   -.192E+03 -.939E+02 -.253E+03   -.282E+01 0.486E-02 -.722E+01   -.689E-02 -.353E-03 -.166E-02
   -.415E+02 -.121E+03 -.215E+03   0.455E+02 0.122E+03 0.213E+03   -.211E+01 -.237E+00 0.215E+01   0.453E-02 -.963E-02 -.405E-02
   -.146E+03 -.623E+02 -.309E+03   0.150E+03 0.659E+02 0.314E+03   0.168E+01 0.782E+00 0.165E+01   0.167E-02 -.154E-02 0.150E-02
   0.225E+03 0.394E+02 0.159E+03   -.229E+03 -.380E+02 -.160E+03   0.164E+01 -.133E+01 0.321E+00   -.141E-02 -.484E-02 0.625E-02
   -.153E+02 -.167E+02 -.547E+02   0.180E+02 0.178E+02 0.572E+02   -.179E+01 -.111E+01 -.189E+01   0.759E-02 0.320E-02 -.313E-02
   -.190E+03 0.391E+02 -.102E+03   0.186E+03 -.385E+02 0.997E+02   0.605E+01 -.182E+01 0.755E+00   -.142E-02 -.618E-03 -.804E-03
   -.722E+02 0.290E+02 -.122E+03   0.731E+02 -.305E+02 0.114E+03   -.344E+00 -.691E+00 0.733E+01   0.121E-01 0.963E-03 0.858E-02
   0.360E+02 0.181E+03 0.313E+03   -.354E+02 -.179E+03 -.311E+03   -.322E+00 -.450E+01 -.465E+01   -.553E-02 0.223E-02 0.326E-02
   0.825E+02 -.164E+03 -.461E+02   -.843E+02 0.166E+03 0.472E+02   0.717E+00 -.195E+00 -.750E-01   -.119E-01 -.139E-02 0.206E-02
   0.121E+03 0.145E+03 0.162E+03   -.119E+03 -.148E+03 -.164E+03   -.227E+01 0.194E+01 -.629E+00   -.272E-01 0.153E-01 -.576E-02
   0.106E+03 -.162E+03 -.164E+03   -.106E+03 0.156E+03 0.160E+03   0.163E+00 0.622E+01 0.412E+01   0.105E-01 0.526E-02 -.213E-01
   -.146E+03 0.111E+03 -.126E+03   0.143E+03 -.111E+03 0.125E+03   0.394E+01 0.998E+00 0.146E+01   -.555E-03 0.449E-02 -.184E-02
   -.174E+03 -.189E+03 -.573E+02   0.170E+03 0.187E+03 0.579E+02   0.521E+01 0.343E+01 0.358E+00   0.636E-02 0.132E-02 0.112E-01
   -.602E+02 0.220E+03 -.975E+01   0.624E+02 -.217E+03 0.158E+02   -.470E-01 -.535E+01 -.438E+01   0.345E-02 -.202E-03 -.897E-02
   -.840E+01 -.392E+02 0.526E+02   0.906E+01 0.405E+02 -.553E+02   0.462E+00 -.634E+00 0.285E+01   0.996E-02 0.121E-01 -.502E-02
   0.286E+02 -.191E+03 -.826E+01   -.304E+02 0.193E+03 0.115E+02   0.331E+00 0.290E+01 -.927E+00   0.520E-02 0.875E-02 0.271E-02
   -.160E+03 -.540E+01 0.146E+03   0.164E+03 -.413E+01 -.143E+03   -.157E+01 0.689E+01 -.420E+01   0.619E-02 -.772E-02 0.278E-03
   -.186E+03 -.994E+02 0.380E+02   0.180E+03 0.968E+02 -.316E+02   0.538E+01 0.191E+01 -.485E+01   0.216E-02 -.343E-03 -.738E-02
   0.452E+03 0.118E+03 0.988E+02   -.450E+03 -.115E+03 -.996E+02   -.782E+01 -.344E+01 -.540E+00   -.434E-02 -.827E-03 -.215E-02
   -.828E+02 -.138E+02 0.135E+03   0.836E+02 0.126E+02 -.132E+03   0.174E+01 0.145E+01 -.383E+01   0.292E-02 -.552E-02 0.459E-02
   -.284E+03 0.996E+02 0.176E+01   0.287E+03 -.100E+03 -.157E+01   0.186E+01 -.113E+01 -.271E+00   0.129E-01 0.293E-02 0.223E-02
   0.243E+02 0.563E+02 0.108E+03   -.292E+02 -.458E+02 -.993E+02   -.335E+01 -.106E+02 -.120E+02   -.450E-03 -.669E-03 0.147E-02
   -.634E+02 0.333E+02 -.355E+02   0.679E+02 -.286E+02 0.314E+02   -.461E+01 -.990E+01 -.462E+00   -.829E-03 0.366E-03 -.116E-02
   -.491E+01 -.253E+02 0.616E+02   0.101E+01 0.224E+02 -.570E+02   0.562E+01 -.639E+01 -.104E+02   -.132E-02 0.951E-03 0.559E-03
   -.149E+02 -.316E+02 0.643E+01   0.173E+02 0.259E+02 -.448E+00   -.375E+01 0.716E+01 -.479E+01   -.316E-02 -.648E-03 0.884E-03
   -.794E+02 0.434E+01 0.580E+02   0.830E+02 -.735E+01 -.550E+02   -.401E+01 0.585E+01 -.512E+01   0.595E-03 -.139E-02 0.194E-02
   0.135E+02 -.263E+02 -.114E+02   -.117E+02 0.227E+02 0.121E+02   -.535E+00 0.219E+01 0.264E+01   -.829E-03 0.263E-02 -.682E-03
   -.203E+02 0.838E+02 -.103E+03   0.194E+02 -.702E+02 0.903E+02   0.265E+01 -.204E+02 0.783E+01   0.134E-02 -.198E-02 0.198E-02
   0.720E+02 -.101E+02 -.621E+02   -.659E+02 0.979E+01 0.671E+02   -.118E+02 0.193E+01 -.187E+01   -.160E-02 0.536E-03 0.814E-04
   0.773E+01 -.904E+01 -.425E+02   -.118E+02 0.144E+02 0.348E+02   0.968E+01 -.125E+02 0.138E+02   0.266E-02 0.264E-02 -.299E-02
   -.496E+02 0.508E+02 0.705E+02   0.444E+02 -.488E+02 -.726E+02   0.318E+01 -.418E+01 -.112E+01   0.108E-02 0.803E-03 0.468E-03
   0.179E+02 0.325E+02 -.526E+02   -.251E+02 -.305E+02 0.526E+02   0.280E+01 -.574E+01 -.118E+01   0.306E-02 -.331E-02 -.159E-02
   -.471E+02 0.282E+02 -.815E+02   0.437E+02 -.271E+02 0.761E+02   0.300E+01 0.278E+01 -.957E-02   0.547E-03 0.219E-02 -.251E-02
   -.114E+03 -.112E+03 0.732E+01   0.101E+03 0.108E+03 -.991E+01   0.178E+02 0.692E+01 0.187E+01   -.438E-02 0.249E-02 -.234E-02
   0.989E+02 0.345E+02 0.669E+02   -.913E+02 -.336E+02 -.683E+02   -.111E+02 -.179E+01 0.654E+01   0.132E-01 -.503E-02 0.597E-02
   0.149E+02 -.528E+02 -.594E+02   -.219E+02 0.534E+02 0.556E+02   0.737E+01 0.172E+01 -.372E+00   -.186E-02 -.455E-03 -.213E-02
   0.771E+02 -.954E+02 -.745E+01   -.735E+02 0.882E+02 0.122E+02   0.440E+01 0.723E+01 -.350E+01   0.138E-02 0.318E-02 0.881E-03
   0.375E+02 -.894E+02 -.881E+02   -.368E+02 0.749E+02 0.776E+02   -.832E+01 0.141E+02 0.131E+02   -.143E-02 -.957E-03 0.156E-02
   0.732E+02 -.180E+02 -.203E+02   -.665E+02 0.189E+02 0.179E+02   -.136E+02 -.232E+01 0.916E+01   -.615E-02 -.838E-02 0.540E-02
   -.107E+03 -.318E+02 0.716E+02   0.103E+03 0.309E+02 -.685E+02   0.169E+01 0.777E+00 -.778E+01   0.896E-03 -.529E-02 -.134E-02
   0.451E+01 0.133E+02 -.140E+02   -.587E+01 -.134E+02 0.940E+01   -.482E-02 -.743E+00 -.642E+00   -.105E-02 0.463E-03 0.193E-02
   -.584E+02 0.436E+01 -.372E+02   0.546E+02 -.437E+00 0.329E+02   0.704E+00 -.333E+01 0.130E+01   -.219E-03 0.937E-03 0.646E-03
   -.221E+01 0.153E+02 0.288E+02   -.395E+01 -.166E+02 -.194E+02   0.582E+01 0.386E+01 -.738E+01   0.259E-03 0.842E-03 -.206E-02
   -.545E+01 -.121E+02 0.412E+02   0.165E+01 0.132E+02 -.363E+02   0.535E+01 0.155E+01 -.608E+01   0.673E-03 0.793E-03 0.415E-03
   -.141E+02 -.376E+02 -.459E+02   0.101E+02 0.452E+02 0.341E+02   0.580E+01 -.386E+01 0.151E+02   -.455E-02 0.355E-02 0.232E-02
   0.225E+02 0.586E+02 0.989E+01   -.174E+02 -.556E+02 -.102E+01   -.427E+01 -.688E+01 -.108E+02   -.129E-02 0.212E-03 -.473E-03
   -.103E+03 0.695E+02 0.407E+02   0.985E+02 -.710E+02 -.385E+02   0.473E+01 -.526E+01 -.948E+01   0.218E-03 0.174E-03 0.127E-02
   0.411E+02 0.525E+02 -.704E+02   -.345E+02 -.405E+02 0.697E+02   -.135E+02 -.137E+02 0.495E+01   -.138E-02 -.212E-02 -.235E-03
   -.314E+02 -.242E+02 0.732E+01   0.219E+02 0.224E+02 0.122E+02   0.107E+02 0.127E+01 -.220E+02   -.363E-02 -.529E-02 0.723E-02
   0.501E+01 -.637E+02 0.183E+02   -.122E+02 0.723E+02 -.191E+02   0.930E+01 -.107E+02 0.253E+01   0.390E-02 0.504E-02 0.793E-02
   0.743E+02 -.114E+03 -.243E+02   -.898E+02 0.953E+02 0.347E+02   0.134E+02 0.189E+02 -.112E+02   -.255E-02 0.502E-02 0.659E-02
   -.618E+02 0.761E+02 0.665E+01   0.708E+02 -.805E+02 0.137E+02   -.101E+02 0.337E+01 -.240E+02   0.172E-02 -.228E-02 0.225E-02
   0.140E+03 -.491E+02 0.257E+02   -.155E+03 0.262E+02 -.196E+02   0.730E+01 0.284E+02 -.691E+01   0.668E-02 0.578E-02 -.182E-02
   0.110E+03 0.804E+02 -.400E+02   -.118E+03 -.989E+02 0.273E+02   0.798E+01 0.199E+02 0.147E+02   -.599E-03 -.123E-02 -.133E-02
[...]
   -.573E+02 0.252E+02 0.557E+02   0.629E+02 -.274E+02 -.547E+02   -.133E+01 0.152E+01 -.654E+00   -.643E-03 -.379E-02 0.638E-02
   -.430E+02 0.103E+02 0.244E+01   0.374E+02 0.208E+02 -.345E+01   0.564E+01 -.283E+02 0.111E+01   -.501E-03 -.168E-02 -.157E-02
   -.714E+02 0.180E+03 -.638E+02   0.657E+02 -.184E+03 0.921E+02   0.559E+01 -.280E+01 -.299E+02   0.771E-03 0.120E-03 0.109E-02
   -.611E+02 -.170E+02 -.798E+02   0.779E+02 0.176E+02 0.862E+02   -.211E+02 -.160E+01 -.697E+01   0.573E-02 0.223E-02 0.558E-02
   0.968E+02 0.114E+03 -.238E+02   -.107E+03 -.124E+03 0.118E+02   0.135E+02 0.117E+02 0.133E+02   -.295E-02 -.144E-02 0.494E-03
   0.484E+02 -.353E+02 0.702E+02   -.497E+02 0.371E+02 -.735E+02   -.137E+00 -.357E+01 0.284E+01   0.328E-02 0.267E-02 0.242E-03
   -.317E+02 -.554E+01 0.178E+03   0.264E+02 -.710E+01 -.200E+03   0.725E+01 0.113E+02 0.218E+02   -.568E-02 -.539E-02 -.961E-02
   0.892E+02 -.113E+03 0.373E+02   -.103E+03 0.116E+03 -.512E+02   0.163E+02 -.243E+01 0.159E+02   -.408E-02 0.128E-02 0.263E-02
   0.453E+02 -.119E+03 -.666E+02   -.451E+02 0.121E+03 0.759E+02   0.654E+00 0.176E+01 -.914E+01   0.369E-02 -.143E-01 -.124E-01
   0.289E+02 0.118E+03 0.223E+02   -.299E+02 -.120E+03 -.253E+02   0.983E+00 0.725E+00 0.408E+01   0.141E-02 -.109E-02 -.166E-02
   0.625E+02 0.454E+01 0.883E+02   -.506E+02 -.719E+01 -.118E+03   -.976E+01 0.207E+01 0.286E+02   -.518E-02 -.511E-02 0.709E-02
   0.439E+02 0.163E+02 0.120E+03   -.412E+02 0.255E+01 -.137E+03   -.194E+01 -.172E+02 0.146E+02   0.440E-02 -.108E-01 0.127E-01
   -.125E+02 0.109E+03 0.272E+02   -.846E+01 -.949E+02 -.314E+02   0.210E+02 -.150E+02 0.482E+01   -.126E-03 -.415E-03 -.646E-04
   0.216E+02 0.307E+02 -.620E+02   -.356E+02 -.261E+02 0.855E+02   0.139E+02 -.590E+01 -.247E+02   -.197E-02 0.241E-02 -.403E-02
   -.759E+02 0.344E+02 -.618E+02   -.142E-13 0.256E-12 -.909E-12   0.759E+02 -.344E+02 0.618E+02   -.163E-01 -.256E-02 -.511E-02

 POSITION                                       TOTAL-FORCE (eV/Angst)
     11.53882      5.18544      7.33503        -0.782384      2.812655     -0.272296
      9.16919      3.92869     11.47632        -0.992142     -0.091130     -1.707785
      5.52329     11.81510     10.58144        -0.702233     -3.401733     -2.445539
      5.72277      3.81525      7.09646         1.913263      0.319062     -3.221574
      2.63159      1.50082      4.61506        -3.692001      0.675092     -0.965912
      9.57639      2.70227      2.10587        -0.970996     -1.359337      3.122511
      6.99424      7.09194     11.98418        -2.966211     -3.958160     -4.374045
      2.93522      3.85758     10.65880         1.910403      1.585434     -0.601017
     10.66026      2.02570      8.13517         5.022638      4.439641      6.686819
      6.35199      0.22874      4.97498        -2.780674      0.074950      0.283071
     11.60713     11.27233      9.44749         1.004840      0.053609      0.585091
      7.37355      6.60418      8.19594         2.305866     -1.225911     -1.394136
      0.66525     10.42245      5.57645         0.504903     -2.151540     -0.046277
      8.40598      9.91628      4.33350         0.342775     -2.987265     -2.705094
      8.51223      5.92966      2.38780        -1.158358      2.647284      1.038174
      5.77013     10.28669      8.18465        -0.646368     -1.495959     -2.223413
      2.52442     12.08164     11.41085        -0.025633     -0.571907      0.002105
      8.38042     10.19048     10.27155         1.551385      0.879436      0.673077
     11.99072      6.38479      3.96947         0.937971      1.336838      0.973760
      0.21973      6.37527     10.07039         2.154144     -3.133398      1.650831
      1.74177      8.57174      8.59880         1.129558      0.644207      0.105827
      2.56588      6.86982      5.59919        -1.435471      4.217815      2.354912
      0.75145      3.69222      2.15719         2.380601     -2.641352     -1.149718
      3.37157      2.15035      1.43249        -0.547528     -0.713671      1.530799
      6.33276      4.21178      1.95032        -5.582902     -0.585912     -1.299948
      2.28986      3.75621      7.08654         2.587505      0.229808     -1.352192
      1.83214      7.29655      1.67597         5.259870     -1.803450     -0.072775
      9.10570      2.15925      5.99242        -8.282554     -0.106351     -2.874172
      9.03162      0.52883     11.81203        -0.108769     -5.124776     -4.497284
      5.86220      5.93069      4.91204         1.715207     -9.291003     -5.765133
      7.47421      0.88912      8.06919        -1.358753      1.411791      1.195793
     11.57886      3.04515      5.43118        -0.383746      2.835247     -2.168764
      4.27748      6.96238      8.41360         1.270490     -1.441057      3.347563
      3.56713     10.81373      2.80335         1.747953     -6.744648     -4.919455
      6.09535      9.00469      1.19230        -5.616314      1.593130      3.139824
      1.17850      9.50517      0.09131         5.595877     -7.145085      6.004401
      3.57427      5.35542      3.74791        -1.991692     -2.175573     -3.162267
      0.84777      2.78326     10.12801        -4.383952     -3.686154     -1.178195
      3.76767      8.72850     11.19556        -0.454599      3.857931     -5.353432
     10.06920      7.27111      0.70643         4.460742      2.968906     -0.720273
      2.54881      0.03288      7.97388        -3.484433     -0.918466      5.136746
      6.55899      1.41534      0.29053         0.336087      2.287779     -4.155449
     11.55468      9.47891      2.33354         8.014148      0.042212      1.239147
      8.48197      4.21746      4.67579        -7.662932     -0.446457      2.631466
      4.87974      1.54572      8.02259        -6.893375     -1.474359      6.781727
     11.33670      5.32200      1.21327        -1.988137     -0.163987     -4.684442
      9.38269      7.21455      5.58937        -1.366586     -0.808539     -5.227121
      9.62668      9.17861      6.91315        -3.069169      0.600135     -3.015854
     10.49623      7.97046      9.35384        -0.342825      2.615213      2.003547
     12.05369      0.07309      2.69583         1.553610      2.620718     -1.125328
      4.81746      8.83149      5.48157         1.762229      3.840016      3.249535
      7.58663     11.63360      1.90028         0.840983     -3.814805     -1.961788
      9.93482      0.01878      6.08374        -0.056400     -6.707605     -7.329160
      5.86386      4.23404      9.91990        -6.891148     -1.739882      4.261638
     10.57854      5.48962      2.70624         1.137545     -0.538141     -2.478659
      2.98366      9.50820      5.96681         2.159205     -2.059067      1.745327
     10.58840      8.21755      2.37682        -2.189567     -0.243349     -0.828187
      0.26798      3.27224      6.92392        -1.153444     -1.020345     -3.615951
      0.52033      8.36176      0.95117        -7.754802      5.518937     -0.853108
     10.24575      6.54858      8.51176         0.056289      1.471559      2.030431
[...]
     10.11825      9.45616      8.41233         1.143073     -1.106149      0.591842
      4.36235      0.94601      4.77300         4.255813     -0.716259      0.397141
      3.35495      0.21891      2.79299         0.015549      2.796728      0.093402
     10.03100      0.41306      7.59663        -0.096796     -7.057530     -1.644595
      0.99804      9.11829      3.38834        -4.219773     -0.971375     -0.549094
      7.71811      3.98469      3.25125         2.863481      1.265725      1.353395
      0.66016      7.28704      7.31886        -1.478205     -1.710981     -0.436039
     10.21230      5.93112     11.89935         1.897650     -1.327097     -0.309753
      8.33877      7.25835      4.15949         2.042100      0.356815      1.933433
      3.60358      0.56362      9.47284         0.896520      3.154874      0.096544
      1.31254      1.73113      2.06155         0.035418     -2.008187      1.061145
      5.94958      1.30399      6.92580         2.139607     -0.580234     -1.322500
      2.85416      1.20029      6.94023         0.769114      1.690550     -1.961507
     10.82062      1.03573      2.48359         0.095660     -0.761637      0.613587
      9.54463      8.34790     10.61382        -0.137903     -1.336247     -1.112332
    total drift:                               -0.028450      0.003565     -0.008677

  FREE ENERGIE OF THE ION-ELECTRON SYSTEM (eV)
  free  energy   TOTEN  =      -869.44577047 eV

  energy  without entropy=     -869.38569343  energy(sigma->0) =     -869.41573195