 vasp.5.4.4.18Apr17-6-g9f103f2a35 (build Mar 16 2023 09:39:13) complex

 executed on             LinuxIFC date 2024.04.30  04:38:33

 INCAR:
 POTCAR:    PAW_PBE Ca_sv 06Sep2000
 POTCAR:    PAW_PBE Si 05Jan2001
 POTCAR:    PAW_PBE O 08Apr2002
 POTCAR:    PAW_PBE Ca_sv 06Sep2000
   VRHFIN =Ca: 3s3p4s

   TITEL  = PAW_PBE Ca_sv 06Sep2000
   POMASS =   40.078; ZVAL   =   10.000    mass and valenz
   ENMAX  =  266.622; ENMIN  =  199.967 eV

   TITEL  = PAW_PBE Si 05Jan2001
   POMASS =   28.085; ZVAL   =    4.000    mass and valenz
   ENMAX  =  245.345; ENMIN  =  184.009 eV

   TITEL  = PAW_PBE O 08Apr2002
   POMASS =   16.000; ZVAL   =    6.000    mass and valenz
   ENMAX  =  400.000; ENMIN  =  300.000 eV

 Optimization of the real space projectors (new method)

 maximal supplied QI-value         = 16.25
 optimisation between [QCUT,QGAM] = [ 12.51, 25.03] = [ 43.85,175.40] Ry
 Optimized for a Real-space Cutoff    1.47 Angstroem

   l    n(q)    QCUT    max X(q) W(low)/X(q) W(high)/X(q)  e(spline)
   0     11    12.514    11.817    0.25E-04    0.32E-05    0.87E-07
   0     11    12.514     8.461    0.39E-04    0.59E-05    0.18E-06
   1     11    12.514     3.957    0.97E-05    0.57E-05    0.28E-07
   1     11    12.514     4.314    0.42E-04    0.14E-04    0.23E-06
   2     10    12.514    14.565    0.79E-04    0.50E-03    0.16E-05
   2     10    12.514    14.552    0.75E-04    0.48E-03    0.15E-05
 Optimization of the real space projectors (new method)

[...]

   l    n(q)    QCUT    max X(q) W(low)/X(q) W(high)/X(q)  e(spline)
   0      9    12.501   159.560    0.10E-03    0.83E-04    0.71E-07
   0      9    12.501   115.863    0.99E-04    0.81E-04    0.70E-07
   1      8    12.501    88.339    0.20E-03    0.25E-03    0.76E-07
   1      8    12.501    48.592    0.20E-03    0.24E-03    0.75E-07
 Optimization of the real space projectors (new method)

 maximal supplied QI-value         = 24.76
 optimisation between [QCUT,QGAM] = [ 12.38, 25.00] = [ 42.90,175.06] Ry
 Optimized for a Real-space Cutoff    1.16 Angstroem

   l    n(q)    QCUT    max X(q) W(low)/X(q) W(high)/X(q)  e(spline)
   0      9    12.378    20.381    0.16E-03    0.67E-05    0.31E-06
   0      9    12.378    15.268    0.17E-03    0.81E-05    0.33E-06
   1      8    12.378     5.964    0.20E-03    0.16E-03    0.30E-06
   1      8    12.378     5.382    0.18E-03    0.14E-03    0.26E-06
  PAW_PBE Ca_sv 06Sep2000               :
  PAW_PBE Si 05Jan2001                  :
  PAW_PBE O 08Apr2002                   :

 POSCAR: Ca Si  O
  positions in direct lattice
 exchange correlation table for  LEXCH =        8
   RHO(1)=    0.500       N(1)  =     2000
   RHO(2)=  100.500       N(2)  =     4000

 ion  position               nearest neighbor table
   1  0.522  0.585  0.318-  65 1.96  72 2.08 105 2.31  31 2.92  49 3.01
   2  0.601  0.995  0.736-  98 2.38 123 2.40 117 2.44  20 3.16
   3  0.326  0.301  0.576- 129 2.09  93 2.29 113 2.30  85 2.54  36 2.74  35 3.00  49 3.12
   4  0.996  0.433  0.826-  71 2.09 115 2.11  60 2.28  52 2.85  48 2.86
   5  0.938  0.255  0.515-  76 1.91  90 2.22 109 2.49  50 3.09
   6  0.722  0.475  0.504- 122 2.53
   7  0.803  0.846  0.231-  88 2.00  56 2.38  13 3.10  28 3.13
   8  0.177  0.263  0.922-  71 2.27 131 2.51  62 2.53  96 2.56  48 3.06
   9  0.836  0.696  0.648- 128 2.18  81 2.28 103 2.34 101 2.47  51 3.01  13 3.15
  10  0.038  0.296  0.173- 108 2.23 130 2.35 132 2.41 131 2.46  82 2.53  41 2.66  48 2.74
  11  0.066  0.039  0.271-  75 2.19  84 2.20 108 2.29  78 2.50  32 2.78
  12  0.125  0.777  0.632- 133 2.00  97 2.16 110 2.17  81 2.47
  13  0.931  0.768  0.427-  89 2.22  81 2.24 110 2.33  92 2.39 118 2.53  34 2.99   7 3.10   9 3.15

  14  0.462  0.776  0.088- 116 2.07  67 2.22  47 2.97
  15  0.959  0.102  0.809-  96 2.12  70 2.19 109 2.40  44 2.82  48 3.04
  16  0.467  0.083  0.532- 117 1.94 102 2.16  98 2.17 113 2.49  36 3.03
  17  0.250  0.941  0.428-  84 2.16  66 2.22  46 3.16
  18  0.931  0.631  0.998-  55 2.47  60 2.49  38 2.86
  19  0.446  0.530  0.939-  68 2.04 104 2.16 126 2.47  31 3.04
  20  0.626  0.748  0.785-  79 2.29 101 2.33   2 3.16
  21  0.402  0.037  0.961-  64 2.19 116 2.21 123 2.42  77 2.46  32 3.14
  22  0.102  0.876  0.016-  57 2.09  59 2.18 106 2.34  47 2.97  33 3.09
  23  0.206  0.545  0.175- 100 1.99  82 2.36  62 2.44 132 2.51  33 2.98
  24  0.548  0.016  0.202- 121 2.19  67 2.23  77 2.39 120 2.41  43 3.06  46 3.15
  25  0.352  0.268  0.204-  95 2.13 132 2.17  77 2.38 114 2.44 131 2.53  32 2.76  41 2.86
  26  0.832  0.468  0.212-  55 2.18 125 2.21  34 2.79
  27  0.440  0.608  0.593-  93 2.30  80 2.42  72 2.45
  28  0.752  0.981  0.434- 120 1.51 118 1.72  87 1.81  74 1.94  50 3.08   7 3.13
  29  0.019  0.535  0.568-  90 1.53  81 1.60  91 1.67  58 1.94  34 2.83
  30  0.990  0.002  0.534- 109 1.55  84 1.69 110 1.81 118 2.00
  31  0.534  0.433  0.142- 126 1.62  68 1.67  65 1.68 114 1.82   1 2.92  19 3.04
  32  0.254  0.076  0.160-  59 1.48  77 1.58  78 1.76 131 1.77  25 2.76  11 2.78  21 3.14
  33  0.065  0.733  0.213- 106 1.49  56 1.61 107 1.61  89 1.81  34 2.96  23 2.98  22 3.09
  34  0.991  0.551  0.345-  82 1.61  89 1.62  58 1.66 125 1.74  26 2.79  29 2.83  33 2.96  13 2.99

  35  0.232  0.471  0.716-  93 1.52  69 1.52  71 1.76  91 1.84  52 2.70   3 3.00
  36  0.292  0.120  0.695- 124 1.57  85 1.59 113 1.73 117 2.29   3 2.74  16 3.03
  37  0.745  0.282  0.795-  63 1.55  73 1.56 112 1.67  61 1.74  42 2.70  39 2.87  50 2.97
  38  0.708  0.589  0.024-  79 1.61  94 1.72  55 1.85  68 2.41  18 2.86  42 3.14
  39  0.522  0.242  0.832-  83 1.52  73 1.54 123 1.68  85 2.16  37 2.87
  40  0.620  0.244  0.298- 122 1.60 121 1.62 114 1.77 111 1.81  49 2.57
  41  0.169  0.282  0.340- 134 1.60 132 1.61 108 1.62  78 2.42  10 2.66  25 2.86
  42  0.682  0.488  0.796-  63 1.63  99 1.73 128 1.88  94 2.46  73 2.51  37 2.70  38 3.14
  43  0.694  0.992  0.008-  88 1.65 127 1.68 119 1.78  64 1.84  24 3.06
  44  0.852  0.904  0.828-  70 1.57  86 1.63 101 1.68 119 1.74  15 2.82
  45  0.373  0.882  0.692- 135 1.55  97 1.62 117 1.67  80 1.80  47 3.13
  46  0.476  0.845  0.372- 102 1.47  67 1.78 105 1.79  66 1.80  51 3.07  24 3.15  17 3.16
  47  0.301  0.796  0.915-  57 1.50 104 1.65 116 1.73 135 1.80  22 2.97  14 2.97  45 3.13
  48  0.940  0.274  0.979- 115 1.54  96 1.56  61 1.63 130 1.72  10 2.74   4 2.86  15 3.04  54 3.04
                             8 3.06
  49  0.503  0.366  0.414- 129 1.48  72 1.61  95 1.68 122 1.84  40 2.57   1 3.01   3 3.12
  50  0.718  0.170  0.588-  87 1.58  76 1.66  98 1.73 112 1.76  37 2.97  28 3.08   5 3.09
  51  0.662  0.736  0.487- 103 1.47  74 1.65  92 1.70 105 1.73   9 3.01  46 3.07
  52  0.182  0.528  0.918-  62 1.55  60 1.66  69 1.77  71 2.46  35 2.70   4 2.85
  53  0.242  0.690  0.393- 133 1.56 107 1.62 100 1.71  66 2.03  58 2.50
  54  0.824  0.159  0.159-  75 1.57 111 1.65 130 1.75 127 2.01  48 3.04
  55  0.794  0.622  0.140-  38 1.85  26 2.18  18 2.47
  56  0.992  0.838  0.217-  33 1.61   7 2.38
  57  0.192  0.833  0.882-  47 1.50  22 2.09
  58  0.086  0.572  0.434-  34 1.66  29 1.94  53 2.50
  59  0.208  0.990  0.094-  32 1.48  22 2.18
  60  0.076  0.591  0.868-  52 1.66   4 2.28  18 2.49
  61  0.854  0.287  0.881-  48 1.63  37 1.74
  62  0.187  0.445  0.009-  52 1.55  23 2.44   8 2.53
  63  0.756  0.394  0.744-  37 1.55  42 1.63
  64  0.552  0.956  0.002-  43 1.84  21 2.19
  65  0.613  0.519  0.209-  31 1.68   1 1.96
  66  0.339  0.812  0.346-  46 1.80  53 2.03  17 2.22
  67  0.527  0.843  0.239-  46 1.78  14 2.22  24 2.23
  68  0.568  0.457  0.016-  31 1.67  19 2.04  38 2.41
  69  0.277  0.528  0.813-  35 1.52  52 1.77
  70  0.973  0.928  0.805-  44 1.57  15 2.19
  71  0.151  0.383  0.789-  35 1.76   4 2.09   8 2.27  52 2.46
  72  0.508  0.489  0.453-  49 1.61   1 2.08  27 2.45
  73  0.630  0.299  0.842-  39 1.54  37 1.56  42 2.51
  74  0.722  0.851  0.512-  51 1.65  28 1.94
  75  0.915  0.080  0.192-  54 1.57  11 2.19
  76  0.787  0.268  0.531-  50 1.66   5 1.91
  77  0.379  0.088  0.149-  32 1.58  25 2.38  24 2.39  21 2.46
  78  0.249  0.112  0.296-  32 1.76  41 2.42  11 2.50
  79  0.646  0.675  0.951-  38 1.61  20 2.29
  80  0.469  0.795  0.629-  45 1.80  27 2.42
  81  0.988  0.658  0.556-  29 1.60  13 2.24   9 2.28  12 2.47
  82  0.045  0.483  0.250-  34 1.61  23 2.36  10 2.53
  83  0.455  0.330  0.882-  39 1.52
  84  0.084  0.988  0.438-  30 1.69  17 2.16  11 2.20
  85  0.389  0.192  0.736-  36 1.59  39 2.16   3 2.54
  86  0.889  0.819  0.919-  44 1.63
  87  0.742  0.050  0.561-  50 1.58  28 1.81
  88  0.750  0.909  0.094-  43 1.65   7 2.00
  89  0.963  0.664  0.287-  34 1.62  33 1.81  13 2.22
  90  0.965  0.426  0.552-  29 1.53   5 2.22
  91  0.123  0.544  0.652-  29 1.67  35 1.84
  92  0.757  0.690  0.402-  51 1.70  13 2.39
  93  0.333  0.469  0.648-  35 1.52   3 2.29  27 2.30
  94  0.780  0.488  0.966-  38 1.72  42 2.46
  95  0.416  0.381  0.314-  49 1.68  25 2.13
  96  0.000  0.167  0.959-  48 1.56  15 2.12   8 2.56
  97  0.246  0.893  0.670-  45 1.62  12 2.16
  98  0.588  0.154  0.634-  50 1.73  16 2.17   2 2.38
  99  0.553  0.525  0.763-  42 1.73
 100  0.290  0.606  0.296-  53 1.71  23 1.99
 101  0.766  0.860  0.734-  44 1.68  20 2.33   9 2.47
 102  0.484  0.945  0.431-  46 1.47  16 2.16
 103  0.665  0.665  0.581-  51 1.47   9 2.34
 104  0.354  0.677  0.935-  47 1.65  19 2.16
 105  0.536  0.730  0.432-  51 1.73  46 1.79   1 2.31
 106  0.101  0.710  0.101-  33 1.49  22 2.34
 107  0.161  0.723  0.298-  33 1.61  53 1.62
 108  0.060  0.213  0.328-  41 1.62  10 2.23  11 2.29
[...]
 121  0.554  0.137  0.327-  40 1.62  24 2.19
 122  0.642  0.347  0.370-  40 1.60  49 1.84   6 2.53
 123  0.554  0.119  0.874-  39 1.68   2 2.40  21 2.42
 124  0.213  0.103  0.791-  36 1.57
 125  0.886  0.467  0.380-  34 1.74  26 2.21
 126  0.410  0.460  0.120-  31 1.62  19 2.47
 127  0.724  0.119  0.039-  43 1.68  54 2.01
 128  0.783  0.598  0.782-  42 1.88   9 2.18
 129  0.480  0.304  0.511-  49 1.48   3 2.09
 130  0.868  0.276  0.096-  48 1.72  54 1.75  10 2.35
 131  0.191  0.192  0.109-  32 1.77  10 2.46   8 2.51  25 2.53
 132  0.207  0.356  0.242-  41 1.61  25 2.17  10 2.41  23 2.51
 133  0.213  0.725  0.509-  53 1.56  12 2.00
 134  0.153  0.324  0.460-  41 1.60
 135  0.385  0.843  0.808-  45 1.55  47 1.80

IMPORTANT INFORMATION: All symmetrisations will be switched off!
NOSYMM: (Re-)initialisation of all symmetry stuff for point group C_1.

Automatic generation of k-mesh.
 generate k-points for:    2    2    2
Space group operators:
 irot       det(A)        alpha          n_x          n_y          n_z        tau_x        tau_y        tau_z
    1     1.000000     0.000001     1.000000     0.000000     0.000000     0.000000     0.000000     0.000000

 Subroutine IBZKPT returns following result:

 Found      8 irreducible k-points:

 Following reciprocal coordinates:
            Coordinates               Weight
  0.000000  0.000000  0.000000      1.000000
  0.500000  0.000000  0.000000      1.000000
  0.000000  0.500000  0.000000      1.000000
  0.500000  0.500000  0.000000      1.000000
  0.000000  0.000000  0.500000      1.000000
  0.500000  0.000000  0.500000      1.000000
  0.000000  0.500000  0.500000      1.000000
  0.500000  0.500000  0.500000      1.000000

[...]
     0.000000000  0.000000000 12.526070000     0.000000000  0.000000000  0.079833499

  length of vectors
    12.526070000 12.526070000 12.526070000     0.079833499  0.079833499  0.079833499

 FORCES acting on ions
    electron-ion (+dipol)            ewald-force                    non-local-force                 convergence-correction
   0.651E+02 -.164E+03 0.100E+03   -.661E+02 0.161E+03 -.978E+02   -.188E+01 0.474E+01 -.161E+01   -.494E-03 -.552E-03 0.266E-04
   -.360E+02 0.106E+03 -.843E+02   0.364E+02 -.992E+02 0.845E+02   0.394E+00 -.549E+01 -.298E-01   0.324E-04 0.372E-03 0.689E-03
   0.163E+03 -.878E+02 -.404E+02   -.161E+03 0.880E+02 0.374E+02   -.330E+01 0.469E+00 0.211E+01   -.594E-03 0.209E-03 0.793E-03
   0.147E+03 -.288E+02 0.237E+03   -.144E+03 0.306E+02 -.235E+03   -.505E+01 -.425E+00 -.391E+01   0.885E-03 0.442E-04 0.989E-04
   -.174E+03 0.702E+02 -.219E+01   0.175E+03 -.668E+02 0.224E+01   0.357E+01 -.318E+01 -.132E+01   0.132E-02 0.515E-03 0.113E-02
   -.522E+00 0.530E+02 -.114E+03   0.157E+01 -.540E+02 0.109E+03   -.478E+00 0.563E+00 0.340E+01   0.840E-03 -.520E-03 0.768E-03
   0.890E+02 0.190E+02 0.817E+02   -.886E+02 -.176E+02 -.883E+02   -.186E+00 -.218E+01 0.651E+01   0.563E-03 -.155E-03 -.550E-03
   -.174E+03 0.149E+03 0.980E+02   0.175E+03 -.150E+03 -.968E+02   0.532E+00 -.482E-02 -.299E+00   0.137E-03 0.682E-03 -.594E-03
   -.979E+02 0.399E+02 -.148E+03   0.963E+02 -.379E+02 0.151E+03   0.164E+01 0.153E-01 -.208E+01   0.676E-03 0.984E-04 0.106E-02
   0.966E+02 0.126E+02 0.147E+02   -.919E+02 -.129E+02 -.119E+02   -.315E+01 0.819E+00 -.286E+01   0.842E-03 0.905E-03 -.842E-03
   0.458E+02 0.915E+02 0.845E+02   -.493E+02 -.884E+02 -.809E+02   0.251E+01 -.324E+01 -.346E+01   0.117E-03 0.598E-03 0.659E-03
   -.362E+02 0.583E+01 -.307E+03   0.361E+02 -.151E+01 0.305E+03   -.140E+01 -.395E+01 0.466E+01   -.326E-03 0.207E-04 0.153E-02
   0.150E+02 -.882E+02 0.287E+02   -.149E+02 0.884E+02 -.255E+02   -.111E+00 0.134E+01 -.247E+01   0.519E-03 -.133E-03 0.634E-03
   -.733E+02 0.185E+03 -.270E+02   0.721E+02 -.177E+03 0.264E+02   0.208E+01 -.731E+01 0.369E+00   -.311E-03 -.413E-03 -.197E-02
   -.129E+03 -.320E+01 0.564E+02   0.129E+03 -.290E+01 -.572E+02   -.922E+00 0.503E+01 -.116E+01   0.878E-03 0.152E-03 -.226E-03
   0.210E+02 -.980E+02 0.158E+03   -.194E+02 0.978E+02 -.159E+03   -.912E+00 0.313E+01 -.351E+01   -.567E-03 0.467E-03 0.108E-02
   -.313E+02 -.533E+02 -.309E+02   0.306E+02 0.544E+02 0.320E+02   0.150E+01 0.711E-01 0.209E+00   -.695E-03 0.120E-02 0.162E-02
   -.259E+01 -.106E+03 0.702E+02   0.110E+01 0.110E+03 -.722E+02   0.156E+01 -.246E+01 0.110E+01   0.665E-03 -.215E-03 -.125E-02
   0.478E+02 -.444E+02 0.781E+02   -.465E+02 0.400E+02 -.776E+02   -.197E+01 0.259E+01 -.198E+01   -.891E-03 -.785E-03 -.704E-03
   0.124E+03 -.345E+01 -.108E+03   -.119E+03 0.516E+00 0.108E+03   -.387E+01 0.176E+01 -.352E+00   0.311E-03 -.207E-03 0.162E-03
   0.113E+03 -.160E+03 0.112E+03   -.108E+03 0.156E+03 -.108E+03   -.482E+01 0.448E+01 -.372E+01   -.298E-03 0.289E-03 -.987E-03
   0.153E+03 -.790E+02 0.728E+02   -.149E+03 0.785E+02 -.754E+02   -.482E+01 0.997E+00 0.215E+01   0.232E-03 -.103E-03 -.180E-02
   -.101E+03 -.523E+02 0.170E+03   0.103E+03 0.479E+02 -.165E+03   -.108E+01 0.220E+01 -.545E+01   -.194E-03 -.200E-02 -.116E-02
   -.516E+02 -.280E+02 0.120E+03   0.495E+02 0.274E+02 -.117E+03   0.185E+01 0.798E+00 -.328E+01   -.904E-04 0.787E-03 -.107E-02
   -.831E+02 0.433E+02 0.117E+03   0.847E+02 -.399E+02 -.116E+03   0.263E-01 -.324E+01 -.250E+01   -.746E-03 0.861E-03 -.461E-03
   0.107E+03 0.102E+03 0.606E+02   -.109E+03 -.985E+02 -.582E+02   0.464E+00 -.416E+01 -.268E+01   0.463E-03 0.175E-03 -.798E-03
   0.105E+03 0.139E+02 -.831E+02   -.102E+03 -.142E+02 0.833E+02   -.135E+01 0.542E+00 -.201E+00   -.399E-03 -.864E-03 0.138E-02
   -.387E+02 -.537E+02 0.855E+01   0.314E+02 0.530E+02 -.169E+02   0.959E+01 -.198E+01 0.151E+02   0.429E-04 0.561E-04 0.390E-03
   -.480E+01 0.652E+02 -.711E+02   0.339E+01 -.670E+02 0.687E+02   0.696E+01 0.354E+01 -.603E+00   0.282E-03 -.345E-03 0.361E-03
   -.340E+02 -.616E+02 -.376E+02   0.356E+02 0.604E+02 0.430E+02   -.121E+01 -.645E+01 -.764E+01   0.255E-03 0.329E-04 0.571E-03
   -.469E+02 0.378E+02 0.186E+02   0.420E+02 -.317E+02 -.244E+02   0.521E+01 -.781E+01 0.517E+01   -.150E-03 -.588E-04 -.557E-03
   0.142E+02 0.405E+02 -.632E+01   -.117E+02 -.430E+02 -.117E+01   -.127E+01 0.973E+01 0.100E+02   -.934E-04 0.366E-03 -.262E-03
   -.801E+01 -.232E+02 0.400E+02   0.895E+01 0.299E+02 -.454E+02   -.431E+01 -.472E+01 0.121E+02   -.276E-03 -.259E-03 -.280E-03
   0.300E+02 0.417E+02 -.407E+02   -.240E+02 -.452E+02 0.366E+02   -.471E+01 -.659E+00 0.571E+01   0.318E-03 -.296E-03 0.136E-03
   0.361E+02 0.446E+02 0.668E+02   -.248E+02 -.399E+02 -.641E+02   -.184E+02 -.525E+01 -.447E+01   -.699E-04 -.129E-03 0.735E-03
   0.104E+03 0.251E+02 -.119E+02   -.105E+03 -.185E+02 0.182E+02   0.144E+01 -.904E+01 -.846E+01   -.179E-03 0.101E-03 0.150E-03
   -.114E+02 0.468E+02 -.224E+02   0.758E+01 -.427E+02 0.188E+02   0.796E+01 -.871E+01 0.500E+01   0.390E-03 0.118E-03 0.115E-03
   0.413E+02 -.309E+02 -.450E+02   -.377E+02 0.329E+02 0.370E+02   -.310E+01 -.450E+01 0.925E+01   0.703E-04 -.221E-03 -.350E-03
   0.558E+02 0.179E+02 0.408E+02   -.571E+02 -.107E+02 -.247E+02   -.285E+01 -.126E+02 -.155E+02   -.272E-03 0.123E-03 -.108E-03
   -.728E+02 0.475E+02 -.617E+00   0.663E+02 -.484E+02 0.713E+00   0.630E+01 -.236E+00 -.575E+01   -.277E-03 -.389E-04 -.585E-04
   -.683E+02 0.201E+02 -.913E+02   0.594E+02 -.124E+02 0.959E+02   0.803E+01 -.733E+01 -.175E+01   0.182E-03 0.361E-03 0.141E-03
   0.370E+02 -.920E+01 -.289E+02   -.370E+02 0.141E+02 0.211E+02   0.246E+00 0.443E+00 0.840E+01   0.131E-03 -.212E-03 0.205E-03
   0.421E+01 0.215E+02 0.156E+02   0.351E+00 -.217E+02 -.895E+01   -.457E+01 -.271E+00 -.753E+01   -.548E-04 0.263E-04 -.490E-03
   -.258E+01 -.639E+01 -.144E+02   0.106E+02 -.902E+00 0.179E+02   -.987E+01 0.378E+01 -.152E+01   -.355E-04 0.299E-04 -.188E-03
   0.190E+02 0.429E+02 0.130E+02   -.237E+02 -.435E+02 -.103E+02   0.523E+01 -.418E+00 -.734E+01   -.107E-03 0.272E-03 0.384E-03
   0.129E+02 0.686E+02 0.387E+02   -.134E+02 -.560E+02 -.351E+02   -.748E+00 -.193E+02 -.891E+01   0.107E-03 0.443E-05 0.287E-03
   0.101E+02 0.543E+02 0.113E+02   -.170E+02 -.502E+02 -.114E+02   0.133E+02 -.290E+01 0.398E+00   -.398E-03 -.263E-03 -.381E-03
   0.399E+02 0.534E+02 0.438E+01   -.362E+02 -.522E+02 -.508E+01   -.916E+01 -.192E+01 0.211E+01   0.860E-04 0.248E-04 -.512E-03
   -.964E+01 0.286E+02 0.313E+01   -.370E+00 -.268E+02 0.464E+01   0.885E+01 0.215E+01 -.133E+02   -.346E-03 -.217E-03 0.260E-03
   0.158E+02 -.680E+02 0.501E+02   -.153E+02 0.635E+02 -.486E+02   -.202E+01 0.605E+01 0.164E+01   -.917E-05 0.254E-03 0.742E-03
   0.577E+02 -.312E+02 0.513E+02   -.492E+02 0.267E+02 -.460E+02   -.701E+01 0.914E+01 -.126E+02   -.255E-06 0.115E-03 0.114E-03
   -.533E+02 -.993E+02 -.151E+02   0.473E+02 0.923E+02 0.171E+02   0.610E+01 0.881E+01 -.613E+01   0.266E-03 -.180E-03 -.277E-03
   -.956E+02 0.492E+02 -.553E+02   0.921E+02 -.478E+02 0.538E+02   0.528E+01 -.218E+01 -.361E+01   -.210E-03 -.506E-03 0.361E-03
   0.445E+02 0.662E+02 -.338E+01   -.395E+02 -.661E+02 0.654E+01   -.836E+01 0.128E+01 -.705E+01   0.234E-03 0.924E-04 -.641E-03
   0.707E+02 -.129E+03 0.913E+01   -.649E+02 0.138E+03 0.789E+01   -.723E+01 -.895E+01 -.210E+02   -.910E-04 -.437E-04 -.804E-03
   0.187E+02 -.137E+03 0.104E+03   -.333E+02 0.159E+03 -.104E+03   0.147E+02 -.200E+02 0.638E-01   -.292E-03 0.956E-04 -.188E-03
   0.110E+03 0.292E+01 0.120E+03   -.141E+03 0.965E+01 -.138E+03   0.272E+02 -.130E+02 0.178E+02   -.103E-02 0.182E-03 -.750E-03
   -.159E+03 0.997E+02 -.562E+02   0.183E+03 -.936E+02 0.630E+02   -.256E+02 -.802E+01 -.668E+01   0.378E-03 -.433E-03 0.561E-03
   0.533E+02 0.670E+02 0.626E+02   -.616E+02 -.917E+02 -.849E+02   0.457E+01 0.201E+02 0.210E+02   -.415E-03 -.586E-03 -.147E-02
   0.191E+02 -.193E+03 0.500E+02   -.348E+02 0.212E+03 -.645E+02   0.167E+02 -.207E+02 0.167E+02   0.504E-03 0.241E-03 0.396E-03
[...]
   -.126E+03 0.802E+00 -.399E+02   0.147E+03 0.198E+02 0.481E+02   -.214E+02 -.197E+02 -.597E+01   -.188E-03 -.427E-03 -.506E-04
   -.121E+02 -.249E+02 -.864E+02   0.222E+02 0.556E+01 0.987E+02   -.116E+02 0.205E+02 -.140E+02   -.117E-03 0.963E-04 -.580E-03
   0.115E+03 0.392E+02 -.465E+02   -.135E+03 -.487E+02 0.695E+02   0.188E+02 0.100E+02 -.222E+02   -.243E-03 -.257E-04 -.973E-04
   0.718E+02 0.105E+03 -.608E+02   -.822E+02 -.121E+03 0.710E+02   0.102E+02 0.183E+02 -.110E+02   0.282E-03 -.103E-03 0.607E-03
   0.904E+02 -.522E+02 0.537E+02   -.117E+03 0.561E+02 -.569E+02   0.256E+02 -.320E+01 0.361E+01   -.118E-02 -.249E-03 -.610E-03
   0.207E+02 -.700E+02 0.115E+02   -.248E+02 0.953E+02 -.196E+02   0.533E+01 -.257E+02 0.110E+02   0.192E-03 -.289E-04 -.282E-03
   -.646E+02 0.205E+02 -.572E+02   0.762E+02 -.113E+02 0.627E+02   -.144E+02 -.115E+02 -.588E+01   -.469E-03 -.302E-03 0.526E-03
   -.517E+02 0.130E+02 -.101E+03   0.517E+02 -.310E+02 0.132E+03   -.689E+00 0.136E+02 -.271E+02   -.619E-03 -.721E-03 0.110E-02
   0.121E+03 -.127E+02 -.555E+01   -.134E+03 0.313E+02 0.120E+02   0.148E+02 -.199E+02 -.709E+01   0.155E-03 -.352E-04 -.867E-04
   0.807E+01 0.253E+02 0.143E+03   -.159E+02 -.132E+02 -.148E+03   0.838E+01 -.127E+02 0.491E+01   -.476E-03 0.119E-02 -.946E-03
   -.376E+02 -.874E+02 -.288E+02   0.454E+02 0.107E+03 0.102E+02   -.869E+01 -.208E+02 0.195E+02   -.177E-04 0.562E-03 -.384E-03
   -.125E+03 0.493E+02 -.631E+02   0.119E+03 -.436E+02 0.890E+02   0.790E+01 -.624E+01 -.271E+02   -.612E-04 -.491E-03 0.312E-04
   -.103E+02 -.291E+02 -.159E+03   0.279E+01 0.408E+02 0.185E+03   0.965E+01 -.118E+02 -.257E+02   0.253E-03 0.189E-03 0.557E-03
   -.358E+02 0.524E+02 -.445E+02   0.485E+02 -.585E+02 0.607E+02   -.119E+02 0.523E+01 -.113E+02   -.195E-03 0.411E-03 0.179E-03
   0.583E+02 0.154E+03 0.723E+02   0.142E-12 0.455E-12 0.860E-12   -.583E+02 -.154E+03 -.723E+02   0.187E-02 0.955E-03 0.549E-02

 POSITION                                       TOTAL-FORCE (eV/Angst)
      6.54272      7.33184      3.98203        -2.892637      1.868987      0.571410
      7.52597     12.46097      9.22341         0.798165      1.373878      0.224006
      4.08722      3.76897      7.21502        -0.840475      0.722310     -0.979058
     12.48189      5.42579     10.34299        -2.531192      1.345217     -2.159205
     11.74690      3.19358      6.44552         5.079587      0.198959     -1.260778
      9.04500      5.94606      6.31933         0.570659     -0.475804     -1.055730
     10.05519     10.59977      2.88898         0.249202     -0.769263     -0.014558
      2.21811      3.28976     11.55084         1.148607     -1.215367      0.913139
     10.46685      8.71843      8.12155        -0.036982      1.993773      0.780863
      0.47150      3.71293      2.16971         1.538295      0.591767     -0.035517
      0.82062      0.48632      3.39529        -1.039993     -0.080279      0.139097
      1.56652      9.73413      7.91754        -1.449624      0.370594      2.979739
     11.65687      9.61384      5.34781        -0.057293      1.559914      0.798104
      5.78775      9.72568      1.10437         0.907969      0.302530     -0.225870
     12.01007      1.27372     10.13066         0.010772     -1.065930     -2.035418
      5.85048      1.04455      6.66737         0.732038      3.004581     -3.812317
      3.12746     11.78294      5.36314         0.723323      1.169079      1.297135
     11.66399      7.90704     12.50230         0.068380      1.802890     -0.895226
      5.58066      6.64431     11.75760        -0.673720     -1.810270     -1.426837
      7.84658      9.37222      9.83440         0.269953     -1.170492     -0.167841
      5.03504      0.46667     12.03938         0.195186      0.107703     -0.044527
      1.27479     10.97565      0.19550        -1.729549      0.495691     -0.474406
      2.58120      6.82267      2.19685         0.119685     -2.190032     -0.475856
      6.86482      0.19979      2.52477        -0.161129      0.196955     -0.106272
      4.40731      3.35464      2.55887         1.626581      0.189105     -1.284777
     10.41968      5.86529      2.65929        -1.420620     -0.897133     -0.236850
      5.50651      7.61043      7.42206         0.916504      0.233440      0.016780
      9.41617     12.29420      5.43942         2.270582     -2.734088      6.747134
      0.24147      6.69889      7.11520         5.553365      1.758433     -3.016601
     12.40175      0.02644      6.68392         0.345027     -7.679513     -2.185924
      6.68772      5.42124      1.78161         0.387116     -1.677341     -0.620523
      3.18319      0.94683      2.00920         1.285947      7.264976      2.547246
      0.81373      9.17816      2.66511        -3.357386      1.950222      6.736245
     12.40804      6.90439      4.31620         1.330123     -4.096842      1.592906
      2.91170      5.89734      8.96813        -7.121499     -0.620521     -1.717793
      3.66270      1.50830      8.70897         0.597255     -2.497935     -2.128836
      9.32904      3.53010      9.96252         4.141677     -4.617828      1.373168
      8.86833      7.37512      0.30011         0.555960     -2.481134      1.243555
      6.54359      3.02802     10.42658        -4.189200     -5.393410      0.589327
      7.76654      3.05765      3.73470        -0.167293     -1.193917     -5.651170
      2.11209      3.53428      4.25584        -0.888359      0.332517      2.873088
      8.54354      6.11085      9.96937         0.298996      5.385982      0.632760
      8.69356     12.42386      0.09585        -0.005336     -0.469658     -0.907499
     10.66925     11.32493     10.36576        -1.884963     -3.514230      1.982879
      4.67695     11.04435      8.66350         0.560242     -0.978392     -4.583377
      5.96197     10.58166      4.65474        -1.238452     -6.743642     -5.277249
      3.77151      9.97356     11.45897         6.428264      1.228193      0.340251
     11.77257      3.42948     12.25689        -5.486771     -0.806350      1.415714
      6.30656      4.58854      5.18609        -1.166387      3.973735     -5.492778
      8.98793      2.13466      7.36349        -1.568292      1.535025      3.073265
      8.29489      9.21851      6.10588         1.508483      4.650298     -7.265390
      2.28101      6.61241     11.49579         0.133942      1.848712     -4.157563
      3.03439      8.64289      4.91974         1.774731     -0.759799     -5.081438
     10.31796      1.99261      1.98694        -3.344761      1.357359     -3.880739
      9.94580      7.79099      1.75161        -1.502186      0.172371     -3.968253
     12.42402     10.49719      2.72255         0.111419      1.925395     -0.068215
      2.40499     10.43930     11.04648        -3.693071     -0.384613     -0.947274
      1.08155      7.17001      5.43193        -1.089962     -1.954175      0.169121
      2.60749     12.39606      1.17483        -3.763405     -4.638751     -1.282011
      0.95494      7.40615     10.87732         1.028332     -1.199313      2.249562
[...]
      6.93336      1.71443      4.10147         0.481668      3.322546      0.570109
      8.03949      4.35106      4.63084        -1.168464      0.869569      2.147629
      6.94009      1.48442     10.95309        -1.531245      1.122775     -1.714087
      2.67145      1.28716      9.91033        -1.338690      0.505699      0.838282
     11.09968      5.85083      4.76281        -0.136929      2.312612     -0.873702
      5.13231      5.76083      1.49939        -1.340301      0.704060      0.401667
      9.07510      1.48626      0.49434         1.253028     -0.390449      2.912328
      9.80312      7.49437      9.79446        -2.709916     -2.314818     -0.455978
      6.01821      3.80183      6.40495        -0.720485     -4.498802      4.149994
     10.87408      3.45443      1.20134         1.806263     -1.272590     -0.614981
      2.39028      2.39894      1.36788         0.580762     -0.585768     -0.449958
      2.59562      4.45683      3.02768        -0.869342     -0.658434      0.961586
      2.66823      9.08236      6.37484         2.318067     -0.583901     -1.228084
      1.91958      4.05496      5.75905         2.167322     -0.163894      0.535752
      4.82489     10.56101     10.12522         0.855878     -0.895753      4.841518
    total drift:                                0.034798      0.015126     -0.009379

  FREE ENERGIE OF THE ION-ELECTRON SYSTEM (eV)
  free  energy   TOTEN  =      -927.76442268 eV

  energy  without entropy=     -927.76442268  energy(sigma->0) =     -927.76442268