 vasp.5.4.4.18Apr17-6-g9f103f2a35 (build Mar 16 2023 09:39:13) complex

 executed on             LinuxIFC date 2024.04.29  23:58:00

 INCAR:
 POTCAR:    PAW_PBE Ca_sv 06Sep2000
 POTCAR:    PAW_PBE Si 05Jan2001
 POTCAR:    PAW_PBE O 08Apr2002
 POTCAR:    PAW_PBE Ca_sv 06Sep2000
   VRHFIN =Ca: 3s3p4s

   TITEL  = PAW_PBE Ca_sv 06Sep2000
   POMASS =   40.078; ZVAL   =   10.000    mass and valenz
   ENMAX  =  266.622; ENMIN  =  199.967 eV

   TITEL  = PAW_PBE Si 05Jan2001
   POMASS =   28.085; ZVAL   =    4.000    mass and valenz
   ENMAX  =  245.345; ENMIN  =  184.009 eV

   TITEL  = PAW_PBE O 08Apr2002
   POMASS =   16.000; ZVAL   =    6.000    mass and valenz
   ENMAX  =  400.000; ENMIN  =  300.000 eV

 Optimization of the real space projectors (new method)

 maximal supplied QI-value         = 16.25
 optimisation between [QCUT,QGAM] = [ 12.51, 25.03] = [ 43.85,175.40] Ry
 Optimized for a Real-space Cutoff    1.47 Angstroem

   l    n(q)    QCUT    max X(q) W(low)/X(q) W(high)/X(q)  e(spline)
   0     11    12.514    11.817    0.25E-04    0.32E-05    0.87E-07
   0     11    12.514     8.461    0.39E-04    0.59E-05    0.18E-06
   1     11    12.514     3.957    0.97E-05    0.57E-05    0.28E-07
   1     11    12.514     4.314    0.42E-04    0.14E-04    0.23E-06
   2     10    12.514    14.565    0.79E-04    0.50E-03    0.16E-05
   2     10    12.514    14.552    0.75E-04    0.48E-03    0.15E-05
 Optimization of the real space projectors (new method)

[...]

   l    n(q)    QCUT    max X(q) W(low)/X(q) W(high)/X(q)  e(spline)
   0      9    12.501   159.560    0.10E-03    0.83E-04    0.71E-07
   0      9    12.501   115.863    0.99E-04    0.81E-04    0.70E-07
   1      8    12.501    88.339    0.20E-03    0.25E-03    0.76E-07
   1      8    12.501    48.592    0.20E-03    0.24E-03    0.75E-07
 Optimization of the real space projectors (new method)

 maximal supplied QI-value         = 24.76
 optimisation between [QCUT,QGAM] = [ 12.38, 25.00] = [ 42.90,175.06] Ry
 Optimized for a Real-space Cutoff    1.16 Angstroem

   l    n(q)    QCUT    max X(q) W(low)/X(q) W(high)/X(q)  e(spline)
   0      9    12.378    20.381    0.16E-03    0.67E-05    0.31E-06
   0      9    12.378    15.268    0.17E-03    0.81E-05    0.33E-06
   1      8    12.378     5.964    0.20E-03    0.16E-03    0.30E-06
   1      8    12.378     5.382    0.18E-03    0.14E-03    0.26E-06
  PAW_PBE Ca_sv 06Sep2000               :
  PAW_PBE Si 05Jan2001                  :
  PAW_PBE O 08Apr2002                   :

 POSCAR: Ca Si  O
  positions in direct lattice
 exchange correlation table for  LEXCH =        8
   RHO(1)=    0.500       N(1)  =     2000
   RHO(2)=  100.500       N(2)  =     4000

 ion  position               nearest neighbor table
   1  0.280  0.447  0.518-  78 2.20  66 2.22  75 2.30  82 2.31  56 2.36 120 2.47 133 2.57  47 2.79
                            46 2.90  42 2.96  21 2.99  44 3.04  51 3.07  34 3.11
   2  0.846  0.231  0.004-  94 2.03 124 2.22  71 2.37  67 2.45  73 2.48  80 2.52 107 2.56  40 2.68
                            54 2.76  41 3.07  43 3.07  52 3.14  17 3.17
   3  0.293  0.103  0.876- 125 2.07  98 2.08  58 2.32  34 2.89  29 2.96  50 2.97  33 3.03  36 3.03

   4  0.621  0.456  0.904-  69 2.16  62 2.20  71 2.23  80 2.40  74 2.45  86 2.46 114 2.56  43 2.93
                            41 3.00   6 3.00  35 3.03  29 3.06  48 3.16
   5  0.368  0.326  0.103- 115 2.05 112 2.17  74 2.21  56 2.34  98 2.34 118 2.37  64 2.40 132 2.43
                            60 2.51 114 2.57  20 2.80  29 2.91  50 2.95  36 2.97  40 3.03  47 3.08
   6  0.736  0.636  0.091-  80 2.01 126 2.05 122 2.23 104 2.25  89 2.29  62 2.39  35 2.64  43 2.93
                            49 2.95   4 3.00  48 3.04
   7  0.969  0.145  0.550- 128 2.04 134 2.13 120 2.22 110 2.32  68 2.42  91 2.50 101 2.56  42 2.74
                            34 2.94  52 2.96  32 3.07
   8  0.039  0.709  0.449-  87 2.15 130 2.26  90 2.41 103 2.54  32 2.89  28 2.91  49 2.97  46 2.98

   9  0.075  0.336  0.793-  64 2.12  73 2.23 110 2.26 120 2.35 124 2.36  75 2.37 105 2.46  91 2.50
                           113 2.54  40 2.71  44 2.78  50 2.81  43 2.85  16 3.02  52 3.02  34 3.06
  10  0.941  0.427  0.237- 100 2.13  90 2.14 107 2.16 104 2.31 134 2.36  66 2.44 135 2.45  80 2.52
                            54 2.52 118 2.54  35 2.92  42 2.93  49 2.95  40 3.00  47 3.02
  11  0.166  0.901  0.679- 123 2.25  61 2.25  58 2.29 101 2.38 128 2.48 127 2.49  52 2.83  37 2.86
                            34 3.05  32 3.13  46 3.15
  12  0.833  0.919  0.339- 111 2.11  76 2.14 130 2.14  84 2.26  92 2.37 106 2.40  88 2.57  45 2.93
                            28 2.96  14 3.09  54 3.10
  13  0.415  0.698  0.752-  61 2.04  57 2.16  83 2.21 121 2.36  69 2.36  93 2.39  63 2.43  21 2.67
                            48 2.74  33 2.79  37 2.87  46 2.89
  14  0.768  0.943  0.055-  84 1.84 126 1.98  85 1.99 116 2.03  94 2.18  88 2.32  22 2.52  17 2.85
                            12 3.09
  15  0.810  0.554  0.629-  81 1.90  91 2.31  86 2.32 121 2.51 103 2.51  90 2.54  87 2.54  26 2.86
                            49 2.89  21 2.93  42 2.95  41 3.08  43 3.13
  16  0.155  0.531  0.986-  64 2.12 118 2.15 115 2.31 124 2.35 131 2.37 122 2.52 135 2.55  40 2.76
                            43 2.89  39 2.92  44 2.94  50 2.99  37 3.00   9 3.02  47 3.07
  17  0.743  0.034  0.802-  77 2.13  67 2.17 116 2.21 108 2.33  68 2.50 101 2.56  52 2.74  41 2.77
                            14 2.85  29 3.03  28 3.08  33 3.08   2 3.17
  18  0.591  0.116  0.247- 132 2.02  84 2.21  70 2.23  72 2.31  96 2.32  92 2.32  85 2.47  51 2.58
                            45 2.85  36 2.93  38 3.03
  19  0.490  0.542  0.321-  60 1.96  56 2.12 117 2.29  59 2.29 133 2.46  96 2.48  35 2.76  51 2.79
                            30 2.98  47 2.99  21 3.17
  20  0.206  0.229  0.289- 112 2.06 100 2.22 132 2.25  65 2.33  82 2.34  56 2.39 118 2.44  66 2.44
                            36 2.73   5 2.80  40 2.92  47 2.96  51 3.13  32 3.15
  21  0.535  0.522  0.617-  59 1.96  81 2.05  69 2.06  78 2.15 121 2.17  79 2.23  13 2.67  53 2.82
                            15 2.93   1 2.99  19 3.17
  22  0.534  0.914  0.015-  85 2.17 126 2.22  70 2.26  63 2.34 125 2.41  89 2.43  84 2.43  14 2.52
                            98 2.54  38 2.76  48 2.88  29 2.88  36 2.94
  23  0.385  0.011  0.466- 127 2.17  72 2.22  58 2.25 129 2.33  83 2.47  82 2.47  55 2.48  34 2.81
                            33 2.87  32 2.88
  24  0.073  0.018  0.084-  88 2.33  73 2.35 123 2.35 119 2.36 112 2.38 116 2.40  97 2.41  94 2.51
                            40 2.86  36 2.92  52 2.98
  25  0.505  0.204  0.687-  55 1.95  77 2.24  79 2.27 114 2.30 125 2.38 105 2.47  72 2.53  58 2.54
                            33 2.69  29 2.90  41 2.93  34 2.93  45 2.97  50 2.98
  26  0.749  0.344  0.470-  81 2.15 134 2.18  79 2.31  68 2.33  91 2.36  92 2.47  96 2.55  42 2.78
                            41 2.83  15 2.86  45 2.93  51 3.05  49 3.15  54 3.16
  27  0.944  0.760  0.882- 103 2.23 113 2.34 131 2.35 122 2.35  86 2.36 108 2.53 123 2.57  43 2.80
                            39 2.84  37 3.04  48 3.10  28 3.16
  28  0.868  0.855  0.609- 101 1.69 103 1.70 108 1.73 106 1.75  76 1.77 130 2.11   8 2.91  12 2.96
                            53 3.08  17 3.08  27 3.16
  29  0.550  0.180  0.957-  85 1.60  74 1.62  98 1.67  77 1.75 114 1.92 125 2.17  22 2.88  25 2.90
                             5 2.91   3 2.96  17 3.03   4 3.06
  30  0.433  0.630  0.059-  99 1.56 115 1.66  57 1.69  89 1.82  62 2.00  60 2.00  31 2.82  19 2.98

  31  0.275  0.792  0.201- 109 1.57  99 1.60 102 1.64  95 2.00  97 2.05 133 2.37  65 2.47  30 2.82
                            36 2.87  39 2.88  38 2.92  37 3.00  32 3.11  47 3.15
  32  0.127  0.960  0.391- 130 1.69 128 1.73 127 1.78  65 1.81 119 1.82 109 2.01  23 2.88   8 2.89
                             7 3.07  31 3.11  11 3.13  20 3.15
  33  0.477  0.953  0.715- 125 1.53  63 1.62  55 1.71  83 1.82  61 1.91  58 2.05  25 2.69  13 2.79
                            23 2.87   3 3.03  17 3.08
  34  0.238  0.174  0.618- 105 1.59 110 1.59  58 1.61  82 1.84 120 1.85 128 1.86  23 2.81   3 2.89
                            25 2.93   7 2.94  11 3.05   9 3.06   1 3.11
  35  0.671  0.414  0.183-  96 1.68 104 1.70  60 1.75 107 1.77  80 1.86  74 2.11   6 2.64  19 2.76
                            10 2.92   4 3.03
  36  0.337  0.052  0.155-  70 1.60  65 1.66  98 1.79  97 1.81 132 1.94 112 2.11  20 2.73  31 2.87
                            24 2.92  18 2.93  22 2.94   5 2.97   3 3.03
  37  0.227  0.798  0.921-  95 1.61 131 1.65  57 1.66 123 1.86  61 1.92  97 2.04  11 2.86  13 2.87
                            16 3.00  31 3.00  27 3.04
  38  0.541  0.833  0.263- 102 1.63  89 1.68 129 1.77  70 1.79  84 1.82 117 2.02  22 2.76  53 2.92
                            31 2.92  18 3.03
  39  0.020  0.719  0.137-  88 1.55 122 1.62 135 1.68  95 1.79 109 2.12 111 2.19  27 2.84  31 2.88
                            16 2.92
  40  0.091  0.285  0.044- 124 1.67 112 1.68  73 1.76 100 1.79 118 1.80  64 1.85   2 2.68   9 2.71
                            16 2.76  24 2.86  20 2.92  10 3.00   5 3.03
  41  0.767  0.284  0.730-  79 1.55  68 1.64  71 1.71  67 1.74  77 1.76  91 1.93  17 2.77  26 2.83
                            25 2.93   4 3.00   2 3.07  15 3.08
  42  0.005  0.398  0.505- 134 1.74  87 1.77  91 1.77 120 1.79  66 1.81  90 1.93   7 2.74  26 2.78
                            10 2.93  15 2.95   1 2.96
  43  0.895  0.501  0.908-  71 1.63 113 1.71 124 1.75  86 1.79  80 2.00 122 2.03  27 2.80   9 2.85
                            16 2.89   6 2.93   4 2.93   2 3.07  15 3.13
  44  0.121  0.584  0.715-  75 1.58 113 1.61  93 1.73 131 1.73  87 1.75 103 2.41   9 2.78  16 2.94
                             1 3.04
  45  0.674  0.079  0.501-  72 1.62  76 1.62  92 1.62  55 1.71  68 1.82 129 2.36  18 2.85  12 2.93
                            26 2.93  25 2.97
  46  0.316  0.719  0.498-  59 1.55  93 1.72 127 1.73 133 1.83  83 2.16 102 2.43  13 2.89   1 2.90
                             8 2.98  53 3.11  11 3.15
  47  0.213  0.509  0.270-  56 1.68 133 1.69 135 1.70  66 1.77 118 1.82  99 2.31   1 2.79  20 2.96
                            19 2.99  10 3.02  16 3.07   5 3.08  31 3.15
  48  0.654  0.746  0.837-  63 1.59 126 1.60  62 1.64 121 1.79 108 1.82  86 1.99  13 2.74  22 2.88
                             6 3.04  27 3.10   4 3.16
  49  0.786  0.621  0.365- 104 1.48 111 1.73  90 1.74 117 1.91  81 1.96 106 2.02  15 2.89  53 2.92
                            10 2.95   6 2.95   8 2.97  26 3.15
  50  0.335  0.377  0.831- 114 1.46 105 1.71  64 1.72  69 1.72  75 1.93 115 2.28   9 2.81   5 2.95
                             3 2.97  25 2.98  16 2.99
  51  0.481  0.285  0.383-  78 1.51  96 1.58  72 1.79 132 1.82  82 2.03  56 2.21  18 2.58  19 2.79
                            26 3.05   1 3.07  20 3.13
  52  0.001  0.061  0.816- 101 1.71 116 1.72  73 1.76  67 1.81 110 1.92 123 1.98  17 2.74  11 2.83
                             7 2.96  24 2.98   9 3.02   2 3.14
  53  0.607  0.761  0.522- 117 1.69 121 1.80  83 1.91 129 1.93 106 2.00  59 2.20  81 2.54  21 2.82
                            49 2.92  38 2.92  28 3.08  46 3.11
[...]
     0.000000000  0.000000000 10.564896610     0.000000000  0.000000000  0.094653080

  length of vectors
    10.564896610 10.564896610 10.564896610     0.094653080  0.094653080  0.094653080

 FORCES acting on ions
    electron-ion (+dipol)            ewald-force                    non-local-force                 convergence-correction
   0.274E+02 -.117E+03 -.568E+02   -.292E+02 0.110E+03 0.565E+02   0.930E+00 0.532E+01 0.136E+01   -.423E-03 0.216E-02 -.725E-03
   0.929E+02 -.771E+01 0.204E+01   -.964E+02 0.493E+01 -.276E+01   0.511E+00 0.237E+01 -.951E+00   0.957E-03 0.258E-03 0.655E-03
   0.126E+03 0.705E+02 -.252E+02   -.125E+03 -.726E+02 0.248E+02   -.437E+01 0.169E+01 0.557E-01   -.427E-03 -.122E-02 0.292E-03
   0.205E+02 -.125E+02 0.476E+01   -.243E+02 0.130E+02 -.616E+01   0.211E+01 -.149E+01 0.130E+01   -.100E-02 0.227E-02 0.318E-03
   -.777E+02 -.385E+02 -.435E+02   0.807E+02 0.420E+02 0.413E+02   -.128E+01 -.285E+01 0.239E+01   -.153E-02 0.115E-02 0.104E-02
   -.388E+02 -.939E+02 -.964E+02   0.382E+02 0.992E+02 0.950E+02   -.936E-01 -.128E+01 0.223E+01   -.195E-03 0.121E-02 0.125E-02
   0.873E+02 0.131E+03 0.573E+02   -.863E+02 -.131E+03 -.571E+02   -.359E+01 -.143E+01 0.757E+00   0.144E-02 -.105E-02 -.116E-02
   -.758E+02 -.416E+02 0.485E+02   0.726E+02 0.400E+02 -.480E+02   0.288E+01 0.969E+00 -.163E+01   0.144E-02 0.155E-04 -.761E-03
   0.745E+02 -.970E+02 0.743E+02   -.743E+02 0.912E+02 -.808E+02   -.206E+01 0.416E+01 0.216E+01   0.170E-02 0.171E-02 -.134E-03
   -.346E+02 -.158E+03 0.189E+02   0.367E+02 0.161E+03 -.179E+02   -.147E+00 0.548E+00 -.241E+01   0.163E-02 0.192E-02 0.828E-03
   0.646E+02 0.141E+03 0.806E+02   -.644E+02 -.139E+03 -.798E+02   -.108E+01 -.203E+01 -.208E+01   0.654E-03 -.187E-02 -.845E-03
   -.340E+02 0.161E+02 0.491E+02   0.347E+02 -.168E+02 -.508E+02   -.683E+00 0.176E+01 -.803E+00   0.662E-03 -.218E-02 0.118E-03
   0.749E+02 0.912E+02 0.790E+01   -.761E+02 -.912E+02 -.336E+01   0.130E+01 -.274E+01 -.361E+01   -.105E-02 -.499E-04 -.525E-03
   -.158E+03 0.998E+02 -.121E+02   0.166E+03 -.995E+02 0.147E+02   -.108E+01 -.514E+00 -.305E+01   0.231E-03 -.246E-02 0.685E-03
   -.747E+02 -.884E+02 -.722E+02   0.772E+02 0.917E+02 0.751E+02   0.132E+01 -.925E+00 0.133E+01   0.785E-03 0.185E-02 -.105E-02
   -.227E+01 -.199E+03 0.286E+02   0.767E+01 0.200E+03 -.249E+02   -.372E+01 0.268E+01 -.285E+01   0.791E-03 0.183E-02 0.598E-03
   0.255E+02 0.136E+03 0.713E+02   -.232E+02 -.138E+03 -.730E+02   -.306E+01 -.102E+01 0.148E+00   -.187E-03 -.211E-02 -.112E-03
   -.111E+03 0.262E+01 0.500E+01   0.114E+03 -.593E+01 -.819E+01   0.929E+00 0.218E+01 0.478E+00   -.135E-02 -.149E-02 0.731E-03
   -.340E+02 -.867E+02 -.588E+02   0.332E+02 0.891E+02 0.597E+02   0.108E+01 0.196E+00 0.222E+01   -.121E-02 0.181E-02 0.401E-03
   0.541E+02 0.500E+02 -.188E+03   -.558E+02 -.504E+02 0.193E+03   -.265E+00 0.771E+00 0.329E+00   0.151E-03 0.398E-03 0.421E-03
   0.423E+02 0.261E+02 -.493E+02   -.387E+02 -.328E+02 0.498E+02   -.211E+01 0.238E+01 0.129E+01   -.162E-02 0.173E-02 -.550E-03
   0.159E+03 0.979E+02 0.246E+02   -.160E+03 -.980E+02 -.254E+02   -.169E+01 -.998E+00 -.316E+00   -.165E-02 -.213E-02 0.819E-03
   0.487E+02 0.708E+02 0.514E+02   -.465E+02 -.707E+02 -.527E+02   -.137E+01 0.301E+00 -.679E+00   -.109E-02 -.156E-02 -.527E-03
   0.643E+01 0.109E+03 -.295E+02   -.111E+02 -.113E+03 0.315E+02   0.291E+01 0.218E+01 -.723E+00   0.162E-02 -.189E-02 0.942E-03
   0.538E+02 -.106E+03 0.558E+02   -.519E+02 0.110E+03 -.560E+02   -.312E+01 0.483E+00 -.403E+00   -.187E-02 -.511E-04 -.583E-03
   0.773E+02 0.119E+02 0.673E+02   -.784E+02 -.126E+02 -.659E+02   -.788E+00 -.340E+00 -.242E+01   0.162E-03 0.159E-02 -.818E-03
   -.137E+02 -.925E+02 -.579E+02   0.113E+02 0.952E+02 0.524E+02   0.114E+01 0.164E+00 0.428E+01   0.125E-02 -.507E-03 0.780E-03
   -.253E+02 -.104E+02 0.382E+02   0.233E+02 0.383E+01 -.296E+02   0.564E+00 0.583E+01 -.672E+01   0.347E-03 -.569E-03 -.519E-03
   -.303E+01 -.885E+01 0.457E+02   0.110E+02 0.941E+01 -.322E+02   -.797E+01 0.134E+01 -.149E+02   -.650E-03 -.181E-03 0.579E-04
   -.488E+02 -.249E+02 0.186E+02   0.368E+02 0.221E+02 -.196E+02   0.165E+02 0.747E+00 -.340E+01   -.394E-03 0.488E-03 0.271E-03
   0.954E+01 -.171E+02 0.202E+02   -.103E+02 0.144E+02 -.119E+02   0.895E+00 0.488E+01 -.926E+01   -.144E-03 -.224E-03 0.115E-03
   0.210E+01 0.485E+02 0.165E+02   -.853E+01 -.423E+02 -.127E+02   0.473E+01 -.372E+01 -.629E+01   0.211E-03 -.748E-03 -.117E-03
   0.151E+02 0.407E+02 0.830E+02   -.809E+01 -.386E+02 -.726E+02   -.894E+01 -.589E+01 -.136E+02   -.511E-03 -.842E-03 -.252E-03
   -.302E+02 0.621E+01 0.820E+02   0.299E+02 -.658E+01 -.764E+02   -.195E+01 0.257E+01 -.129E+02   0.252E-03 -.198E-03 -.302E-03
   0.602E+01 0.859E+01 0.397E+02   -.787E+01 -.687E+01 -.371E+02   0.182E+01 -.485E+01 -.545E+01   -.168E-03 0.901E-03 0.412E-03
   0.362E+02 -.753E+01 0.259E+02   -.312E+02 -.349E+01 -.210E+02   -.452E+01 0.114E+02 -.557E+01   -.375E-03 -.736E-03 0.140E-03
   -.102E+02 -.421E+02 0.181E+02   0.917E+01 0.340E+02 -.158E+02   0.339E+01 0.121E+02 -.420E+01   0.152E-03 -.276E-03 0.230E-03
   -.521E+02 0.391E+02 -.297E+02   0.484E+02 -.372E+02 0.290E+02   0.647E+01 0.376E+00 0.204E+01   -.347E-03 -.653E-03 0.120E-03
   -.100E+02 0.191E+01 -.427E+02   0.314E+01 0.530E+01 0.387E+02   0.873E+01 -.610E+01 0.721E+01   0.418E-03 -.103E-03 0.253E-03
   0.338E+02 0.172E+02 0.675E+01   -.300E+02 -.188E+02 -.425E+01   0.773E-01 0.142E+01 -.628E+00   0.481E-03 0.357E-03 0.346E-03
   -.352E+02 -.275E+02 -.208E+02   0.270E+02 0.286E+02 0.147E+02   0.118E+02 -.200E+01 0.719E+01   0.875E-04 0.235E-03 -.223E-04
   -.204E+02 -.381E+02 -.332E+00   0.235E+02 0.354E+02 0.295E+01   -.593E+00 0.304E+01 -.251E+01   0.531E-03 0.762E-03 -.380E-03
   -.204E+02 -.532E+02 -.184E+02   0.143E+02 0.499E+02 0.101E+02   0.259E+01 0.480E+01 0.964E+01   0.334E-03 0.686E-03 0.101E-03
   0.697E+01 -.461E+02 0.327E+02   -.330E+01 0.395E+02 -.320E+02   -.402E+01 0.111E+02 -.408E+01   0.450E-03 0.340E-03 -.259E-03
   -.163E+02 0.395E+02 0.450E+01   0.210E+02 -.378E+02 -.522E+01   -.261E+01 -.218E+01 0.396E+01   -.265E-03 -.627E-03 -.399E-03
   0.566E+02 -.459E+02 0.118E+02   -.534E+02 0.385E+02 -.110E+02   -.600E+01 0.983E+01 -.331E+01   -.339E-03 -.497E-04 -.205E-03
   0.104E+02 -.607E+02 0.970E+01   -.122E+02 0.584E+02 -.316E+01   -.850E+00 0.117E+01 -.629E+01   -.500E-05 0.624E-03 0.220E-03
   -.389E+02 0.400E+02 0.472E+02   0.364E+02 -.327E+02 -.400E+02   0.766E+01 -.844E+01 -.104E+02   -.423E-03 -.588E-04 -.122E-03
   -.148E+02 -.869E+02 -.322E+02   0.174E+02 0.827E+02 0.244E+02   -.166E+01 0.104E+02 0.154E+02   0.154E-03 0.578E-03 -.129E-03
   0.357E+02 -.904E+02 0.262E+02   -.227E+02 0.839E+02 -.263E+02   -.165E+02 0.142E+02 -.364E+01   -.341E-03 0.548E-03 -.413E-04
   0.167E+02 0.712E+01 0.134E+02   -.120E+02 -.155E+01 -.397E+01   -.100E+02 -.115E+02 -.928E+01   -.486E-03 0.271E-03 -.113E-03
   -.404E+02 0.460E+02 0.256E+02   0.317E+02 -.485E+02 -.217E+02   0.805E+01 0.267E+01 -.308E+01   0.567E-03 -.679E-03 -.781E-04
   -.137E+02 -.428E+02 -.161E+02   0.146E+02 0.425E+02 0.110E+02   -.537E+00 0.241E+01 0.524E+01   -.336E-03 -.227E-03 -.379E-03
   0.222E+02 0.605E+02 -.102E+03   -.213E+02 -.639E+02 0.860E+02   -.247E+01 -.143E+01 0.221E+02   0.630E-03 0.187E-03 0.192E-03
   -.608E+02 0.123E+03 0.609E+01   0.617E+02 -.120E+03 -.953E+01   -.422E+00 -.923E+01 0.710E+01   -.116E-02 -.389E-03 -.296E-03
   -.123E+02 -.117E+02 -.824E+01   0.230E+02 0.653E-01 0.125E+02   -.104E+02 0.111E+02 -.545E+01   -.595E-03 0.114E-02 0.261E-03
   -.297E+00 -.134E+02 -.152E+02   0.569E+01 0.445E+01 0.454E+01   -.538E+01 0.109E+02 0.116E+02   -.406E-03 -.188E-04 -.887E-04
   -.720E+01 0.654E+02 0.269E+02   0.119E+02 -.809E+02 -.187E+02   -.147E+01 0.137E+02 -.836E+01   -.639E-03 -.647E-03 -.540E-03
   0.352E+02 -.456E+02 0.366E+02   -.161E+02 0.321E+02 -.384E+02   -.180E+02 0.135E+02 0.946E+00   -.783E-03 -.261E-03 -.386E-04
   -.183E+02 -.287E+02 0.552E+02   0.430E+01 0.261E+02 -.628E+02   0.176E+02 0.334E+01 0.512E+01   -.694E-03 0.124E-02 0.102E-02
[...]
   -.150E+02 -.341E+02 -.122E+02   0.448E+01 0.201E+02 0.116E+02   0.105E+02 0.129E+02 -.336E+01   0.718E-03 0.122E-02 0.766E-03
   0.135E+02 0.303E+02 0.297E+01   -.184E+02 -.278E+02 0.247E+01   0.544E+01 -.218E+01 -.653E+01   0.665E-03 -.984E-03 0.183E-03
   0.282E+02 -.621E+02 -.848E+01   -.369E+02 0.658E+02 0.145E+02   0.101E+02 -.288E+01 -.679E+01   0.111E-02 0.731E-03 0.459E-03
   -.340E+02 0.926E+01 -.340E+02   0.329E+02 -.197E+01 0.574E+02   0.326E+01 -.283E+00 -.192E+02   -.113E-02 -.132E-02 -.347E-03
   -.849E+02 0.180E+01 0.506E+01   0.890E+02 0.108E+00 0.135E+02   0.520E+00 0.212E+01 -.192E+02   -.264E-03 -.846E-04 0.551E-03
   0.451E+02 0.715E+02 -.169E+02   -.417E+02 -.644E+02 0.161E+02   -.463E+01 -.954E+01 0.325E+01   -.572E-04 -.554E-03 -.816E-04
   -.252E+02 0.531E+02 0.728E+02   0.202E+02 -.485E+02 -.660E+02   0.905E+01 -.616E+01 -.919E+01   -.147E-04 -.941E-03 -.390E-03
   -.353E+02 0.157E+02 -.268E+02   0.364E+02 -.336E+01 0.338E+02   -.258E+00 -.122E+02 -.627E+01   -.875E-03 -.103E-02 -.366E-03
   -.190E+02 0.463E+02 -.256E+02   0.624E+01 -.421E+02 0.315E+02   0.134E+02 -.725E+01 -.432E+01   0.616E-03 -.114E-02 -.742E-03
   -.982E+01 -.273E+02 0.294E+02   0.297E+01 0.246E+02 -.310E+02   0.678E+01 0.310E+01 0.134E+01   0.505E-03 0.163E-03 0.524E-03
   0.274E+02 0.836E+01 -.234E+02   -.308E+02 -.134E+02 0.243E+02   0.150E+01 0.682E+01 -.154E+01   -.590E-03 -.393E-03 0.247E-03
   0.789E+02 -.626E+02 -.568E+02   -.710E+02 0.731E+02 0.510E+02   -.104E+02 -.104E+02 0.107E+02   -.195E-03 0.201E-03 0.216E-03
   -.400E+02 0.442E+02 0.183E+02   0.383E+02 -.522E+02 -.197E+02   0.200E+01 0.825E+01 -.328E+00   0.758E-03 0.696E-03 0.228E-03
   0.221E+02 -.758E+02 -.644E+02   -.284E+02 0.698E+02 0.665E+02   0.606E+01 0.675E+01 -.133E+01   0.337E-03 0.417E-03 0.359E-03
   -.327E+01 -.127E+03 0.145E+03   -.185E-12 -.739E-12 -.313E-12   0.326E+01 0.127E+03 -.145E+03   -.314E-02 0.345E-02 -.162E-02

 POSITION                                       TOTAL-FORCE (eV/Angst)
      2.96338      4.72553      5.46973        -0.801837     -1.562422      1.107807
      8.94096      2.44047      0.04339        -2.971466     -0.404863     -1.670210
      3.09671      1.08945      9.25643        -3.238515     -0.384770     -0.310087
      6.56361      4.81400      9.54728        -1.655388     -0.987322     -0.090547
      3.89042      3.44734      1.09190         1.707631      0.645620      0.185055
      7.77690      6.72088      0.95719        -0.678730      4.058465      0.849631
     10.24167      1.53053      5.81014        -2.618550     -1.652310      0.946271
      0.40854      7.48532      4.74828        -0.341681     -0.650143     -1.087540
      0.79378      3.55434      8.37935        -1.915493     -1.619958     -4.314690
      9.94566      4.51647      2.50796         1.950043      3.899472     -1.341432
      1.75533      9.52040      7.17058        -0.835488     -0.483416     -1.295869
      8.79882      9.71189      3.58232        -0.022476      1.074667     -2.421348
      4.38020      7.37735      7.94665         0.088138     -2.704104      0.934004
      8.11143      9.96398      0.58489         6.951212     -0.156949     -0.480151
      8.55753      5.85689      6.64923         3.812360      2.392337      4.237522
      1.64184      5.60909     10.41739         1.671952      3.047873      0.858167
      7.84983      0.35620      8.47740        -0.835774     -2.836654     -1.515612
      6.24304      1.22095      2.60864         4.176423     -1.132118     -2.709546
      5.17397      5.72242      3.39287         0.220085      2.531868      3.151660
      2.17163      2.42409      3.05503        -1.957747      0.418992      4.933411
      5.65427      5.51812      6.51491         1.484540     -4.317178      1.857388
      5.64435      9.65655      0.15618        -2.874359     -1.072187     -1.126126
      4.06224      0.11443      4.92323         0.837262      0.399304     -2.030420
      0.76829      0.18672      0.89169        -1.719519     -1.883815      1.372248
      5.33509      2.15892      7.25835        -1.285986      5.050404     -0.692135
      7.91734      3.63869      4.96276        -1.862503     -1.060629     -0.953840
      9.97519      8.02630      9.32179        -1.334653      2.887970     -1.195262
      9.17504      9.03321      6.43823        -1.417499     -0.792463      1.950363
      5.81017      1.90100     10.10954        -0.034877      1.890566     -1.439917
      4.57818      6.65465      0.62671         4.459644     -2.039403     -4.483459
      2.90471      8.36353      2.12504         0.136141      2.173649     -0.974303
      1.34488     10.14704      4.13192        -1.705673      2.463751     -2.496522
      5.03747     10.06434      7.55284        -1.890752     -3.812694     -3.231212
      2.51479      1.83399      6.52568        -2.186309      2.199653     -7.309148
      7.09134      4.37045      1.93195        -0.035428     -3.132453     -2.852098
      3.56323      0.54870      1.64077         0.508195      0.378650     -0.603865
      2.39475      8.42622      9.73134         2.392691      3.968664     -1.916840
      5.71831      8.80364      2.78293         2.830717      2.259969      1.252748
      0.21551      7.59751      1.44931         1.831948      1.116846      3.230372
      0.96226      3.00647      0.45968         3.896612     -0.264496      1.870804
      8.09901      3.00262      7.71394         3.632453     -0.918257      1.095680
      0.05212      4.20428      5.33962         2.530732      0.424299      0.105126
      9.45894      5.28969      9.59433        -3.488153      1.508483      1.328504
      1.27328      6.16666      7.54930        -0.358088      4.483312     -3.472587
      7.12502      0.83259      5.29182         2.007322     -0.522920      3.234078
      3.34244      7.59278      5.25722        -2.864772      2.488220     -2.523928
      2.25298      5.37287      2.85550        -2.627623     -1.114175      0.242795
      6.91456      7.87655      8.84732         5.117148     -1.152445     -3.175829
      8.30221      6.55781      3.85341         0.943367      6.192183      7.648269
      3.54336      3.98480      8.78043        -3.500321      7.695109     -3.756064
      5.07705      3.01525      4.04927        -5.277813     -5.918404      0.120047
      0.00692      0.64391      8.61706        -0.612013      0.171605      0.810870
      6.41238      8.03929      5.51409         0.423572      2.114868      0.193754
      9.48098      2.05000      2.72246        -1.593358     -4.833677      5.829897
      5.95051      0.47453      6.48490         0.466122     -6.368687      3.652324
      3.54703      4.37068      3.21242         0.214217     -0.616084     -1.242994
      3.65916      7.38035      9.97978         0.005097      1.954072      0.987524
      3.37687      0.56579      7.01314         3.186032     -1.876073     -0.249003
      4.63970      6.75051      5.37301         1.013254     -0.026572     -0.842919
      5.61423      5.21759      1.54749         3.557327      0.697504     -2.466435
[...]
      6.60887      7.35634      7.16642        -1.730831     -2.755321     -2.868508
      9.96659      6.51656      0.56288        -0.029249     -1.144919     -3.912693
      1.23685      9.83000      9.34128         0.519388      0.346283     -1.093755
     10.40280      4.10936     10.46669         1.449264      0.792161     -0.820561
      4.98271      0.38304      8.79550         2.120412      7.010812      4.167978
      7.37027      8.32519     10.31302         4.633986      4.034948     -0.714596
      2.58363      9.09802      4.86473        -1.265818     -2.398963      2.430466
      1.50354      0.71252      5.43806         4.013601     -1.553410     -2.375197
      6.00973      9.53873      4.36372         0.779211      0.159228      0.778056
     10.47705      9.68433      4.91003         0.615685     -3.026154      1.539610
      1.59324      7.33662      8.78910        -0.077027      0.436163     -0.238420
      4.33398      1.84209      2.86593        -1.929810      1.825470     -0.640714
      2.92155      6.63795      3.75635        -2.480417      0.150945      5.002983
      9.89321      2.99842      4.31260         0.245744      0.261693     -1.712658
      1.00230      6.32501      2.21398        -0.260408      0.736319      0.843051
    total drift:                               -0.016439      0.016347      0.005031

  FREE ENERGIE OF THE ION-ELECTRON SYSTEM (eV)
  free  energy   TOTEN  =      -898.83688460 eV

  energy  without entropy=     -898.83688460  energy(sigma->0) =     -898.83688460