 vasp.5.4.4.18Apr17-6-g9f103f2a35 (build Mar 16 2023 09:39:13) complex

 executed on             LinuxIFC date 2024.04.30  14:04:38

 INCAR:
 POTCAR:    PAW_PBE Ca_sv 06Sep2000
 POTCAR:    PAW_PBE Si 05Jan2001
 POTCAR:    PAW_PBE O 08Apr2002
 POTCAR:    PAW_PBE Ca_sv 06Sep2000
   VRHFIN =Ca: 3s3p4s

   TITEL  = PAW_PBE Ca_sv 06Sep2000
   POMASS =   40.078; ZVAL   =   10.000    mass and valenz
   ENMAX  =  266.622; ENMIN  =  199.967 eV

   TITEL  = PAW_PBE Si 05Jan2001
   POMASS =   28.085; ZVAL   =    4.000    mass and valenz
   ENMAX  =  245.345; ENMIN  =  184.009 eV

   TITEL  = PAW_PBE O 08Apr2002
   POMASS =   16.000; ZVAL   =    6.000    mass and valenz
   ENMAX  =  400.000; ENMIN  =  300.000 eV

 Optimization of the real space projectors (new method)

 maximal supplied QI-value         = 16.25
 optimisation between [QCUT,QGAM] = [ 12.51, 25.03] = [ 43.85,175.40] Ry
 Optimized for a Real-space Cutoff    1.47 Angstroem

   l    n(q)    QCUT    max X(q) W(low)/X(q) W(high)/X(q)  e(spline)
   0     11    12.514    11.817    0.25E-04    0.32E-05    0.87E-07
   0     11    12.514     8.461    0.39E-04    0.59E-05    0.18E-06
   1     11    12.514     3.957    0.97E-05    0.57E-05    0.28E-07
   1     11    12.514     4.314    0.42E-04    0.14E-04    0.23E-06
   2     10    12.514    14.565    0.79E-04    0.50E-03    0.16E-05
   2     10    12.514    14.552    0.75E-04    0.48E-03    0.15E-05
 Optimization of the real space projectors (new method)

[...]

   l    n(q)    QCUT    max X(q) W(low)/X(q) W(high)/X(q)  e(spline)
   0      9    12.501   159.560    0.10E-03    0.83E-04    0.71E-07
   0      9    12.501   115.863    0.99E-04    0.81E-04    0.70E-07
   1      8    12.501    88.339    0.20E-03    0.25E-03    0.76E-07
   1      8    12.501    48.592    0.20E-03    0.24E-03    0.75E-07
 Optimization of the real space projectors (new method)

 maximal supplied QI-value         = 24.76
 optimisation between [QCUT,QGAM] = [ 12.38, 25.00] = [ 42.90,175.06] Ry
 Optimized for a Real-space Cutoff    1.16 Angstroem

   l    n(q)    QCUT    max X(q) W(low)/X(q) W(high)/X(q)  e(spline)
   0      9    12.378    20.381    0.16E-03    0.67E-05    0.31E-06
   0      9    12.378    15.268    0.17E-03    0.81E-05    0.33E-06
   1      8    12.378     5.964    0.20E-03    0.16E-03    0.30E-06
   1      8    12.378     5.382    0.18E-03    0.14E-03    0.26E-06
  PAW_PBE Ca_sv 06Sep2000               :
  PAW_PBE Si 05Jan2001                  :
  PAW_PBE O 08Apr2002                   :

 POSCAR: Ca Si  O
  positions in direct lattice
 exchange correlation table for  LEXCH =        8
   RHO(1)=    0.500       N(1)  =     2000
   RHO(2)=  100.500       N(2)  =     4000

 ion  position               nearest neighbor table
   1  0.420  0.810  0.264- 124 2.43 125 2.50 102 2.56  39 2.95  41 3.08
   2  0.320  0.299  0.261-  96 2.24  31 2.69
   3  0.767  0.783  0.302- 101 2.08  81 2.18  95 2.32  62 2.39  85 2.52  46 2.72  39 3.05
   4  0.329  0.691  0.883-  90 2.33  74 2.49  42 3.05
   5  0.984  0.450  0.982-  79 2.07  72 2.21  63 2.27 117 2.36 131 2.51  52 3.11  27 3.12
   6  0.995  0.076  0.741- 127 2.17 132 2.18 121 2.27  97 2.43  33 2.65
   7  0.266  0.769  0.511-  99 1.96 122 2.06  67 2.53
   8  0.050  0.325  0.425-  56 2.39 128 2.40  51 2.94  53 3.09
   9  0.668  0.889  0.081-  58 2.22 113 2.35  86 2.39 101 2.39  39 2.98  48 3.00  42 3.01
  10  0.877  0.511  0.383-  71 2.05  84 2.41  80 2.44 111 2.50  54 2.76
  11  0.485  0.213  0.648-  89 2.16  94 2.41
  12  0.626  0.681  0.776-  87 2.30 109 2.30 129 2.50  75 2.51  35 3.07
  13  0.104  0.522  0.223-  83 2.25  84 2.29  79 2.54  51 3.08
  14  0.399  0.461  0.796- 100 1.94  61 2.28  90 2.41  93 2.49  35 3.06
  15  0.988  0.794  0.507-  91 2.18  81 2.21 106 2.32 111 2.33  54 3.06
  16  0.704  0.469  0.064- 105 2.13  73 2.40
  17  0.695  0.053  0.786-  97 2.37  86 2.41 130 2.43 123 2.45
  18  0.602  0.441  0.567- 109 2.35  68 2.38  70 2.38  94 2.53 134 2.55  35 2.90  43 2.97  49 3.14

  19  0.682  0.181  0.376-  88 1.95  94 2.34  98 2.56  31 3.07  40 3.10
  20  0.934  0.941  0.980-  55 2.24 104 2.26
  21  0.859  0.496  0.681-  71 2.50  80 2.52  82 2.57
  22  0.075  0.712  0.739-  74 2.29 106 2.43  91 2.46 131 2.50  52 3.07
  23  0.321  0.518  0.432-  70 2.14  56 2.25  96 2.29
  24  0.430  0.554  0.139-  73 2.22  93 2.34  50 2.99
  25  0.175  0.066  0.220- 116 2.23  66 2.38 115 2.38  92 2.42 103 2.55
  26  0.598  0.921  0.546-  62 2.52
  27  0.006  0.211  0.962-  72 2.11 132 2.25  28 2.97   5 3.12
  28  0.823  0.277  0.841-  97 1.60  82 1.66 117 1.74 120 2.00  27 2.97  49 2.98
  29  0.906  0.106  0.200- 107 1.56  69 1.61  66 1.67 114 1.74  51 2.91  37 2.96  46 2.97
  30  0.445  0.928  0.745-  78 1.46 130 1.58 126 1.76 110 1.77  42 2.90  32 3.15
  31  0.485  0.315  0.387-  96 1.49  98 1.65  94 1.82 133 2.17   2 2.69  19 3.07
  32  0.247  0.995  0.622- 122 1.56  60 1.62  64 1.71 126 1.71  33 3.04  53 3.11  30 3.15
  33  0.182  0.109  0.817-  76 1.59  60 1.67 121 1.69 132 1.82   6 2.65  36 3.00  32 3.04  34 3.07

[...]

  53  0.238  0.188  0.479- 128 1.61 116 1.62 133 1.63  64 1.69  34 3.09   8 3.09  32 3.11
  54  0.056  0.569  0.483- 106 1.61 111 1.65  71 1.72  56 1.87  10 2.76  15 3.06
  55  0.981  0.775  0.986-  38 1.70  47 1.71  20 2.24
  56  0.152  0.480  0.422-  54 1.87  23 2.25   8 2.39
  57  0.623  0.040  0.223-  39 1.53
  58  0.520  0.972  0.055-  48 1.63  42 1.98   9 2.22
  59  0.176  0.432  0.920-  44 1.61  52 1.66
  60  0.224  0.011  0.744-  32 1.62  33 1.67
  61  0.331  0.329  0.701-  34 1.61  14 2.28
  62  0.664  0.762  0.455-  43 1.57   3 2.39  26 2.52
  63  0.863  0.576  0.994-  47 1.66   5 2.27
  64  0.274  0.119  0.584-  53 1.69  32 1.71
  65  0.743  0.286  0.214-  37 1.49
  66  0.009  0.049  0.144-  29 1.67  25 2.38
  67  0.236  0.696  0.332-  41 1.66   7 2.53
  68  0.570  0.621  0.575-  35 1.53  43 1.77  18 2.38
  69  0.938  0.210  0.261-  29 1.61  51 1.76
  70  0.423  0.482  0.557-  35 1.90  23 2.14  18 2.38
  71  0.959  0.484  0.516-  54 1.72  10 2.05  21 2.50
  72  0.046  0.321  0.076-  51 1.67  27 2.11   5 2.21
  73  0.576  0.483  0.198-  50 1.61  24 2.22  16 2.40
  74  0.143  0.735  0.901-  38 1.69  22 2.29   4 2.49
  75  0.808  0.703  0.843-  45 1.96  47 2.01  12 2.51
  76  0.293  0.156  0.842-  33 1.59  36 1.77
  77  0.333  0.325  0.963-  44 1.65  36 1.81
  78  0.494  0.827  0.728-  30 1.46
  79  0.062  0.578  0.039-  38 1.56   5 2.07  13 2.54
  80  0.774  0.578  0.526-  43 1.66  10 2.44  21 2.52
  81  0.909  0.848  0.365-  46 1.71   3 2.18  15 2.21
  82  0.754  0.378  0.801-  49 1.54  28 1.66  21 2.57
  83  0.237  0.470  0.123-  44 1.67  13 2.25
  84  0.971  0.411  0.257-  51 1.73  13 2.29  10 2.41
  85  0.713  0.957  0.374-  46 1.72  39 1.81   3 2.52
  86  0.660  0.035  0.968-  48 1.65   9 2.39  17 2.41
  87  0.731  0.803  0.700-  45 1.58  12 2.30
  88  0.817  0.193  0.442-  40 1.80  19 1.95
  89  0.546  0.336  0.742-  49 1.75  11 2.16
  90  0.243  0.564  0.789-  52 1.51   4 2.33  14 2.41
  91  0.946  0.831  0.666-  45 1.75  15 2.18  22 2.46
  92  0.117  0.241  0.256-  51 1.63  25 2.42
  93  0.358  0.513  0.978-  44 1.69  24 2.34  14 2.49
  94  0.568  0.265  0.489-  31 1.82  19 2.34  11 2.41  18 2.53
  95  0.723  0.629  0.222-  50 1.71   3 2.32
  96  0.427  0.405  0.347-  31 1.49   2 2.24  23 2.29
  97  0.843  0.158  0.816-  28 1.60  17 2.37   6 2.43
  98  0.514  0.240  0.288-  31 1.65  19 2.56
  99  0.356  0.670  0.582-  35 1.67   7 1.96
 100  0.449  0.593  0.746-  35 1.62  14 1.94
 101  0.623  0.834  0.252-  39 1.60   3 2.08   9 2.39
 102  0.509  0.641  0.318-  50 1.75   1 2.56
 103  0.267  0.141  0.062-  36 1.66  25 2.55
 104  0.863  0.924  0.822-  45 1.65  20 2.26
 105  0.617  0.453  0.925-  49 1.66  16 2.13
 106  0.094  0.660  0.559-  54 1.61  15 2.32  22 2.43
 107  0.861  0.050  0.296-  46 1.47  29 1.56
 108  0.612  0.189  0.093-  37 1.62  48 1.66
 109  0.656  0.513  0.725-  49 1.69  12 2.30  18 2.35
 110  0.391  0.897  0.868-  42 1.63  30 1.77
 111  0.009  0.652  0.398-  54 1.65  15 2.33  10 2.50
 112  0.447  0.138  0.980-  36 1.51  48 1.74
[...]
 121  0.123  0.196  0.739-  33 1.69  34 1.93   6 2.27
 122  0.219  0.920  0.532-  32 1.56   7 2.06
 123  0.720  0.100  0.604-  40 1.64  17 2.45
 124  0.494  0.953  0.361-  39 1.61   1 2.43
 125  0.418  0.826  0.071-  42 1.69   1 2.50
 126  0.374  0.959  0.634-  32 1.71  30 1.76
 127  0.931  0.159  0.609-  40 1.72   6 2.17
 128  0.189  0.283  0.542-  53 1.61  34 1.89   8 2.40
 129  0.539  0.763  0.928-  42 1.60  12 2.50
 130  0.512  0.030  0.748-  30 1.58  17 2.43
 131  0.036  0.539  0.818-  52 1.56  22 2.50   5 2.51
 132  0.071  0.067  0.891-  33 1.82   6 2.18  27 2.25
 133  0.352  0.239  0.455-  53 1.63  31 2.17
 134  0.664  0.535  0.405-  43 1.77  50 1.85  18 2.55
 135  0.132  0.391  0.720-  34 1.56  52 1.87

IMPORTANT INFORMATION: All symmetrisations will be switched off!
NOSYMM: (Re-)initialisation of all symmetry stuff for point group C_1.

Automatic generation of k-mesh.
 generate k-points for:    2    2    2
Space group operators:
 irot       det(A)        alpha          n_x          n_y          n_z        tau_x        tau_y        tau_z
    1     1.000000     0.000000     1.000000     0.000000     0.000000     0.000000     0.000000     0.000000

 Subroutine IBZKPT returns following result:

 Found      8 irreducible k-points:

 Following reciprocal coordinates:
            Coordinates               Weight
  0.000000  0.000000  0.000000      1.000000
  0.500000  0.000000  0.000000      1.000000
  0.000000  0.500000  0.000000      1.000000
  0.500000  0.500000  0.000000      1.000000
  0.000000  0.000000  0.500000      1.000000
  0.500000  0.000000  0.500000      1.000000
  0.000000  0.500000  0.500000      1.000000
  0.500000  0.500000  0.500000      1.000000

 Following cartesian coordinates:
            Coordinates               Weight
  0.000000  0.000000  0.000000      1.000000
  0.038669  0.000000  0.000000      1.000000
  0.000000  0.038669  0.000000      1.000000
  0.038669  0.038669  0.000000      1.000000
  0.000000  0.000000  0.038669      1.000000
  0.038669  0.000000  0.038669      1.000000
  0.000000  0.038669  0.038669      1.000000
  0.038669  0.038669  0.038669      1.000000

 SYSTEM =  unknown system
 POSCAR =  Ca Si  O

 Startparameter for this run:
   NWRITE =      2    write-flag & timer
   PREC   = a         normal or accurate (medium, high low for compatibility)
   ISTART =      0    job   : 0-new  1-cont  2-samecut
   ICHARG =      2    charge: 1-file 2-atom 10-const
   ISPIN  =      1    spin polarized calculation?
   LNONCOLLINEAR =      F non collinear calculations
   LSORBIT =      F    spin-orbit coupling
   INIWAV =      1    electr: 0-lowe 1-rand  2-diag
   LASPH  =      F    aspherical Exc in radial PAW
   METAGGA=      F    non-selfconsistent MetaGGA calc.

 Electronic Relaxation 1
   ENCUT  =  600.0 eV  44.10 Ry    6.64 a.u.  25.83 25.83 25.83*2*pi/ulx,y,z
   ENINI  =  600.0     initial cutoff
   ENAUG  =  605.4 eV  augmentation charge cutoff
   NELM   =     60;   NELMIN=  2; NELMDL= -5     # of ELM steps
   EDIFF  = 0.1E-05   stopping-criterion for ELM
   LREAL  =      T    real-space projection
[...]
     0.000000000  0.000000000 12.930412990     0.000000000  0.000000000  0.077337050

  length of vectors
    12.930412990 12.930412990 12.930412990     0.077337050  0.077337050  0.077337050

 FORCES acting on ions
    electron-ion (+dipol)            ewald-force                    non-local-force                 convergence-correction
   0.207E+03 -.704E+02 0.180E+02   -.201E+03 0.720E+02 -.202E+02   -.443E+01 -.124E+01 0.141E+01   -.375E-03 0.208E-03 -.965E-03
   -.142E+02 0.144E+03 0.203E+03   0.163E+02 -.146E+03 -.201E+03   -.239E+01 0.733E+00 -.307E+01   -.100E-02 0.243E-03 0.661E-03
   -.231E+03 0.105E+03 0.108E+03   0.227E+03 -.108E+03 -.108E+03   0.412E+01 0.702E+00 -.575E+00   -.390E-03 0.186E-04 -.371E-03
   0.106E+02 -.252E+03 -.145E+03   -.119E+02 0.249E+03 0.144E+03   0.162E+01 0.279E+01 0.898E+00   -.279E-04 0.186E-03 0.193E-03
   0.142E+03 -.889E+01 -.648E+02   -.143E+03 0.117E+02 0.617E+02   -.422E+00 -.296E+01 0.117E+01   0.292E-03 0.629E-03 -.430E-03
   0.185E+00 0.211E+03 0.153E+03   -.551E+01 -.205E+03 -.157E+03   0.233E+01 -.569E+01 0.103E+01   -.940E-04 0.695E-03 0.892E-03
   0.169E+02 -.167E+03 0.101E+03   -.160E+02 0.167E+03 -.985E+02   -.188E+01 -.103E+00 -.361E+01   0.373E-03 -.104E-02 -.385E-03
   0.118E+03 0.153E+03 -.128E+03   -.115E+03 -.153E+03 0.129E+03   -.308E+01 -.114E+01 -.234E-01   0.659E-03 0.626E-03 -.217E-03
   -.102E+03 0.104E+03 0.914E+02   0.986E+02 -.104E+03 -.908E+02   0.319E+01 -.799E+00 -.625E+00   -.520E-03 -.800E-03 -.597E-04
   0.146E+03 0.403E+02 0.189E+03   -.146E+03 -.385E+02 -.186E+03   -.198E+01 -.103E+01 -.434E+01   0.805E-03 0.560E-03 -.170E-04
   -.413E+02 0.223E+03 -.409E+01   0.400E+02 -.219E+03 0.465E+01   -.176E+00 -.431E+01 -.880E+00   -.106E-02 0.602E-03 0.640E-05
   -.450E+02 -.854E+02 -.159E+03   0.453E+02 0.877E+02 0.159E+03   -.650E+00 -.130E+01 0.412E+00   -.593E-03 0.470E-03 0.146E-03
   -.163E+02 -.185E+03 -.492E+02   0.161E+02 0.182E+03 0.468E+02   0.251E+00 0.318E+01 0.206E+01   -.227E-03 0.287E-03 -.508E-03
   -.632E+02 0.144E+03 -.141E+03   0.618E+02 -.146E+03 0.140E+03   0.432E+00 -.254E+01 0.268E+01   -.926E-03 0.730E-03 -.978E-03
   -.742E+02 -.186E+03 0.334E+02   0.714E+02 0.185E+03 -.350E+02   0.242E+01 0.160E+01 0.639E+00   -.310E-03 -.466E-03 -.481E-04
   0.282E+02 -.503E+02 -.890E+02   -.297E+02 0.499E+02 0.859E+02   0.237E+01 0.492E+00 0.321E+01   0.107E-02 0.970E-03 -.433E-03
   0.596E+02 -.421E+01 0.890E+01   -.595E+02 0.395E+01 -.743E+01   -.127E+00 -.402E+00 -.985E+00   0.174E-03 -.124E-02 0.331E-03
   -.160E+03 0.228E+03 0.105E+03   0.156E+03 -.226E+03 -.104E+03   0.360E+01 -.186E+01 -.130E+01   -.125E-02 0.142E-02 0.381E-03
   0.124E+03 -.395E+02 0.453E+00   -.123E+03 0.424E+02 -.125E+01   -.351E+01 -.295E+01 -.159E+01   0.525E-03 -.824E-03 -.390E-03
   -.959E+02 0.115E+02 -.141E+03   0.970E+02 -.122E+02 0.139E+03   -.692E+00 0.187E+01 0.288E+01   0.204E-03 -.760E-03 0.303E-03
   -.821E+02 0.232E+02 0.150E+02   0.807E+02 -.232E+02 -.154E+02   0.127E+01 0.772E-03 0.901E+00   0.610E-03 0.851E-03 0.644E-03
   -.342E+02 -.189E+03 0.346E+02   0.331E+02 0.186E+03 -.323E+02   0.105E+01 0.221E+01 -.167E+01   0.188E-03 -.119E-02 0.118E-02
   0.635E+02 -.107E+03 0.117E+03   -.602E+02 0.104E+03 -.112E+03   -.239E+01 0.360E+01 -.412E+01   -.202E-03 0.354E-03 0.105E-02
   0.136E+02 -.108E+03 0.287E+02   -.110E+02 0.104E+03 -.303E+02   -.261E+01 0.293E+01 0.122E+01   -.627E-03 0.134E-02 -.123E-03
   -.166E+03 0.251E+03 0.556E+02   0.163E+03 -.249E+03 -.549E+02   0.240E+01 -.168E+01 -.136E+01   -.368E-03 -.108E-02 -.401E-03
   0.102E+03 -.720E+02 -.407E+02   -.100E+03 0.697E+02 0.394E+02   -.104E+01 0.170E+01 0.117E+01   0.881E-04 -.110E-02 0.178E-03
   -.715E+02 0.156E+03 -.247E+02   0.713E+02 -.154E+03 0.258E+02   -.661E+00 -.167E+01 -.119E+01   0.138E-03 0.425E-03 0.246E-03
   0.832E+02 0.443E+02 0.355E+02   -.741E+02 -.439E+02 -.352E+02   -.524E+01 0.361E+01 0.365E+01   0.578E-03 0.107E-03 0.138E-03
   -.109E+02 0.790E+02 0.331E+02   0.172E+02 -.759E+02 -.310E+02   -.377E+01 -.155E+01 -.574E+01   0.196E-03 -.564E-04 -.231E-03
   0.761E+02 -.447E+02 -.202E+02   -.634E+02 0.381E+02 0.153E+02   -.167E+02 0.113E+02 0.474E+01   0.249E-03 -.322E-03 0.267E-03
   -.533E+02 0.437E+02 -.289E+02   0.521E+02 -.455E+02 0.149E+02   0.437E+01 -.762E+01 0.165E+02   -.175E-03 0.132E-03 0.316E-03
   0.822E+02 0.395E+02 0.267E+02   -.751E+02 -.410E+02 -.320E+02   -.144E+01 0.433E+01 0.462E+01   0.211E-03 -.402E-05 -.101E-03
   -.116E+02 0.814E+02 -.938E+02   0.159E+02 -.774E+02 0.883E+02   -.533E+01 -.484E+01 0.534E+01   -.482E-04 0.199E-03 0.864E-04
   0.188E+02 0.612E+02 0.321E+02   -.140E+02 -.485E+02 -.277E+02   -.481E+01 -.147E+02 -.684E+01   0.821E-04 0.393E-03 0.505E-04
   0.439E+02 -.771E+02 0.273E+02   -.479E+02 0.758E+02 -.266E+02   -.397E+01 -.144E+01 -.147E+01   -.175E-03 -.605E-04 0.984E-04
   -.116E+01 0.920E+01 -.289E+02   0.201E+01 -.165E+02 0.378E+02   -.670E+01 0.924E+01 -.805E+01   -.407E-03 -.229E-03 -.114E-03
   0.330E+02 -.927E+01 0.710E+02   -.349E+02 0.153E+02 -.568E+02   0.397E+01 -.842E+01 -.198E+02   0.427E-03 -.287E-03 0.238E-03
   -.487E+02 -.121E+03 -.597E+02   0.474E+02 0.112E+03 0.539E+02   0.372E+01 0.107E+02 0.458E+01   0.124E-03 -.944E-04 -.183E-03
   0.953E+02 -.356E+02 -.272E+02   -.977E+02 0.395E+02 0.201E+02   0.322E+01 -.381E+01 0.913E+01   -.103E-03 -.170E-03 -.971E-04
   -.156E+02 0.969E+00 -.394E+02   0.173E+02 0.623E+01 0.402E+02   0.630E+00 -.466E+00 -.145E+01   -.462E-04 -.687E-04 -.206E-03
   0.346E+02 -.504E+02 0.348E+01   -.301E+02 0.580E+02 -.439E+01   -.332E+01 -.634E+01 0.322E+01   0.104E-03 0.143E-03 -.166E-03
   0.272E+02 -.604E+02 -.230E+02   -.302E+02 0.482E+02 0.244E+02   0.187E+01 0.123E+02 0.345E+01   -.452E-04 -.373E-03 0.690E-04
   -.868E+01 -.544E+02 0.510E+01   0.145E+02 0.578E+02 -.682E+01   -.599E+01 -.623E+01 0.262E+01   0.632E-05 0.455E-04 0.125E-03
   -.280E+02 0.599E+02 -.921E+02   0.323E+02 -.542E+02 0.881E+02   -.191E+01 -.353E+01 0.375E+01   -.394E-03 0.500E-03 -.119E-03
   -.457E+02 0.143E+02 -.349E-01   0.374E+02 -.955E+01 -.301E+01   0.843E+01 -.516E+01 0.367E+01   -.131E-03 -.978E-04 0.105E-03
   -.766E+02 0.526E+02 -.138E+01   0.792E+02 -.487E+02 0.187E+01   -.353E+01 -.956E+01 0.533E+01   -.164E-03 -.189E-03 -.240E-03
   0.183E+02 -.284E+02 0.188E+01   -.248E+02 0.230E+02 0.590E+01   0.243E+01 0.234E+01 -.890E+01   0.672E-05 -.144E-03 0.157E-03
   0.739E+02 -.816E+02 0.210E+01   -.681E+02 0.737E+02 -.546E+01   -.582E+01 0.785E+01 0.233E+01   0.117E-03 -.771E-03 0.986E-04
   0.458E+02 0.790E+02 -.593E+02   -.426E+02 -.736E+02 0.607E+02   -.853E+01 -.243E+01 -.108E+01   -.150E-03 0.594E-03 -.697E-04
   -.898E+01 0.847E+01 0.224E+02   0.798E+01 -.820E+01 -.281E+02   0.139E+01 0.166E+01 0.773E+01   0.114E-03 0.477E-03 0.121E-03
   0.200E+02 -.243E+01 0.186E+02   -.140E+02 -.948E+00 -.160E+02   -.728E+01 0.243E+01 -.188E+01   -.514E-04 0.232E-03 -.476E-04
   0.180E+02 0.703E+01 0.589E+02   -.175E+02 0.113E+01 -.587E+02   -.245E+01 -.138E+02 -.144E+01   -.938E-04 0.123E-03 -.149E-05
   0.303E+02 0.101E+03 0.516E+02   -.264E+02 -.101E+03 -.529E+02   -.767E+00 -.283E+01 0.128E+01   -.163E-03 0.218E-03 -.124E-05
   -.494E+02 0.280E+02 -.326E+02   0.457E+02 -.203E+02 0.301E+02   0.488E+01 -.940E+01 0.738E+00   0.194E-03 -.272E-03 -.384E-04
   -.605E+02 -.110E+03 -.690E+02   0.637E+02 0.132E+03 0.641E+02   -.369E+01 -.237E+02 0.554E+01   -.943E-04 -.733E-03 0.751E-04
   -.402E+02 -.484E+01 -.121E+01   0.501E+02 -.539E+01 -.254E+01   -.123E+02 0.122E+02 0.425E+01   0.124E-03 -.215E-03 0.264E-03
   0.851E+02 -.111E+03 0.422E+02   -.803E+02 0.141E+03 -.613E+02   -.377E+01 -.279E+02 0.169E+02   0.228E-03 -.430E-03 -.307E-03
   0.201E+03 -.185E+02 -.498E+02   -.213E+03 0.305E+01 0.667E+02   0.104E+02 0.139E+02 -.176E+02   -.726E-04 -.926E-03 -.537E-04
   -.212E+01 0.884E+02 -.336E+02   -.113E+02 -.102E+03 0.331E+02   0.118E+02 0.128E+02 0.666E+00   -.344E-03 0.586E-03 -.421E-03
   0.343E+02 0.183E+03 -.818E+02   -.245E+02 -.199E+03 0.968E+02   -.128E+02 0.148E+02 -.142E+02   0.466E-03 0.460E-03 0.212E-03
[...]
   0.104E+03 -.467E+02 0.135E+03   -.110E+03 0.354E+02 -.161E+03   0.231E+01 0.108E+02 0.265E+02   0.243E-03 0.194E-03 -.650E-03
   0.781E+02 -.294E+02 -.325E+02   -.992E+02 0.359E+02 0.423E+02   0.205E+02 -.864E+01 -.954E+01   -.308E-03 -.581E-03 -.765E-04
   0.240E+03 -.103E+03 -.814E+02   -.266E+03 0.111E+03 0.964E+02   0.260E+02 -.961E+01 -.140E+02   0.238E-03 -.488E-03 -.393E-03
   0.177E+03 0.201E+02 -.731E+02   -.185E+03 -.215E+02 0.921E+02   0.689E+01 -.365E+00 -.189E+02   -.307E-03 -.591E-04 -.651E-07
   -.349E+02 0.291E+02 0.110E+03   0.469E+02 -.288E+02 -.127E+03   -.119E+02 -.156E+01 0.185E+02   0.453E-03 -.184E-03 0.416E-03
   -.496E+02 -.903E+02 0.708E+02   0.649E+02 0.107E+03 -.652E+02   -.168E+02 -.182E+02 -.605E+01   0.303E-03 0.374E-03 0.832E-04
   0.813E+02 -.229E+02 -.391E+01   -.891E+02 0.430E+02 0.442E+01   0.510E+01 -.181E+02 0.189E+01   0.130E-03 0.602E-03 0.354E-03
   -.683E+02 0.811E+02 -.828E+02   0.830E+02 -.105E+03 0.786E+02   -.134E+02 0.245E+02 0.374E+01   -.764E-04 0.199E-03 -.346E-03
   -.210E+02 -.991E+02 -.267E+02   0.323E+02 0.123E+03 0.290E+02   -.891E+01 -.213E+02 -.217E+01   -.107E-03 -.765E-03 0.148E-03
   0.131E+03 -.811E+02 0.895E+02   -.162E+03 0.878E+02 -.868E+02   0.294E+02 -.436E+01 -.359E+01   0.245E-04 -.385E-04 0.399E-03
   -.111E+03 0.193E+03 -.137E+03   0.102E+03 -.203E+03 0.149E+03   0.120E+02 0.104E+02 -.133E+02   -.176E-04 0.180E-03 0.474E-03
   -.819E+02 0.102E+03 0.491E+02   0.999E+02 -.973E+02 -.457E+02   -.160E+02 -.365E+01 -.580E+01   -.382E-03 0.569E-03 0.416E-03
   -.154E+02 0.130E+03 0.109E+03   0.222E+02 -.150E+03 -.106E+03   -.911E+01 0.205E+02 -.537E+01   -.435E-03 0.714E-03 0.306E-03
   0.108E+03 -.136E+02 0.104E+03   -.135E+03 0.230E+02 -.106E+03   0.273E+02 -.604E+01 0.280E+01   0.296E-03 0.585E-03 0.280E-03
   0.120E+03 0.105E+03 -.224E+02   0.398E-12 -.679E-12 0.284E-13   -.120E+03 -.105E+03 0.224E+02   -.214E-02 0.475E-02 0.124E-02

 POSITION                                       TOTAL-FORCE (eV/Angst)
      5.43160     10.47039      3.41725         1.526155      0.412820     -0.758840
      4.14217      3.86087      3.37871        -0.361506     -1.710043     -0.572204
      9.91396     10.12362      3.91057        -0.382775     -2.571882     -0.594094
      4.25713      8.93760     11.41309         0.364850     -0.308740     -0.109746
     12.72548      5.82335     12.69661        -1.792600     -0.198817     -1.953622
     12.86309      0.98486      9.58056        -2.991573     -0.178742     -2.435969
      3.43445      9.94020      6.61352        -1.008016      0.128387     -1.406148
      0.65275      4.20790      5.49652        -0.081546     -1.047588      0.696085
      8.64028     11.49826      1.05087        -0.215039     -0.426829     -0.088171
     11.34203      6.61134      4.95278        -2.898453      0.755994     -1.811277
      6.27155      2.75237      8.37274        -1.502359     -0.381689     -0.321552
      8.09604      8.80782     10.03924        -0.370927      1.031138      0.799484
      1.35016      6.75238      2.87936         0.119282      0.691332     -0.328830
      5.15397      5.96672     10.29887        -0.995481     -3.999117      1.402207
     12.77281     10.26707      6.55263        -0.415690      0.756869     -0.984574
      9.09666      6.06582      0.83359         0.861934      0.129648      0.123415
      8.98736      0.68548     10.16298         0.008172     -0.658463      0.484101
      7.78583      5.69668      7.33200        -0.428924     -0.656853     -0.071098
      8.81258      2.34428      4.85708        -2.416863     -0.017724     -2.391931
     12.07911     12.16955     12.66973         0.387353      1.160534      0.201908
     11.10128      6.41269      8.80330        -0.063646     -0.036049      0.535116
      0.96605      9.20093      9.55725        -0.041163     -0.809380      0.589711
      4.15371      6.70388      5.58230         0.959424      0.440204      0.966868
      5.56558      7.16539      1.79530        -0.013572     -0.245834     -0.417074
      2.26466      0.85987      2.84646        -0.295890      0.241577     -0.608587
      7.73327     11.90752      7.05963         0.230015     -0.694430     -0.127046
      0.08021      2.72945     12.44473        -0.867765     -0.152805     -0.122875
     10.64522      3.58432     10.87009         3.856145      4.011689      3.982276
     11.71956      1.37263      2.58125         2.585591      1.563841     -3.630033
      5.75790     11.99804      9.63909        -3.989535      4.622982     -0.142929
      6.27417      4.06994      5.00968         3.245763     -9.445509      2.534173
      3.19282     12.86831      8.03801         5.644921      2.860182     -0.756637
      2.35723      1.41271     10.55916        -0.976923     -0.829429     -0.135010
      2.71157      3.94279      8.85117        -0.022969     -1.983571     -2.465408
      5.97570      7.85602      8.03871        -7.981195     -2.720882     -0.711026
      4.41585      2.40270     12.50740        -5.857445      1.914401      0.886479
      9.43757      2.92131      1.51252         2.048997     -2.358570     -5.688853
      1.05010      8.96300      0.11039         2.425110      1.777737     -1.166012
      7.74261     12.25910      3.79404         0.858561      0.069317      2.109361
     10.75658      1.29075      7.03138         2.394485      6.733411     -0.685712
      2.41370      9.93344      3.06934         1.206112      1.187026      2.309917
      6.10545     11.15872     12.39016        -1.070621      0.063432      4.891946
      8.68323      8.33151      6.28528        -0.115627     -2.795696      0.908406
      3.44238      5.50015      0.07277         2.324628      2.094704     -0.211525
     10.87390     10.60192      9.71222         0.196458     -0.415779      0.629720
     10.94302     12.48083      4.79200        -0.921337     -5.659656      5.830852
     11.22757      9.10994     12.74042        -4.132206     -3.007741     -1.120984
      7.26342      1.14606      0.39496        -0.000302     -0.089602     -1.029682
      8.26552      5.31611     10.41313        -5.354692      2.913403      0.290739
      7.96795      7.39830      3.55872         0.392780      1.935522      2.087083
      0.27170      3.87687      2.59875        -1.301599     -0.939379      0.680510
      1.93137      6.45276     10.52238        -1.929982     -5.659253     -1.221524
      3.08341      2.43071      6.18792         3.077624     -2.465215      0.036189
      0.72794      7.35484      6.24661         1.170920     -1.652103     -1.663391
     12.67845     10.01730     12.75357        -0.418612     -1.441545      0.710953
      1.96793      6.20514      5.45093        -2.391090      1.923534      0.496038
      8.05806      0.51645      2.88105         0.970189      1.691635     -2.266974
      6.72125     12.56959      0.70974        -1.918015     -1.608368     -0.668146
      2.28010      5.58564     11.89024        -1.638021     -0.333705      0.236189
      2.89894      0.13578      9.62173        -2.953333     -0.934387      0.789793
[...]
      1.58920      2.53166      9.55060         2.299350      0.299548      0.486629
      2.83584     11.89618      6.87348        -3.418917     -0.474497     -0.219896
      9.31090      1.28978      7.81369        -0.532236     -2.160232      0.262775
      6.39156     12.32325      4.66459        -0.141483     -1.226616      0.989103
      5.40748     10.68636      0.92217        -1.350935     -1.778027      0.078335
      4.83380     12.40190      8.19435         0.036670     -1.284119      1.796978
     12.04376      2.05184      7.87527        -1.463160     -1.954475     -0.387747
      2.43950      3.65791      7.00586        -2.718917      1.989850      2.407568
      6.97380      9.86899     12.00224         1.198193      0.275548     -0.438675
      6.62039      0.38838      9.67818         2.427072      2.281512      0.075899
      0.46613      6.97323     10.57433        -1.964381      2.338727     -0.882237
      0.91505      0.86030     11.52116         2.936964      0.613317     -0.705104
      4.54828      3.08807      5.88880         1.990378      1.419011     -2.393680
      8.58262      6.91195      5.23691        -2.266726      0.843981     -2.866996
      1.71216      5.05780      9.30400        -0.365080      3.305256      1.434158
    total drift:                               -0.000282     -0.014018     -0.008254

  FREE ENERGIE OF THE ION-ELECTRON SYSTEM (eV)
  free  energy   TOTEN  =      -938.70950667 eV

  energy  without entropy=     -938.70950667  energy(sigma->0) =     -938.70950667