 vasp.5.4.4.18Apr17-6-g9f103f2a35 (build Oct 31 2019 15:01:46) complex

 executed on             LinuxIFC date 2024.04.29  01:21:14

 INCAR:
 POTCAR:    PAW_PBE Ca_sv 06Sep2000
 POTCAR:    PAW_PBE Si 05Jan2001
 POTCAR:    PAW_PBE O 08Apr2002
 POTCAR:    PAW_PBE Ca_sv 06Sep2000
   VRHFIN =Ca: 3s3p4s

   TITEL  = PAW_PBE Ca_sv 06Sep2000
   POMASS =   40.078; ZVAL   =   10.000    mass and valenz
   ENMAX  =  266.622; ENMIN  =  199.967 eV

   TITEL  = PAW_PBE Si 05Jan2001
   POMASS =   28.085; ZVAL   =    4.000    mass and valenz
   ENMAX  =  245.345; ENMIN  =  184.009 eV

   TITEL  = PAW_PBE O 08Apr2002
   POMASS =   16.000; ZVAL   =    6.000    mass and valenz
   ENMAX  =  400.000; ENMIN  =  300.000 eV

 Optimization of the real space projectors (new method)

 maximal supplied QI-value         = 16.25
 optimisation between [QCUT,QGAM] = [ 12.51, 25.03] = [ 43.85,175.40] Ry
 Optimized for a Real-space Cutoff    1.47 Angstroem

   l    n(q)    QCUT    max X(q) W(low)/X(q) W(high)/X(q)  e(spline)
   0     11    12.514    11.817    0.25E-04    0.32E-05    0.87E-07
   0     11    12.514     8.461    0.39E-04    0.59E-05    0.18E-06
   1     11    12.514     3.957    0.97E-05    0.57E-05    0.28E-07
   1     11    12.514     4.314    0.42E-04    0.14E-04    0.23E-06
   2     10    12.514    14.565    0.79E-04    0.50E-03    0.16E-05
   2     10    12.514    14.552    0.75E-04    0.48E-03    0.15E-05
 Optimization of the real space projectors (new method)

[...]

   l    n(q)    QCUT    max X(q) W(low)/X(q) W(high)/X(q)  e(spline)
   0      9    12.501   159.560    0.10E-03    0.83E-04    0.71E-07
   0      9    12.501   115.863    0.99E-04    0.81E-04    0.70E-07
   1      8    12.501    88.339    0.20E-03    0.25E-03    0.76E-07
   1      8    12.501    48.592    0.20E-03    0.24E-03    0.75E-07
 Optimization of the real space projectors (new method)

 maximal supplied QI-value         = 24.76
 optimisation between [QCUT,QGAM] = [ 12.38, 25.00] = [ 42.90,175.06] Ry
 Optimized for a Real-space Cutoff    1.16 Angstroem

   l    n(q)    QCUT    max X(q) W(low)/X(q) W(high)/X(q)  e(spline)
   0      9    12.378    20.381    0.16E-03    0.67E-05    0.31E-06
   0      9    12.378    15.268    0.17E-03    0.81E-05    0.33E-06
   1      8    12.378     5.964    0.20E-03    0.16E-03    0.30E-06
   1      8    12.378     5.382    0.18E-03    0.14E-03    0.26E-06
  PAW_PBE Ca_sv 06Sep2000               :
  PAW_PBE Si 05Jan2001                  :
  PAW_PBE O 08Apr2002                   :

 POSCAR: Ca Si  O
  positions in direct lattice
 exchange correlation table for  LEXCH =        8
   RHO(1)=    0.500       N(1)  =     2000
   RHO(2)=  100.500       N(2)  =     4000

 ion  position               nearest neighbor table
   1  0.978  0.485  0.783-  65 2.30  67 2.39  83 2.42  48 3.09
   2  0.271  0.944  0.423-  77 2.20 110 2.31  53 3.07
   3  0.217  0.327  0.132- 127 2.11 134 2.33
   4  0.445  0.142  0.595- 104 2.32  41 2.35  88 2.42
   5  0.640  0.068  0.378- 122 2.09 129 2.19  88 2.24  10 3.06
   6  0.288  0.500  0.541- 114 1.94 126 2.41  43 2.87
   7  0.842  0.179  0.765- 107 2.04  82 2.21  57 2.39 111 2.51  33 2.80  35 3.15
   8  0.559  0.725  0.654-  56 2.08 108 2.24  74 2.28  32 2.95
   9  0.365  0.553  0.238- 119 2.15 105 2.16 123 2.45  28 2.98
  10  0.782  0.204  0.487- 122 2.12 107 2.54  42 2.86   5 3.06
  11  0.594  0.990  0.828- 104 2.39 101 2.56  57 2.56
  12  0.204  0.945  0.019- 130 2.11 102 2.22  85 2.28  34 3.01
  13  0.079  0.080  0.624-  89 1.79  84 2.35 116 2.55  47 2.69
  14  0.568  0.577  0.092-  78 2.11 123 2.22  37 2.96  44 2.97
  15  0.845  0.351  0.071-  97 2.34  69 2.39  59 2.39 121 2.42  54 2.88  35 2.90  45 2.96
  16  0.274  0.805  0.670-  61 2.27  93 2.32
  17  0.561  0.420  0.503- 120 2.09  63 2.55
  18  0.489  0.356  0.273- 119 2.25  58 2.30 123 2.43  43 2.82  30 3.03
  19  0.388  0.240  0.975- 115 2.15  98 2.41 127 2.52
  20  0.649  0.877  0.104- 100 1.93  81 2.07
  21  0.788  0.450  0.359-  97 2.09  87 2.21  63 2.56  37 2.88  39 2.89  54 2.99  45 3.13
  22  0.041  0.740  0.455-  92 2.17  99 2.22  36 3.16
  23  0.945  0.735  0.967-  80 2.09  48 3.14
  24  0.196  0.557  0.925-  80 2.29  66 2.36  48 2.58  44 2.91
  25  0.017  0.897  0.177- 131 2.19 102 2.37 113 2.52  50 2.69  52 3.10
  26  0.075  0.289  0.467- 116 2.46  75 2.49  55 2.53
  27  0.674  0.487  0.882- 125 2.19  71 2.35
  28  0.257  0.687  0.373- 126 1.62  99 1.69  77 1.71 105 1.78   9 2.98
  29  0.975  0.894  0.756- 112 1.51 117 1.53  89 1.64  92 2.55  40 2.89
  30  0.668  0.240  0.215-  62 1.63  69 1.64 129 1.65  58 1.68  31 2.97  18 3.03
  31  0.617  0.108  0.050-  98 1.54 101 1.56  62 1.73  81 1.85  30 2.97
  32  0.453  0.613  0.804- 108 1.58  66 1.65 125 1.70 135 1.87   8 2.95  44 3.01  46 3.09
  33  0.658  0.270  0.764-  82 1.53 133 1.54  57 1.62  71 1.84  51 2.41   7 2.80
  34  0.418  0.935  0.071-  95 1.65 130 1.72  85 1.73  81 2.01  12 3.01  46 3.03
  35  0.978  0.284  0.920- 121 1.51  70 1.68 111 1.80  68 2.02  15 2.90   7 3.15
  36  0.915  0.636  0.618-  67 1.50  60 1.58  76 1.93  83 2.39  39 2.80  40 3.08  22 3.16
  37  0.636  0.582  0.298- 123 1.70  72 1.73  87 1.76 120 1.78  21 2.88  14 2.96
  38  0.194  0.673  0.133-  91 1.47  79 1.71 105 1.90 103 2.18
  39  0.848  0.451  0.562-  55 1.59  63 1.69  76 1.71  83 1.74  36 2.80  21 2.89
  40  0.795  0.818  0.675-  56 1.55 117 1.65  86 1.74  60 1.84  29 2.89  36 3.08
  41  0.491  0.977  0.585-  74 1.50  88 1.53 104 1.71  61 1.91   4 2.35
  42  0.844  0.015  0.550-  86 1.53 122 1.68 107 1.72 132 1.89  10 2.86  49 2.86
  43  0.331  0.345  0.406- 119 1.56 114 1.74 106 1.88  75 2.14  53 2.55  18 2.82   6 2.87
  44  0.393  0.503  0.986- 134 1.65 109 1.84  78 1.84  66 1.97  24 2.91  14 2.97  32 3.01  46 3.10

  45  0.973  0.433  0.225-  97 1.56  73 1.57  59 1.70 128 2.12  54 2.62  15 2.96  21 3.13
  46  0.401  0.730  0.991- 135 1.67 103 1.73  95 1.77 109 1.81  34 3.03  32 3.09  44 3.10
  47  0.067  0.260  0.702-  64 1.47 111 1.59  84 1.77  13 2.69
  48  0.101  0.673  0.810-  93 1.54  80 1.57  65 1.66  67 2.20  24 2.58   1 3.09  23 3.14
  49  0.997  0.032  0.408-  90 1.44 113 1.63 132 1.71  42 2.86
  50  0.867  0.937  0.055-  96 1.62 131 1.63 100 1.68  94 1.75  52 2.55  25 2.69
  51  0.495  0.333  0.754-  71 1.63 118 1.63 133 1.63 115 1.65  33 2.41
  52  0.981  0.085  0.055- 102 1.62  70 1.68  96 1.76  94 1.92  50 2.55  25 3.10
  53  0.273  0.169  0.416- 116 1.56  75 1.57 110 1.80 106 2.05  43 2.55   2 3.07
  54  0.827  0.540  0.163- 128 1.59  87 1.73 124 1.75  97 2.04  45 2.62  15 2.88  21 2.99
  55  0.919  0.364  0.532-  39 1.59  26 2.53
  56  0.682  0.811  0.679-  40 1.55   8 2.08
  57  0.673  0.159  0.802-  33 1.62   7 2.39  11 2.56
  58  0.591  0.310  0.148-  30 1.68  18 2.30
  59  0.009  0.365  0.128-  45 1.70  15 2.39
  60  0.837  0.718  0.595-  36 1.58  40 1.84
  61  0.361  0.928  0.601-  41 1.91  16 2.27
  62  0.648  0.131  0.171-  30 1.63  31 1.73
  63  0.744  0.392  0.531-  39 1.69  17 2.55  21 2.56
  64  0.044  0.354  0.656-  47 1.47
  65  0.121  0.568  0.751-  48 1.66   1 2.30
  66  0.357  0.571  0.864-  32 1.65  44 1.97  24 2.36
  67  0.990  0.638  0.698-  36 1.50  48 2.20   1 2.39
  68  0.121  0.317  0.918-  35 2.02
  69  0.782  0.276  0.215-  30 1.64  15 2.39
  70  0.973  0.197  0.007-  52 1.68  35 1.68
  71  0.579  0.351  0.836-  51 1.63  33 1.84  27 2.35
  72  0.653  0.692  0.239-  37 1.73
  73  0.028  0.427  0.325-  45 1.57
  74  0.529  0.874  0.587-  41 1.50   8 2.28
  75  0.216  0.251  0.358-  53 1.57  43 2.14  26 2.49
  76  0.895  0.553  0.506-  39 1.71  36 1.93
  77  0.262  0.786  0.449-  28 1.71   2 2.20
  78  0.508  0.448  0.031-  44 1.84  14 2.11
  79  0.203  0.548  0.127-  38 1.71
  80  0.053  0.643  0.910-  48 1.57  23 2.09  24 2.29
  81  0.554  0.991  0.074-  31 1.85  34 2.01  20 2.07
  82  0.760  0.318  0.762-  33 1.53   7 2.21
  83  0.834  0.495  0.681-  39 1.74  36 2.39   1 2.42
  84  0.178  0.218  0.650-  47 1.77  13 2.35
  85  0.318  0.973  0.139-  34 1.73  12 2.28
  86  0.830  0.920  0.608-  42 1.53  40 1.74
  87  0.721  0.516  0.227-  54 1.73  37 1.76  21 2.21
  88  0.532  0.027  0.493-  41 1.53   5 2.24   4 2.42
  89  0.030  0.983  0.696-  29 1.64  13 1.79
  90  0.965  0.132  0.410-  49 1.44
  91  0.101  0.723  0.153-  38 1.47
  92  0.998  0.812  0.590-  22 2.17  29 2.55
  93  0.155  0.768  0.786-  48 1.54  16 2.32
  94  0.882  0.031  0.141-  50 1.75  52 1.92
  95  0.452  0.820  0.068-  34 1.65  46 1.77
  96  0.952  0.981  0.984-  50 1.62  52 1.76
  97  0.862  0.411  0.230-  45 1.56  54 2.04  21 2.09  15 2.34
  98  0.554  0.185  0.997-  31 1.54  19 2.41
  99  0.153  0.632  0.411-  28 1.69  22 2.22
 100  0.765  0.877  0.023-  50 1.68  20 1.93
 101  0.681  0.040  0.986-  31 1.56  11 2.56
 102  0.081  0.028  0.084-  52 1.62  12 2.22  25 2.37
 103  0.276  0.734  0.010-  46 1.73  38 2.18
 104  0.564  0.043  0.664-  41 1.71   4 2.32  11 2.39
[...]
 121  0.877  0.325  0.899-  35 1.51  15 2.42
 122  0.767  0.052  0.461-  42 1.68   5 2.09  10 2.12
 123  0.542  0.522  0.243-  37 1.70  14 2.22  18 2.43   9 2.45
 124  0.784  0.547  0.042-  54 1.75
 125  0.576  0.589  0.807-  32 1.70  27 2.19
 126  0.341  0.614  0.417-  28 1.62   6 2.41
 127  0.306  0.200  0.135-   3 2.11  19 2.52
 128  0.936  0.575  0.176-  54 1.59  45 2.12
 129  0.651  0.222  0.333-  30 1.65   5 2.19
 130  0.349  0.960  0.968-  34 1.72  12 2.11
 131  0.865  0.857  0.143-  50 1.63  25 2.19
 132  0.966  0.964  0.507-  49 1.71  42 1.89
 133  0.581  0.288  0.685-  33 1.54  51 1.63
 134  0.307  0.437  0.038-  44 1.65   3 2.33
 135  0.463  0.722  0.886-  46 1.67  32 1.87

IMPORTANT INFORMATION: All symmetrisations will be switched off!
NOSYMM: (Re-)initialisation of all symmetry stuff for point group C_1.

Automatic generation of k-mesh.
 generate k-points for:    2    2    2
Space group operators:
 irot       det(A)        alpha          n_x          n_y          n_z        tau_x        tau_y        tau_z
    1     1.000000     0.000000     1.000000     0.000000     0.000000     0.000000     0.000000     0.000000

 Subroutine IBZKPT returns following result:

 Found      8 irreducible k-points:

 Following reciprocal coordinates:
            Coordinates               Weight
  0.000000  0.000000  0.000000      1.000000
  0.500000  0.000000  0.000000      1.000000
  0.000000  0.500000  0.000000      1.000000
  0.500000  0.500000  0.000000      1.000000
  0.000000  0.000000  0.500000      1.000000
  0.500000  0.000000  0.500000      1.000000
  0.000000  0.500000  0.500000      1.000000
  0.500000  0.500000  0.500000      1.000000

 Following cartesian coordinates:
            Coordinates               Weight
  0.000000  0.000000  0.000000      1.000000
  0.036574  0.000000  0.000000      1.000000
  0.000000  0.036574  0.000000      1.000000
  0.036574  0.036574  0.000000      1.000000
  0.000000  0.000000  0.036574      1.000000
  0.036574  0.000000  0.036574      1.000000
  0.000000  0.036574  0.036574      1.000000
  0.036574  0.036574  0.036574      1.000000

 SYSTEM =  unknown system
 POSCAR =  Ca Si  O

 Startparameter for this run:
   NWRITE =      2    write-flag & timer
   PREC   = a         normal or accurate (medium, high low for compatibility)
[...]
     0.000000000  0.000000000 13.670863650     0.000000000  0.000000000  0.073148268

  length of vectors
    13.670863650 13.670863650 13.670863650     0.073148268  0.073148268  0.073148268

 FORCES acting on ions
    electron-ion (+dipol)            ewald-force                    non-local-force                 convergence-correction
   0.364E+02 0.306E+02 -.147E+03   -.347E+02 -.302E+02 0.139E+03   -.161E+01 -.132E+01 0.639E+01   -.462E-03 0.412E-02 0.313E-02
   -.359E+02 0.868E+02 0.125E+03   0.403E+02 -.878E+02 -.125E+03   -.356E+01 0.126E+01 -.627E+00   -.156E-02 -.171E-02 -.399E-02
   0.182E+03 0.145E+03 -.310E+02   -.180E+03 -.149E+03 0.287E+02   -.374E+01 0.414E+01 0.232E+01   0.193E-01 -.302E-01 -.345E-02
   0.215E+03 -.637E+02 -.125E+03   -.211E+03 0.640E+02 0.125E+03   -.419E+01 0.266E+01 0.317E+00   0.122E-02 -.665E-02 0.395E-02
   0.116E+03 0.392E+03 0.199E+03   -.118E+03 -.389E+03 -.196E+03   -.281E+00 -.337E+01 -.408E+01   0.467E-03 -.340E-02 -.427E-02
   0.302E+02 -.200E+03 -.199E+03   -.300E+02 0.201E+03 0.196E+03   -.395E+00 0.356E+01 0.373E+01   -.752E-02 0.844E-02 0.313E-02
   -.980E+02 0.186E+03 -.142E+03   0.919E+02 -.183E+03 0.140E+03   0.534E+01 -.214E+01 0.406E+01   -.374E-02 -.252E-02 0.447E-02
   -.227E+02 0.465E+02 0.182E+03   0.224E+02 -.406E+02 -.183E+03   0.400E-01 -.520E+01 -.558E+00   0.158E-02 0.331E-02 0.197E-02
   -.230E+02 -.152E+03 -.980E+02   0.203E+02 0.155E+03 0.101E+03   0.245E+01 -.174E+01 -.305E+01   -.255E-02 0.995E-03 -.804E-02
   0.247E+02 -.572E+02 0.570E+02   -.218E+02 0.575E+02 -.562E+02   -.161E+01 0.263E+01 -.382E+00   0.789E-03 -.297E-02 -.262E-02
   0.140E+03 0.232E+03 -.293E+02   -.137E+03 -.223E+03 0.278E+02   -.203E+01 -.664E+01 0.158E+01   -.776E-03 -.152E-03 0.463E-02
   0.291E+02 -.554E+02 0.136E+03   -.216E+02 0.598E+02 -.132E+03   -.625E+01 -.415E+01 -.308E+01   0.366E-02 0.690E-02 0.411E-02
   -.244E+03 0.407E+02 -.530E+02   0.248E+03 -.397E+02 0.516E+02   -.801E+00 0.206E+01 -.322E+01   0.128E-02 -.103E-01 -.117E-02
   -.195E+03 -.340E+03 0.938E+02   0.193E+03 0.334E+03 -.889E+02   0.323E+01 0.648E+01 -.372E+01   -.655E-03 0.286E-03 -.142E-02
   0.354E+02 0.612E+02 0.152E+03   -.331E+02 -.648E+02 -.146E+03   -.262E+01 0.192E+01 -.426E+01   0.877E-03 -.113E-02 0.103E-02
   -.658E+02 -.425E+02 -.103E+02   0.657E+02 0.457E+02 0.890E+01   0.342E+00 -.276E+01 0.539E+00   -.229E-02 0.111E-02 0.178E-02
   0.142E+03 -.691E+02 -.161E+03   -.135E+03 0.724E+02 0.161E+03   -.508E+01 -.334E+01 0.150E+01   0.129E-01 0.323E-02 0.446E-02
   0.358E+02 0.170E+03 -.349E+02   -.320E+02 -.171E+03 0.283E+02   -.177E+01 -.165E+00 0.416E+01   -.312E-02 -.780E-02 -.203E-01
   0.223E+03 0.200E+03 0.534E+02   -.217E+03 -.202E+03 -.528E+02   -.433E+01 0.135E+01 0.401E+00   -.973E-02 -.696E-02 0.232E-01
   0.753E+02 0.225E+03 -.293E+03   -.737E+02 -.221E+03 0.289E+03   -.224E+01 -.535E+01 0.591E+01   -.234E-03 0.257E-02 -.137E-02
   -.593E+02 -.156E+03 -.172E+03   0.594E+02 0.153E+03 0.172E+03   -.245E-01 0.148E+01 0.286E+01   0.301E-02 0.135E-02 -.345E-02
   0.105E+03 -.297E+02 0.221E+03   -.100E+03 0.284E+02 -.215E+03   -.401E+01 0.155E+01 -.598E+01   -.155E-02 0.318E-02 0.205E-02
   0.219E+03 0.283E+02 -.112E+03   -.216E+03 -.262E+02 0.111E+03   -.420E+01 -.357E+00 0.191E+01   0.643E-05 0.169E-02 0.333E-03
   0.654E+02 0.124E+03 0.540E+02   -.643E+02 -.127E+03 -.521E+02   -.147E+00 0.178E+00 -.233E+00   0.368E-03 -.222E-03 0.338E-02
   -.923E+02 0.137E+03 -.252E+03   0.896E+02 -.134E+03 0.253E+03   0.374E+01 -.229E+01 0.265E+00   0.121E-02 0.187E-02 -.137E-02
   0.144E+02 -.912E+02 0.105E+03   -.148E+02 0.921E+02 -.106E+03   -.828E-01 -.313E-01 0.420E+00   -.128E-02 -.723E-03 -.830E-02
   -.180E+03 -.185E+03 -.485E+01   0.173E+03 0.182E+03 -.197E+00   0.628E+01 0.119E+01 0.396E+01   -.318E-03 0.826E-03 0.285E-02
   -.886E+01 -.114E+03 0.244E+02   0.808E+01 0.107E+03 -.133E+02   -.797E+00 0.624E+01 -.846E+01   -.958E-03 0.160E-02 -.108E-02
   -.483E+02 -.194E+02 0.270E+02   0.513E+02 0.202E+02 -.139E+02   0.159E+01 0.717E+00 -.173E+02   0.129E-03 -.138E-02 0.103E-03
   0.136E+01 0.459E+02 0.147E+02   0.205E+01 -.442E+02 -.166E+02   -.239E+01 0.666E-01 0.570E+00   -.884E-03 -.139E-02 -.243E-02
   0.542E+01 0.463E+01 -.468E+02   -.767E+01 -.285E+01 0.342E+02   0.523E+00 -.288E+01 0.144E+02   -.263E-02 0.280E-03 -.160E-03
   -.910E+01 -.371E+02 0.255E+02   0.111E+02 0.364E+02 -.351E+02   0.991E+00 0.235E+00 0.992E+01   -.562E-04 0.860E-03 0.166E-02
   0.261E+02 0.242E+02 -.108E+02   -.177E+02 -.261E+02 0.111E+02   -.737E+01 0.404E-01 0.578E+01   -.297E-03 -.736E-03 0.211E-02
   -.497E+02 -.500E+02 -.699E+02   0.374E+02 0.516E+02 0.678E+02   0.917E+01 0.306E+01 0.149E+01   -.157E-02 0.355E-02 0.772E-03
   -.122E+03 -.161E+01 -.460E+02   0.116E+03 0.604E+01 0.442E+02   0.168E+02 -.636E+01 0.154E+01   0.755E-03 -.314E-03 0.296E-02
   0.339E+02 0.137E+02 0.819E+02   -.326E+02 -.506E+01 -.733E+02   -.501E+01 -.105E+02 -.127E+02   0.334E-03 0.199E-02 0.174E-03
   -.188E+02 -.212E+03 -.137E+03   0.145E+02 0.214E+03 0.130E+03   0.214E+01 -.197E+00 0.555E+01   0.970E-03 0.162E-02 -.172E-02
   -.288E+01 -.761E+02 -.205E+01   -.124E+02 0.718E+02 0.847E+01   0.225E+02 -.160E+01 -.520E+01   -.155E-04 0.296E-03 -.564E-03
   0.282E+02 -.877E+02 -.143E+02   -.243E+02 0.795E+02 0.134E+02   -.429E+01 0.695E+01 0.370E+01   0.374E-03 0.142E-02 -.171E-04
   0.668E+02 0.603E+02 -.996E+01   -.750E+02 -.578E+02 0.967E+01   0.111E+02 -.168E+01 -.457E+01   0.848E-03 -.916E-04 0.162E-03
   0.101E+03 0.526E+02 -.267E+02   -.860E+02 -.631E+02 0.216E+02   -.147E+02 0.566E+01 0.806E+01   0.269E-03 -.961E-03 0.316E-03
   0.161E+02 0.500E+02 0.828E+02   -.228E+02 -.537E+02 -.759E+02   0.661E+01 0.520E+01 -.659E+01   -.785E-04 -.200E-02 -.576E-03
   0.850E+01 0.177E+02 -.396E+02   -.691E+01 -.136E+02 0.390E+02   -.420E+01 -.931E+01 0.368E+01   -.479E-02 -.242E-02 -.572E-02
   -.271E+02 0.406E+02 0.106E+03   0.249E+02 -.468E+02 -.951E+02   0.366E+01 0.519E+01 -.763E+01   -.812E-03 -.165E-02 0.129E-02
   -.132E+03 -.702E+02 0.246E+01   0.133E+03 0.594E+02 0.499E+01   0.423E+01 0.987E+01 -.913E+01   0.101E-02 -.541E-03 -.120E-02
   -.506E+02 -.113E+03 0.263E+02   0.467E+02 0.112E+03 -.265E+02   0.105E+01 0.137E+01 0.257E+01   -.284E-03 0.943E-03 0.532E-03
   -.101E+03 0.731E+02 -.528E+02   0.102E+03 -.599E+02 0.472E+02   0.619E+01 -.156E+02 0.727E+01   0.428E-03 0.767E-03 0.232E-02
   -.144E+02 -.661E+02 0.430E+02   0.223E+02 0.654E+02 -.439E+02   -.883E+01 -.973E+00 -.555E+01   -.235E-03 0.108E-02 0.505E-03
   -.459E+01 0.118E+03 0.926E+02   0.497E+01 -.106E+03 -.944E+02   0.336E+01 -.191E+02 0.655E+00   0.162E-03 -.118E-02 -.164E-02
   0.541E+02 0.251E+01 0.379E+02   -.551E+02 -.666E+01 -.322E+02   -.425E+01 0.442E+01 -.424E+01   -.228E-03 -.219E-03 0.177E-03
   0.126E+03 0.357E+00 0.767E+02   -.129E+03 0.285E+01 -.683E+02   -.140E+01 -.155E+01 -.460E+01   0.280E-03 -.108E-02 0.360E-02
   -.173E+02 -.990E+02 -.310E+02   0.232E+02 0.892E+02 0.314E+02   -.709E+01 0.750E+01 0.337E+00   0.183E-02 -.513E-04 0.881E-03
   -.625E+02 0.951E+02 0.274E+02   0.518E+02 -.966E+02 -.293E+02   0.153E+02 -.257E+01 -.770E+00   -.225E-02 -.189E-02 -.512E-02
   -.455E+01 -.162E+03 0.172E+02   0.120E+02 0.163E+03 -.202E+02   -.100E+02 -.262E+01 0.106E+01   0.328E-03 0.336E-03 -.480E-03
   -.798E+02 0.248E+02 0.502E+02   0.984E+02 -.441E+02 -.543E+02   -.179E+02 0.179E+02 0.254E+01   -.804E-03 0.155E-02 -.177E-02
   0.481E+02 0.114E+02 -.285E+02   -.788E+02 -.713E+01 0.263E+02   0.312E+02 -.421E+01 0.441E+01   0.886E-03 0.286E-03 0.758E-03
   0.516E+02 0.161E+03 -.742E+02   -.512E+02 -.185E+03 0.862E+02   -.257E+00 0.240E+02 -.126E+02   -.110E-02 -.126E-02 0.317E-02
   0.376E+02 0.225E+02 0.113E+03   -.512E+02 -.110E+02 -.135E+03   0.141E+02 -.113E+02 0.250E+02   -.356E-02 -.337E-02 -.379E-02
   -.162E+03 0.649E+02 0.346E+02   0.173E+03 -.803E+02 -.521E+02   -.121E+02 0.172E+02 0.185E+02   0.370E-02 -.184E-02 -.191E-03
   0.183E+03 0.165E+01 0.164E+03   -.199E+03 0.819E+01 -.185E+03   0.131E+02 -.781E+01 0.234E+02   0.151E-02 0.203E-02 -.106E-04
[...]
   0.255E+02 0.243E+03 0.136E+03   -.370E+02 -.244E+03 -.151E+03   0.134E+02 -.425E+00 0.160E+02   0.242E-03 -.219E-02 -.145E-02
   0.233E+02 -.115E+03 -.997E+02   -.357E+02 0.104E+03 0.935E+02   0.113E+02 0.120E+02 0.663E+01   0.594E-03 0.152E-02 -.499E-02
   -.205E+02 -.170E+03 0.135E+03   0.155E+02 0.174E+03 -.154E+03   0.556E+01 -.575E+01 0.220E+02   0.148E-03 0.683E-03 0.768E-04
   -.138E+03 -.111E+03 0.642E+02   0.158E+03 0.109E+03 -.685E+02   -.214E+02 0.218E+01 0.533E+01   0.522E-03 0.130E-02 0.228E-02
   -.171E+03 -.111E+03 -.116E+03   0.191E+03 0.994E+02 0.127E+03   -.185E+02 0.108E+02 -.119E+02   -.231E-02 0.518E-02 -.227E-02
   0.557E+01 0.205E+03 -.247E+02   -.320E+01 -.216E+03 0.303E+02   -.225E+01 0.127E+02 -.687E+01   0.312E-02 -.396E-02 -.271E-02
   -.107E+03 -.233E+03 -.358E+02   0.139E+03 0.252E+03 0.364E+02   -.314E+02 -.200E+02 0.429E-01   0.457E-03 0.361E-03 -.700E-03
   0.533E+02 0.283E+02 -.825E+02   -.556E+02 -.282E+02 0.101E+03   0.120E+01 0.521E+00 -.165E+02   0.123E-02 -.310E-02 -.435E-02
   -.341E+02 -.963E+02 0.229E+03   0.262E+02 0.103E+03 -.248E+03   0.108E+02 -.771E+01 0.182E+02   -.747E-03 0.419E-02 0.436E-02
   0.103E+03 0.194E+03 -.241E+03   -.113E+03 -.213E+03 0.260E+03   0.151E+02 0.170E+02 -.175E+02   -.168E-03 0.481E-03 -.517E-03
   -.310E+02 0.137E+03 0.140E+03   0.379E+02 -.165E+03 -.122E+03   -.786E+01 0.306E+02 -.202E+02   -.128E-03 -.379E-02 -.443E-03
   0.729E+02 0.254E+02 0.207E+03   -.742E+02 -.288E+02 -.242E+03   -.212E+01 0.255E+01 0.264E+02   0.115E-02 -.181E-02 0.436E-02
   0.638E+02 0.141E+03 0.563E+02   -.824E+02 -.153E+03 -.430E+02   0.203E+02 0.119E+02 -.162E+02   -.105E-02 -.764E-02 0.310E-02
   -.108E+03 -.216E+03 0.820E+02   0.126E+03 0.228E+03 -.963E+02   -.187E+02 -.130E+02 0.149E+02   -.235E-03 0.113E-02 0.155E-02
   0.119E+02 -.539E+02 0.294E+02   -.426E-12 0.625E-12 -.242E-12   -.119E+02 0.539E+02 -.293E+02   -.724E-02 -.480E-01 -.132E-01

 POSITION                                       TOTAL-FORCE (eV/Angst)
     13.36779      6.62997     10.70366         0.079454     -0.969140     -1.680143
      3.70380     12.91145      5.78193         0.809960      0.335569     -0.052463
      2.96832      4.46432      1.79847        -1.165719     -0.352869      0.011698
      6.08180      1.94525      8.13465        -0.169647      3.017909      0.227530
      8.75448      0.92953      5.16881        -2.286605     -0.813511     -1.272882
      3.93676      6.83866      7.39566        -0.172950      4.762418      1.207608
     11.51744      2.45221     10.46482        -0.848014      0.675961      1.803819
      7.64604      9.90919      8.94138        -0.250403      0.717854     -1.321738
      4.99085      7.56612      3.25465        -0.245333      0.905507     -0.228002
     10.68557      2.78724      6.65478         1.236348      2.879538      0.416140
      8.12417     13.53931     11.31439         0.918903      2.477457      0.018056
      2.79522     12.91793      0.26555         1.205343      0.223555      0.215604
      1.08453      1.09327      8.52823         3.183892      3.081081     -4.566707
      7.76580      7.88431      1.26025         1.154743      0.395961      1.132930
     11.54836      4.80146      0.96588        -0.364212     -1.751896      1.249066
      3.74700     11.00579      9.16266         0.242280      0.458627     -0.897402
      7.66844      5.74076      6.88121         1.638585     -0.106122      1.696646
      6.68192      4.86302      3.73818         2.017176     -1.595193     -2.423110
      5.29993      3.27782     13.32361         1.462644     -0.777169      1.027179
      8.86958     11.99165      1.42488        -0.661292     -0.895257      1.621239
     10.77738      6.15111      4.90267         0.142207     -1.377082      2.461580
      0.56254     10.11838      6.22113         0.425418      0.188442      0.436625
     12.92243     10.05064     13.21341        -0.972171      1.746128      0.841266
      2.68611      7.62049     12.64352         0.942030     -2.224696      1.661747
      0.22578     12.26182      2.42352         0.983963      0.431282      1.741564
      1.03155      3.95590      6.37975        -0.453747      0.917319     -0.367756
      9.21859      6.65675     12.06124        -0.756949     -1.446345     -1.088739
      3.51946      9.39030      5.10223        -1.577297     -0.898705      2.675660
     13.33565     12.22331     10.33102         4.607113      1.567342     -4.139848
      9.13479      3.28349      2.93299         1.015690      1.716573     -1.359940
      8.43060      1.47659      0.68572        -1.729460     -1.107478      1.884892
      6.19557      8.37363     10.99587         3.031274     -0.438621      0.258189
      9.00195      3.68907     10.44331         0.992047     -1.830088      6.081032
      5.71383     12.78551      0.97535        -3.171471      4.718450     -0.602634
     13.36407      3.88468     12.57326        10.529977     -1.927333     -0.228407
     12.51262      8.69700      8.45155        -3.721267     -1.860366     -4.161984
      8.69126      7.95048      4.07239        -2.206664      1.341445     -1.617636
      2.65394      9.19505      1.81306         7.200506     -5.832899      1.221631
     11.58775      6.16878      7.67858        -0.440020     -1.190684      2.802739
     10.87079     11.17911      9.23312         2.878087      0.842540     -4.855414
      6.71397     13.35965      8.00195         0.315368     -4.851309      2.915735
     11.54004      0.20182      7.51998        -0.032768      1.443309      0.298912
      4.52776      4.72317      5.55017        -2.612518     -5.256649      3.077687
      5.37540      6.87941     13.47761         1.477207     -1.027380      2.993518
     13.30858      5.91871      3.07172         5.400031     -0.923212     -1.680982
      5.48691      9.97569     13.54655        -2.864894      0.492794      2.339937
      0.91389      3.55434      9.59210         6.525962     -2.459719      1.636494
      1.38141      9.19832     11.06922        -0.963820     -1.649139     -6.501430
     13.62683      0.43998      5.57873         3.735237     -7.830574     -1.162156
     11.85627     12.81325      0.75262        -5.294053      0.259077      1.558728
      6.76323      4.55882     10.31345        -4.948891      1.646270      3.793339
     13.41024      1.15910      0.75778        -1.226251     -2.268301      0.668500
      3.72815      2.30546      5.68028         4.516849     -4.136000     -2.619047
     11.30385      7.37834      2.22405        -2.597964     -0.825936     -1.869807
     12.56701      4.97928      7.27478         0.662741     -1.423688     -1.589790
      9.32894     11.08242      9.28561         0.492173      0.024314      2.197661
      9.20179      2.16929     10.96244         0.133025     -0.510482     -0.549886
      8.07975      4.23167      2.02732         0.547842      0.161927      3.018544
      0.12952      4.98303      1.74526        -0.628766      1.796122      0.946026
     11.44401      9.81141      8.13841        -2.910301      2.024739      1.850704
[...]
     11.98767      4.43908     12.28643        -2.515657      2.431741      0.856715
     10.48888      0.70698      6.30695         1.993777     -1.376762      1.018110
      7.40472      7.14105      3.31962        -1.126081      0.526220      0.460779
     10.72221      7.48340      0.57180         0.522970     -0.945525      2.156845
      7.86769      8.04579     11.03700        -1.389410      0.154854      1.107801
      4.65529      8.39851      5.70551         1.212056     -1.168231     -0.672918
      4.18408      2.73755      1.84174         0.114371      1.926169     -1.291446
     12.80268      7.86531      2.40458         0.288355     -0.476568      0.618645
      8.90416      3.02875      4.55116        -1.034055      0.584527      2.409957
      4.77735     13.12715     13.23991         2.910506     -0.849543     -0.926080
     11.83131     11.71662      1.95721         4.112983     -2.116146      1.754773
     13.19946     13.17307      6.93732        -0.945995      3.205597     -2.212154
      7.93689      3.94157      9.36528        -3.393925     -0.857554     -7.846950
      4.19353      5.97596      0.52131         1.728658      0.440496     -2.900067
      6.32392      9.86899     12.10902        -1.003630     -0.246198      0.689379
    total drift:                               -0.009402     -0.009081      0.007269

  FREE ENERGIE OF THE ION-ELECTRON SYSTEM (eV)
  free  energy   TOTEN  =      -887.14969415 eV

  energy  without entropy=     -887.13358540  energy(sigma->0) =     -887.14163978