 vasp.5.4.4.18Apr17-6-g9f103f2a35 (build Mar 16 2023 09:39:13) complex

 executed on             LinuxIFC date 2024.04.30  15:45:55

 INCAR:
 POTCAR:    PAW_PBE Ca_sv 06Sep2000
 POTCAR:    PAW_PBE Si 05Jan2001
 POTCAR:    PAW_PBE O 08Apr2002
 POTCAR:    PAW_PBE Ca_sv 06Sep2000
   VRHFIN =Ca: 3s3p4s

   TITEL  = PAW_PBE Ca_sv 06Sep2000
   POMASS =   40.078; ZVAL   =   10.000    mass and valenz
   ENMAX  =  266.622; ENMIN  =  199.967 eV

   TITEL  = PAW_PBE Si 05Jan2001
   POMASS =   28.085; ZVAL   =    4.000    mass and valenz
   ENMAX  =  245.345; ENMIN  =  184.009 eV

   TITEL  = PAW_PBE O 08Apr2002
   POMASS =   16.000; ZVAL   =    6.000    mass and valenz
   ENMAX  =  400.000; ENMIN  =  300.000 eV

 Optimization of the real space projectors (new method)

 maximal supplied QI-value         = 16.25
 optimisation between [QCUT,QGAM] = [ 12.51, 25.03] = [ 43.85,175.40] Ry
 Optimized for a Real-space Cutoff    1.47 Angstroem

   l    n(q)    QCUT    max X(q) W(low)/X(q) W(high)/X(q)  e(spline)
   0     11    12.514    11.817    0.25E-04    0.32E-05    0.87E-07
   0     11    12.514     8.461    0.39E-04    0.59E-05    0.18E-06
   1     11    12.514     3.957    0.97E-05    0.57E-05    0.28E-07
   1     11    12.514     4.314    0.42E-04    0.14E-04    0.23E-06
   2     10    12.514    14.565    0.79E-04    0.50E-03    0.16E-05
   2     10    12.514    14.552    0.75E-04    0.48E-03    0.15E-05
 Optimization of the real space projectors (new method)

[...]

   l    n(q)    QCUT    max X(q) W(low)/X(q) W(high)/X(q)  e(spline)
   0      9    12.501   159.560    0.10E-03    0.83E-04    0.71E-07
   0      9    12.501   115.863    0.99E-04    0.81E-04    0.70E-07
   1      8    12.501    88.339    0.20E-03    0.25E-03    0.76E-07
   1      8    12.501    48.592    0.20E-03    0.24E-03    0.75E-07
 Optimization of the real space projectors (new method)

 maximal supplied QI-value         = 24.76
 optimisation between [QCUT,QGAM] = [ 12.38, 25.00] = [ 42.90,175.06] Ry
 Optimized for a Real-space Cutoff    1.16 Angstroem

   l    n(q)    QCUT    max X(q) W(low)/X(q) W(high)/X(q)  e(spline)
   0      9    12.378    20.381    0.16E-03    0.67E-05    0.31E-06
   0      9    12.378    15.268    0.17E-03    0.81E-05    0.33E-06
   1      8    12.378     5.964    0.20E-03    0.16E-03    0.30E-06
   1      8    12.378     5.382    0.18E-03    0.14E-03    0.26E-06
  PAW_PBE Ca_sv 06Sep2000               :
  PAW_PBE Si 05Jan2001                  :
  PAW_PBE O 08Apr2002                   :

 POSCAR: Ca Si  O
  positions in direct lattice
 exchange correlation table for  LEXCH =        8
   RHO(1)=    0.500       N(1)  =     2000
   RHO(2)=  100.500       N(2)  =     4000

 ion  position               nearest neighbor table
   1  0.023  0.407  0.653- 107 1.98 127 2.05  96 2.05 134 2.56  36 2.57  50 3.05
   2  0.603  0.718  0.345- 110 2.06 113 2.29  71 2.36  82 2.42  34 3.08  19 3.11
   3  0.295  0.351  0.189-  64 2.33  72 2.37  76 2.45  86 2.47  56 2.50  28 2.81  12 2.82
   4  0.399  0.570  0.910-  84 2.02 101 2.11  76 2.34  67 2.39 106 2.47  37 2.86
   5  0.832  0.041  0.613-  91 2.17 102 2.20  81 2.40  85 2.40 119 2.49  20 2.64  42 2.72
   6  0.469  0.331  0.960-  69 1.97 101 2.22  76 2.25  48 3.06
   7  0.522  0.182  0.216-  87 2.06  70 2.32  57 2.32  46 3.06  53 3.15
   8  0.547  0.163  0.709-  99 1.89 128 2.11  90 2.12
   9  0.060  0.850  0.207-  79 2.28 129 2.33  75 2.44  89 2.51  47 2.93
  10  0.647  0.849  0.802- 100 2.08  83 2.10  92 2.14  93 2.23  39 2.59  54 3.16
  11  0.240  0.755  0.474- 118 2.29  61 2.44  51 2.90  30 3.14
  12  0.172  0.427  0.361- 134 2.07  86 2.17  64 2.36   3 2.82
  13  0.055  0.708  0.990-  75 2.18 121 2.43  37 2.82
  14  0.002  0.173  0.867- 116 2.29  81 2.40  96 2.53
  15  0.278  0.883  0.988- 129 2.27 132 2.37  55 2.47  35 2.76  47 3.15
  16  0.330  0.032  0.646- 128 1.97 120 2.26  55 2.34  35 2.70  49 2.92
  17  0.260  0.096  0.263-  72 1.93  79 1.94  78 2.09  46 3.12
  18  0.533  0.885  0.045- 123 2.02  87 2.32  92 2.44  53 3.02  31 3.16
  19  0.757  0.685  0.153-  74 2.15 113 2.46  39 3.00  34 3.10   2 3.11
  20  0.837  0.870  0.489-  85 2.38 119 2.48 102 2.49 113 2.57   5 2.64
  21  0.731  0.396  0.677-  77 2.16  90 2.40 127 2.55  26 3.13
  22  0.908  0.163  0.272-  60 1.86 103 2.07 102 2.54  42 2.85  33 3.03
  23  0.149  0.397  0.945- 124 2.04  96 2.21 130 2.56  36 2.67
  24  0.739  0.354  0.209- 115 1.99  60 2.14 133 2.38 103 2.42
  25  0.197  0.754  0.751- 106 2.31  88 2.54 114 2.56  44 3.01
  26  0.756  0.644  0.695-  83 2.16 100 2.34  21 3.13
  27  0.453  0.936  0.352-  71 2.07  78 2.21  32 3.06
  28  0.453  0.510  0.171-  56 1.62  76 1.67  57 1.99 110 2.04  67 2.32  38 2.42   3 2.81  31 2.95

  29  0.751  0.426  0.928-  77 1.66 133 1.68  59 1.74  65 1.95  36 3.03  41 3.05
  30  0.041  0.605  0.492- 134 1.52  58 1.58  80 1.58 105 2.15  34 3.08  11 3.14
  31  0.394  0.736  0.193- 123 1.56  61 1.62  67 1.73 110 2.31  89 2.47  37 2.69  28 2.95  18 3.16

[...]

  47  0.096  0.036  0.069- 129 1.53 116 1.59  95 1.66  79 1.77   9 2.93  15 3.15
  48  0.307  0.150  0.994-  69 1.64 132 1.65  95 1.77  72 1.87  35 2.91   6 3.06
  49  0.258  0.252  0.624-  97 1.53 125 1.70  98 1.70 122 1.71  50 2.81  16 2.92  46 3.11
  50  0.051  0.173  0.594-  81 1.78 107 1.82 104 1.84 125 1.85 122 2.33  49 2.81   1 3.05
  51  0.125  0.956  0.482-  94 1.63 104 1.68 118 1.78  88 1.99  11 2.90  44 2.96
  52  0.831  0.983  0.033- 112 1.59 109 1.70  66 1.72  93 1.91  39 2.63  53 3.03
  53  0.673  0.981  0.216-  82 1.58  63 1.63  87 1.81 109 1.92  18 3.02  52 3.03   7 3.15
  54  0.463  0.738  0.671- 135 1.63 100 1.67 106 1.69 126 1.70  32 2.97  43 2.99  10 3.16
  55  0.307  0.925  0.797-  35 1.61  16 2.34  15 2.47
  56  0.409  0.480  0.289-  28 1.62  38 1.62   3 2.50
  57  0.515  0.367  0.202-  38 1.71  28 1.99   7 2.32
  58  0.930  0.661  0.469-  30 1.58  34 1.85
  59  0.880  0.478  0.923-  36 1.55  29 1.74
  60  0.900  0.297  0.209-  33 1.73  22 1.86  24 2.14
  61  0.340  0.723  0.310-  31 1.62  11 2.44
  62  0.301  0.549  0.466-  43 1.66
  63  0.692  0.047  0.327-  53 1.63  42 1.92
  64  0.298  0.287  0.363-  46 1.58   3 2.33  12 2.36
  65  0.792  0.287  0.873-  41 1.75  29 1.95
  66  0.895  0.865  0.003-  52 1.72  39 1.75
  67  0.400  0.660  0.078-  31 1.73  37 1.90  28 2.32   4 2.39
  68  0.898  0.531  0.300-  34 1.74  45 1.85
  69  0.330  0.264  0.933-  48 1.64   6 1.97
  70  0.505  0.280  0.373-  46 1.59  38 1.80   7 2.32
  71  0.543  0.853  0.462-  32 1.64  27 2.07   2 2.36
  72  0.321  0.170  0.142-  48 1.87  17 1.93   3 2.37
  73  0.015  0.480  0.157-  33 1.70  45 1.75
  74  0.705  0.721  0.994-  39 1.55  19 2.15
  75  0.974  0.688  0.143-  45 1.63  13 2.18   9 2.44
  76  0.396  0.460  0.061-  28 1.67   6 2.25   4 2.34   3 2.45
  77  0.676  0.466  0.826-  29 1.66  21 2.16
  78  0.394  0.102  0.363-  46 1.80  17 2.09  27 2.21
  79  0.153  0.007  0.195-  47 1.77  17 1.94   9 2.28
  80  0.095  0.662  0.591-  30 1.58
  81  0.998  0.088  0.696-  50 1.78  44 1.96   5 2.40  14 2.40
  82  0.654  0.857  0.220-  53 1.58   2 2.42
  83  0.790  0.762  0.815-  39 1.67  10 2.10  26 2.16
  84  0.262  0.650  0.939-  37 1.69   4 2.02
  85  0.971  0.908  0.618-  44 1.56  20 2.38   5 2.40
  86  0.112  0.308  0.250-  33 1.70  12 2.17   3 2.47
  87  0.548  0.029  0.161-  53 1.81   7 2.06  18 2.32
  88  0.150  0.912  0.633-  44 1.57  51 1.99  25 2.54
  89  0.204  0.725  0.146-  37 1.59  31 2.47   9 2.51
  90  0.552  0.333  0.699-  40 1.56   8 2.12  21 2.40
  91  0.717  0.154  0.550-  42 1.51   5 2.17
  92  0.503  0.924  0.857-  35 1.57  10 2.14  18 2.44
  93  0.721  0.918  0.950-  39 1.74  52 1.91  10 2.23
  94  0.055  0.860  0.428-  51 1.63
  95  0.184  0.082  0.982-  47 1.66  48 1.77
  96  0.041  0.363  0.810-  36 1.60   1 2.05  23 2.21  14 2.53
  97  0.330  0.339  0.672-  49 1.53  40 1.73
  98  0.350  0.208  0.534-  46 1.59  49 1.70
  99  0.627  0.152  0.836-  41 1.65   8 1.89
 100  0.588  0.721  0.715-  54 1.67  10 2.08  26 2.34
 101  0.419  0.428  0.821-  40 1.61   4 2.11   6 2.22
 102  0.859  0.062  0.440-  42 1.64   5 2.20  20 2.49  22 2.54
 103  0.781  0.231  0.352-  42 1.61  22 2.07  24 2.42
 104  0.070  0.078  0.483-  51 1.68  50 1.84
 105  0.082  0.637  0.329-  45 1.60  30 2.15
 106  0.370  0.688  0.755-  54 1.69  25 2.31   4 2.47
[...]
 121  0.054  0.567  0.857-  36 1.63  13 2.43
 122  0.191  0.177  0.717-  49 1.71  50 2.33
 123  0.421  0.852  0.156-  31 1.56  18 2.02
 124  0.036  0.319  0.034-  33 1.60  23 2.04
 125  0.147  0.274  0.548-  49 1.70  50 1.85
 126  0.444  0.694  0.544-  43 1.68  54 1.70
 127  0.904  0.489  0.729-  36 1.71   1 2.05  21 2.55
 128  0.398  0.110  0.765-  35 1.74  16 1.97   8 2.11
 129  0.109  0.918  0.041-  47 1.53  15 2.27   9 2.33
 130  0.188  0.520  0.102-  37 1.65  23 2.56
 131  0.735  0.605  0.476-  34 1.61
 132  0.380  0.042  0.976-  48 1.65  35 1.74  15 2.37
 133  0.721  0.462  0.054-  29 1.68  24 2.38
 134  0.064  0.488  0.470-  30 1.52  12 2.07   1 2.56
 135  0.464  0.866  0.649-  54 1.63  32 1.78

IMPORTANT INFORMATION: All symmetrisations will be switched off!
NOSYMM: (Re-)initialisation of all symmetry stuff for point group C_1.

Automatic generation of k-mesh.
 generate k-points for:    2    2    2
Space group operators:
 irot       det(A)        alpha          n_x          n_y          n_z        tau_x        tau_y        tau_z
    1     1.000000     0.000001     1.000000     0.000000     0.000000     0.000000     0.000000     0.000000

 Subroutine IBZKPT returns following result:

 Found      8 irreducible k-points:

 Following reciprocal coordinates:
            Coordinates               Weight
  0.000000  0.000000  0.000000      1.000000
  0.500000  0.000000  0.000000      1.000000
  0.000000  0.500000  0.000000      1.000000
  0.500000  0.500000  0.000000      1.000000
  0.000000  0.000000  0.500000      1.000000
  0.500000  0.000000  0.500000      1.000000
  0.000000  0.500000  0.500000      1.000000
  0.500000  0.500000  0.500000      1.000000

 Following cartesian coordinates:
            Coordinates               Weight
  0.000000  0.000000  0.000000      1.000000
  0.039917  0.000000  0.000000      1.000000
  0.000000  0.039917  0.000000      1.000000
  0.039917  0.039917  0.000000      1.000000
  0.000000  0.000000  0.039917      1.000000
  0.039917  0.000000  0.039917      1.000000
  0.000000  0.039917  0.039917      1.000000
  0.039917  0.039917  0.039917      1.000000

 SYSTEM =  unknown system
 POSCAR =  Ca Si  O

 Startparameter for this run:
   NWRITE =      2    write-flag & timer
   PREC   = a         normal or accurate (medium, high low for compatibility)
   ISTART =      0    job   : 0-new  1-cont  2-samecut
   ICHARG =      2    charge: 1-file 2-atom 10-const
   ISPIN  =      1    spin polarized calculation?
   LNONCOLLINEAR =      F non collinear calculations
   LSORBIT =      F    spin-orbit coupling
   INIWAV =      1    electr: 0-lowe 1-rand  2-diag
   LASPH  =      F    aspherical Exc in radial PAW
   METAGGA=      F    non-selfconsistent MetaGGA calc.

 Electronic Relaxation 1
   ENCUT  =  600.0 eV  44.10 Ry    6.64 a.u.  25.02 25.02 25.02*2*pi/ulx,y,z
   ENINI  =  600.0     initial cutoff
[...]
     0.000000000  0.000000000 12.526070000     0.000000000  0.000000000  0.079833499

  length of vectors
    12.526070000 12.526070000 12.526070000     0.079833499  0.079833499  0.079833499

 FORCES acting on ions
    electron-ion (+dipol)            ewald-force                    non-local-force                 convergence-correction
   -.533E+02 -.179E+03 0.217E+03   0.509E+02 0.177E+03 -.219E+03   0.538E+01 0.384E+01 -.238E+01   -.315E-02 0.550E-03 0.223E-02
   -.442E+02 0.993E+02 -.157E+03   0.469E+02 -.986E+02 0.159E+03   -.223E+01 -.246E+00 0.756E+00   0.165E-02 0.225E-02 -.162E-02
   0.109E+03 -.217E+02 0.904E+02   -.109E+03 0.174E+02 -.887E+02   -.536E+00 0.322E+01 -.200E+01   -.581E-03 -.547E-03 0.422E-03
   -.219E+03 -.479E+02 0.171E+03   0.218E+03 0.470E+02 -.176E+03   0.423E+01 0.152E+01 0.276E+01   0.239E-02 0.141E-02 -.735E-03
   0.509E+02 -.658E+02 -.252E+03   -.492E+02 0.703E+02 0.251E+03   -.106E+01 -.305E+01 0.366E+01   0.653E-04 -.857E-03 0.167E-02
   -.288E+03 0.141E+02 0.371E+02   0.286E+03 -.117E+02 -.404E+02   0.587E+01 -.176E+01 0.295E+01   0.371E-02 -.112E-02 -.101E-03
   -.183E+03 -.531E+01 0.612E+02   0.182E+03 0.386E+01 -.610E+02   0.108E+01 0.229E+01 -.147E+00   0.295E-02 -.542E-03 -.769E-03
   -.212E+03 -.525E+02 0.143E+03   0.211E+03 0.543E+02 -.143E+03   0.910E+00 -.209E+01 -.486E+01   0.208E-02 -.223E-02 0.131E-02
   0.190E+03 -.363E+02 -.200E+03   -.185E+03 0.361E+02 0.200E+03   -.401E+01 -.409E+00 0.200E+01   -.321E-02 0.870E-03 -.229E-02
   -.118E+03 -.390E+02 0.339E+02   0.114E+03 0.384E+02 -.372E+02   0.193E+01 0.269E+01 0.125E+01   0.214E-02 -.169E-03 0.133E-02
   0.558E+02 0.103E+03 -.375E+02   -.552E+02 -.105E+03 0.344E+02   -.268E+00 -.236E+00 0.219E+01   -.201E-02 0.202E-02 0.186E-02
   0.993E+02 -.527E+02 -.134E+03   -.101E+03 0.517E+02 0.140E+03   0.296E+01 0.177E+01 -.450E+01   -.302E-02 -.104E-02 -.317E-03
   0.183E+03 0.974E+01 0.223E+03   -.185E+03 -.126E+02 -.223E+03   0.986E+00 0.258E+01 -.197E+01   -.393E-02 0.191E-02 -.302E-02
   0.118E+03 0.419E+02 0.548E+02   -.118E+03 -.403E+02 -.536E+02   -.257E+00 -.691E+00 -.103E+01   -.358E-02 -.597E-03 0.132E-03
   -.352E+01 0.130E+03 0.411E+01   -.214E+01 -.126E+03 -.526E+01   0.386E+01 -.345E+01 0.120E+01   -.186E-02 0.791E-03 -.264E-02
   0.147E+03 0.340E+02 0.112E+03   -.145E+03 -.357E+02 -.113E+03   -.424E+01 -.699E+00 -.238E+01   0.767E-03 -.181E-02 0.189E-02
   0.221E+03 0.846E+02 -.144E+03   -.220E+03 -.825E+02 0.145E+03   -.193E+01 -.765E+00 0.320E+01   -.235E-03 -.504E-04 0.771E-03
   -.128E+03 0.927E+02 0.124E+03   0.129E+03 -.879E+02 -.122E+03   0.107E+01 -.343E+01 -.389E+01   0.493E-02 0.274E-03 -.271E-02
   -.893E+02 0.129E+03 0.583E+02   0.875E+02 -.129E+03 -.595E+02   0.170E+01 -.144E+01 0.183E+01   0.962E-04 0.180E-02 -.428E-02
   -.898E+01 0.155E+03 0.438E+02   0.127E+02 -.157E+03 -.465E+02   -.242E+01 0.465E+00 0.877E+00   0.607E-03 0.206E-02 0.178E-02
   -.607E+02 0.192E+02 0.286E+03   0.584E+02 -.207E+02 -.280E+03   0.218E+01 -.332E-01 -.661E+01   0.323E-02 -.228E-04 0.400E-02
   -.187E+03 0.148E+03 -.682E+02   0.183E+03 -.145E+03 0.697E+02   0.562E+01 -.728E+01 -.117E+00   -.229E-02 0.207E-04 -.161E-02
   -.116E+03 -.425E+02 0.133E+03   0.112E+03 0.424E+02 -.131E+03   0.635E+01 0.127E+01 -.154E+01   -.512E-02 -.151E-04 -.739E-03
   -.870E+02 -.352E+02 0.359E+02   0.877E+02 0.387E+02 -.349E+02   -.486E+00 -.363E+01 -.246E+01   0.233E-02 -.170E-02 -.246E-02
   0.171E+03 0.212E+03 0.441E+02   -.168E+03 -.211E+03 -.451E+02   -.270E+01 -.127E+01 0.739E+00   -.294E-02 0.292E-02 0.137E-02
   -.124E+03 0.107E+03 0.107E+03   0.123E+03 -.105E+03 -.104E+03   0.151E+01 -.260E+01 -.352E+01   0.232E-02 0.165E-02 0.566E-02
   0.217E+02 0.521E+02 0.412E+02   -.218E+02 -.481E+02 -.357E+02   -.110E+01 -.252E+01 -.543E+01   0.295E-02 0.930E-03 0.148E-02
   -.955E+02 -.956E+02 0.577E+02   0.916E+02 0.868E+02 -.543E+02   0.794E+01 0.906E+01 -.500E+01   0.132E-02 0.831E-05 0.103E-03
   0.244E+02 -.188E+01 -.215E+02   -.266E+02 0.950E+01 0.231E+02   0.401E+01 -.673E+01 -.733E+00   0.102E-02 0.199E-03 -.314E-03
   0.233E+02 -.505E+01 -.495E+02   -.253E+02 0.555E+00 0.555E+02   0.221E+01 0.731E+01 -.676E+01   -.830E-03 0.476E-04 0.521E-03
   -.744E+01 0.432E+02 -.282E+02   0.505E+01 -.347E+02 0.337E+02   0.192E+01 -.110E+02 -.320E+01   0.111E-02 0.240E-03 -.601E-03
   -.641E+02 -.565E+02 -.111E+02   0.637E+02 0.525E+02 0.637E+01   -.574E+01 0.537E+01 0.302E+01   0.226E-03 0.115E-03 0.710E-03
   0.526E+02 0.209E+02 -.252E+02   -.522E+02 -.215E+02 0.229E+02   -.233E+01 0.177E+01 0.462E+01   -.125E-02 -.228E-03 -.563E-03
   -.930E+00 0.992E+02 -.866E+01   -.259E+01 -.948E+02 0.163E+02   0.593E+01 -.256E+01 -.463E+01   0.371E-03 0.207E-03 -.231E-03
   -.355E+02 -.414E+02 -.233E+02   0.357E+02 0.340E+02 0.172E+02   -.313E+00 0.101E+02 0.362E+01   0.443E-03 -.770E-03 -.556E-03
   0.253E+02 -.486E+02 -.759E+01   -.281E+02 0.529E+02 0.606E+01   0.659E+00 -.349E+00 -.138E+01   -.150E-02 0.140E-03 0.162E-03
   -.413E+00 0.177E+02 -.520E+01   -.856E+01 -.184E+02 0.559E+01   0.928E+01 -.153E+01 -.155E+01   -.860E-03 0.350E-03 -.527E-03
   -.812E+02 -.135E+02 -.117E+03   0.881E+02 0.171E+02 0.114E+03   -.518E+00 -.486E+01 0.665E+01   0.605E-03 -.258E-03 -.124E-02
   -.124E+03 0.593E+02 0.192E+02   0.112E+03 -.616E+02 -.207E+02   0.125E+02 0.457E+01 -.108E+01   0.446E-04 0.182E-03 -.769E-03
   -.750E+01 -.426E+02 0.537E+02   0.123E+02 0.427E+02 -.485E+02   -.780E+01 0.150E+01 -.524E+01   0.128E-02 -.337E-03 0.761E-03
   -.576E+02 0.798E+01 0.562E+02   0.466E+02 -.430E+01 -.501E+02   0.122E+02 -.392E+01 -.861E+01   0.114E-02 -.302E-03 0.106E-04
   0.596E+02 -.637E+02 -.646E+01   -.511E+02 0.696E+02 0.121E+02   -.750E+01 -.626E+01 -.119E+02   0.554E-03 -.612E-03 0.109E-03
   -.160E+02 -.781E+01 -.718E+01   0.972E+01 0.169E+01 0.834E+01   0.397E+01 0.326E+01 -.725E+00   0.492E-03 0.682E-03 0.336E-03
   0.895E+02 0.686E+01 -.112E+03   -.873E+02 -.151E+02 0.105E+03   -.300E+01 0.100E+02 0.107E+02   -.827E-03 -.552E-03 0.859E-03
   0.369E+02 0.935E+01 -.967E+01   -.362E+02 -.792E+01 0.125E+02   -.251E+01 -.619E+01 -.276E+01   -.846E-03 -.192E-03 -.515E-03
   -.655E+02 -.253E+02 -.927E+02   0.576E+02 0.263E+02 0.869E+02   0.594E+01 -.609E+01 0.457E+01   -.108E-03 -.855E-03 -.343E-03
   0.847E+02 -.612E+02 -.563E+02   -.858E+02 0.561E+02 0.501E+02   0.298E+01 0.743E+01 0.755E+01   -.150E-02 -.532E-03 -.114E-02
   0.226E+02 -.419E+02 0.185E+02   -.217E+02 0.439E+02 -.189E+02   -.351E+01 -.205E+01 0.353E+01   -.485E-04 -.988E-03 -.653E-03
   0.455E+02 -.490E+02 -.507E+01   -.444E+02 0.527E+02 0.826E+01   -.339E+01 -.558E+01 -.419E+01   -.521E-03 -.124E-02 0.233E-03
   0.353E+02 -.235E+02 0.646E+02   -.385E+02 0.277E+02 -.605E+02   0.338E+01 -.212E+01 -.238E+01   -.115E-02 -.603E-03 0.802E-03
   0.243E+02 -.324E+02 0.450E+02   -.257E+02 0.264E+02 -.497E+02   0.308E+01 0.434E+01 0.638E+01   -.667E-03 -.288E-03 0.109E-02
   -.518E+02 0.211E+02 0.713E+01   0.456E+02 -.145E+02 -.722E+01   0.449E+01 -.600E+01 -.368E+00   -.328E-03 -.376E-03 -.111E-02
   -.816E+02 -.299E+02 0.309E+02   0.764E+02 0.241E+02 -.238E+02   0.508E+01 0.860E+01 -.643E+01   0.898E-03 -.300E-04 -.456E-03
   0.520E+01 0.881E+02 -.228E+02   -.321E+01 -.860E+02 0.249E+02   -.144E+01 -.401E+01 -.821E+00   0.112E-02 0.148E-02 0.896E-03
   0.915E+02 0.950E+02 0.142E+02   -.112E+03 -.110E+03 -.275E+02   0.196E+02 0.144E+02 0.152E+02   0.236E-03 0.689E-03 -.169E-03
   0.819E+02 -.130E+03 -.100E+03   -.111E+03 0.140E+03 0.124E+03   0.244E+02 -.798E+01 -.250E+02   0.251E-02 -.705E-03 -.216E-02
   -.130E+03 0.966E+01 0.135E+03   0.138E+03 -.220E+02 -.150E+03   -.904E+01 0.123E+02 0.110E+02   0.143E-02 -.396E-05 -.150E-03
   0.665E+02 -.122E+02 -.117E+03   -.811E+02 0.324E+02 0.122E+03   0.117E+02 -.201E+02 -.553E+01   0.173E-03 0.290E-03 0.813E-03
   0.647E+02 -.996E+02 -.914E+02   -.702E+02 0.114E+03 0.114E+03   0.223E+01 -.152E+02 -.194E+02   -.817E-03 0.525E-03 -.141E-02
   0.233E+01 -.915E+02 0.158E+02   -.177E+02 0.935E+02 -.110E+02   0.187E+02 0.246E+01 -.837E+01   -.112E-02 -.118E-02 -.588E-03
[...]
   0.653E+02 -.236E+02 -.103E+03   -.736E+02 0.121E+02 0.125E+03   0.873E+01 0.116E+02 -.252E+02   -.118E-02 -.149E-02 -.208E-03
   0.613E+02 -.353E+02 -.417E+02   -.582E+02 0.648E+02 0.386E+02   -.461E+01 -.282E+02 0.355E+01   0.236E-02 -.216E-03 -.109E-02
   0.110E+03 0.664E+02 0.187E+02   -.115E+03 -.753E+02 -.422E+02   0.471E+01 0.802E+01 0.232E+02   -.198E-02 0.396E-03 -.478E-03
   0.829E+02 -.865E+02 0.101E+03   -.901E+02 0.101E+03 -.123E+03   0.627E+01 -.158E+02 0.222E+02   -.193E-02 -.760E-03 0.136E-02
   -.255E+02 0.399E+02 0.287E+02   0.275E+02 -.214E+02 -.448E+02   -.240E+01 -.191E+02 0.157E+02   0.793E-03 0.184E-02 0.153E-02
   0.107E+03 -.150E+03 0.108E+03   -.118E+03 0.158E+03 -.121E+03   0.905E+01 -.717E+01 0.121E+02   -.129E-03 0.217E-03 0.188E-02
   -.172E+01 -.140E+03 -.960E+02   -.270E+01 0.161E+03 0.909E+02   0.568E+01 -.229E+02 0.973E+01   0.863E-03 -.257E-02 -.947E-03
   0.125E+03 0.756E+02 0.685E+02   -.124E+03 -.102E+03 -.800E+02   -.189E+01 0.201E+02 0.101E+02   -.199E-02 0.128E-03 -.161E-02
   0.575E+02 0.237E+02 -.176E+02   -.750E+02 -.436E+02 0.265E+02   0.200E+02 0.208E+02 -.961E+01   -.159E-02 0.513E-03 -.902E-03
   0.290E+02 0.136E+03 -.142E+03   -.491E+02 -.139E+03 0.162E+03   0.194E+02 0.111E+01 -.190E+02   0.199E-02 0.901E-03 -.318E-03
   -.977E+02 -.446E+02 -.505E+02   0.112E+03 0.336E+02 0.672E+02   -.134E+02 0.104E+02 -.176E+02   0.785E-04 -.873E-03 -.172E-02
   0.133E+02 -.871E+02 0.128E+02   -.188E+02 0.964E+02 0.902E+01   0.533E+01 -.105E+02 -.241E+02   0.147E-02 0.406E-04 -.210E-02
   0.117E+03 0.930E+02 -.918E+02   -.114E+03 -.124E+03 0.868E+02   -.368E+01 0.280E+02 0.629E+01   -.106E-02 0.481E-03 0.247E-04
   0.187E+02 0.200E+02 -.131E+02   -.333E+02 -.875E+00 0.190E+02   0.153E+02 -.175E+02 -.604E+01   0.137E-02 0.767E-03 0.124E-02
   -.153E+03 0.450E+02 0.805E+02   0.540E-12 0.866E-12 0.682E-12   0.153E+03 -.450E+02 -.805E+02   0.438E-02 -.257E-02 -.871E-02

 POSITION                                       TOTAL-FORCE (eV/Angst)
      0.28379      5.09645      8.18044         2.978383      1.657797     -4.638229
      7.54917      8.99928      4.32178         0.472930      0.404466      3.125324
      3.69838      4.39844      2.36423        -0.457422     -1.115090     -0.326389
      4.99377      7.13641     11.40039         2.513619      0.572195     -2.277235
     10.41944      0.50845      7.67559         0.622990      1.386862      2.336736
      5.87388      4.14708     12.03110         4.076464      0.610800     -0.282430
      6.54192      2.27736      2.70806        -0.191963      0.839027      0.106094
      6.85240      2.04723      8.88121        -0.895586     -0.259716     -4.913838
      0.74905     10.65118      2.59184         0.808167     -0.676737      1.328520
      8.10725     10.64047     10.05038        -1.857907      2.118289     -2.021853
      3.00487      9.46068      5.93843         0.284631     -1.584826     -0.883680
      2.15783      5.35443      4.52437         0.888189      0.727695      1.809222
      0.69398      8.86974     12.40695        -0.472273     -0.268634     -1.332909
      0.03077      2.16143     10.86570        -0.007376      0.969809      0.140153
      3.48369     11.05689     12.37143        -1.807652      0.142238      0.051580
      4.13399      0.40241      8.09315        -2.019842     -2.407259     -3.686337
      3.25765      1.20408      3.29265        -0.703521      1.264331      4.663497
      6.68057     11.09149      0.56488         2.832763      1.390481     -1.300073
      9.48012      8.57854      1.92262        -0.079711     -1.069637      0.606266
     10.48647     10.89957      6.12017         1.349592     -2.008075     -1.808287
      9.15290      4.96338      8.48111        -0.055524     -1.495404      0.226414
     11.37915      2.04006      3.40632         1.549353     -4.863372      1.400684
      1.86206      4.96700     11.83801         2.330646      1.096001      0.045568
      9.25599      4.43690      2.61490         0.187635     -0.097657     -1.455631
      2.47016      9.44457      9.40691         0.313145     -0.301464     -0.295675
      9.47550      8.06442      8.70268        -0.102782     -0.598689     -0.239335
      5.67715     11.72454      4.40693        -1.197121      1.420096      0.054729
      5.67390      6.38303      2.14561         4.069135      0.232234     -1.609005
      9.40766      5.33886     11.62316         1.801488      0.885093      0.864334
      0.50799      7.57646      6.16512         0.239256      2.812624     -0.738280
      4.94093      9.22363      2.42305        -0.467164     -2.575541      2.262626
      7.07488     11.60018      7.12504        -6.109645      1.308604     -1.744087
      0.24255      4.31557      1.97729        -1.902238      1.216662      2.390422
     10.29157      7.68216      4.77356         2.412453      1.805717      3.024901
      5.03472     12.49801     10.60045        -0.115516      2.680127     -2.408565
     12.20067      5.83341     10.56839        -2.070931      3.931873     -2.919766
      3.14017      7.92166      0.90748         0.297957     -2.274162     -1.155593
      6.44033      5.21561      4.12115         6.386052     -1.204855      3.793416
      9.87661      9.98394     11.82923         0.395516      2.265336     -2.602048
      5.62447      5.04794      8.75082        -3.036390      1.573575     -0.050483
      8.94162      2.32314     11.64903         1.196320     -0.232417     -2.555429
      9.41897      1.72464      5.45652         1.061946     -0.331364     -6.214807
      5.31597      7.09018      6.38393        -2.307243     -2.859347      0.444107
      0.65735     11.78806      8.85248        -0.798092      1.731102      3.755145
      0.11539      7.50154      2.89698        -1.891184     -4.764332      0.027456
      4.97388      2.92967      5.25267        -1.959899     -5.088175     -1.218346
      1.20203      0.44900      0.86717         1.803102      2.326665      1.369698
      3.85111      1.88416     12.45288        -2.627056     -0.113700      3.134709
      3.23065      3.16251      7.81775        -2.283800     -1.926309     -0.993958
      0.63668      2.16102      7.44398         0.208405      2.083290      1.714914
      1.56893     11.97261      6.04185         1.710166     -1.616859      1.699472
     10.40875     12.30891      0.40995        -1.694967      0.656826     -0.460348
      8.43254     12.28672      2.71165        -0.167179      2.824134      0.709380
      5.79668      9.24184      8.40703         0.549771     -1.907600      1.251033
      3.85163     11.59123      9.98875        -0.704979     -0.585939      1.858544
      5.12059      6.01816      3.62293        -4.432233      2.566524     -1.092058
      6.45143      4.59357      2.52894        -1.504703     -0.064896     -3.622777
     11.64837      8.27986      5.88043        -2.856617      0.147981     -0.711610
     11.02300      5.99330     11.55648        -3.285216     -0.822403      2.906098
     11.27125      3.71890      2.61862         3.333298      4.399782     -3.637960
[...]
      0.67883      7.10829     10.73735         0.927342      0.142890      1.407842
      2.39450      2.22031      8.97670         0.436081      0.076651     -2.669488
      5.27580     10.66672      1.94800        -1.576672      1.347750      0.384285
      0.45566      3.99294      0.42856         0.468912     -0.927227     -0.322444
      1.84668      3.43263      6.86990        -0.859965     -0.791371      0.489733
      5.56373      8.69158      6.82036        -0.386137     -0.598592     -0.385632
     11.32052      6.12932      9.13476        -2.073373      0.826117     -0.588631
      4.98061      1.37869      9.57967         1.261746     -1.352251      4.646655
      1.35941     11.49973      0.50959        -0.881265     -6.566777     -1.389179
      2.35967      6.51883      1.28046         2.568337      0.807989     -0.699334
      9.20963      7.57543      5.96309        -0.684965     -1.148996      0.708237
      4.75566      0.52712     12.22240         0.980659     -0.535222     -0.881680
      9.03040      5.79244      0.67469        -0.234490     -1.168436     -2.299563
      0.79638      6.11239      5.88301        -0.730821     -3.277695      1.270746
      5.81832     10.84784      8.13348         0.661441      1.557706     -0.197091
    total drift:                                0.019242     -0.015206     -0.002899

  FREE ENERGIE OF THE ION-ELECTRON SYSTEM (eV)
  free  energy   TOTEN  =      -930.83076174 eV

  energy  without entropy=     -930.83076174  energy(sigma->0) =     -930.83076174