 vasp.5.4.4.18Apr17-6-g9f103f2a35 (build Oct 31 2019 15:01:46) complex

 executed on             LinuxIFC date 2024.04.29  22:04:42

 INCAR:
 POTCAR:    PAW_PBE Ca_sv 06Sep2000
 POTCAR:    PAW_PBE Si 05Jan2001
 POTCAR:    PAW_PBE O 08Apr2002
 POTCAR:    PAW_PBE Ca_sv 06Sep2000
   VRHFIN =Ca: 3s3p4s

   TITEL  = PAW_PBE Ca_sv 06Sep2000
   POMASS =   40.078; ZVAL   =   10.000    mass and valenz
   ENMAX  =  266.622; ENMIN  =  199.967 eV

   TITEL  = PAW_PBE Si 05Jan2001
   POMASS =   28.085; ZVAL   =    4.000    mass and valenz
   ENMAX  =  245.345; ENMIN  =  184.009 eV

   TITEL  = PAW_PBE O 08Apr2002
   POMASS =   16.000; ZVAL   =    6.000    mass and valenz
   ENMAX  =  400.000; ENMIN  =  300.000 eV

 Optimization of the real space projectors (new method)

 maximal supplied QI-value         = 16.25
 optimisation between [QCUT,QGAM] = [ 12.51, 25.03] = [ 43.85,175.40] Ry
 Optimized for a Real-space Cutoff    1.47 Angstroem

   l    n(q)    QCUT    max X(q) W(low)/X(q) W(high)/X(q)  e(spline)
   0     11    12.514    11.817    0.25E-04    0.32E-05    0.87E-07
   0     11    12.514     8.461    0.39E-04    0.59E-05    0.18E-06
   1     11    12.514     3.957    0.97E-05    0.57E-05    0.28E-07
   1     11    12.514     4.314    0.42E-04    0.14E-04    0.23E-06
   2     10    12.514    14.565    0.79E-04    0.50E-03    0.16E-05
   2     10    12.514    14.552    0.75E-04    0.48E-03    0.15E-05
 Optimization of the real space projectors (new method)

[...]

   l    n(q)    QCUT    max X(q) W(low)/X(q) W(high)/X(q)  e(spline)
   0      9    12.501   159.560    0.10E-03    0.83E-04    0.71E-07
   0      9    12.501   115.863    0.99E-04    0.81E-04    0.70E-07
   1      8    12.501    88.339    0.20E-03    0.25E-03    0.76E-07
   1      8    12.501    48.592    0.20E-03    0.24E-03    0.75E-07
 Optimization of the real space projectors (new method)

 maximal supplied QI-value         = 24.76
 optimisation between [QCUT,QGAM] = [ 12.38, 25.00] = [ 42.90,175.06] Ry
 Optimized for a Real-space Cutoff    1.16 Angstroem

   l    n(q)    QCUT    max X(q) W(low)/X(q) W(high)/X(q)  e(spline)
   0      9    12.378    20.381    0.16E-03    0.67E-05    0.31E-06
   0      9    12.378    15.268    0.17E-03    0.81E-05    0.33E-06
   1      8    12.378     5.964    0.20E-03    0.16E-03    0.30E-06
   1      8    12.378     5.382    0.18E-03    0.14E-03    0.26E-06
  PAW_PBE Ca_sv 06Sep2000               :
  PAW_PBE Si 05Jan2001                  :
  PAW_PBE O 08Apr2002                   :

 POSCAR: Ca Si  O
  positions in direct lattice
 exchange correlation table for  LEXCH =        8
   RHO(1)=    0.500       N(1)  =     2000
   RHO(2)=  100.500       N(2)  =     4000

 ion  position               nearest neighbor table
   1  0.434  0.906  0.854- 130 2.01  91 2.07  55 2.35 113 2.40  75 2.42  41 2.64  12 3.00
   2  0.197  0.587  0.159-  88 2.06  82 2.15  34 2.82  37 3.07
   3  0.737  0.012  0.707- 126 2.18  41 2.92  47 3.10
   4  0.872  0.369  0.109- 116 1.99 119 2.08  69 2.10  81 2.39  20 3.05
   5  0.945  0.823  0.325- 120 2.01 114 2.38  89 2.42  38 2.96
   6  0.294  0.643  0.912- 100 2.22  65 2.36 130 2.38 107 2.44  62 2.57  44 2.64
   7  0.194  0.069  0.429- 122 2.44 135 2.48  30 2.96
   8  0.942  0.776  0.617- 114 1.79  68 2.22 111 2.35  93 2.57  47 3.06
   9  0.694  0.778  0.255-  85 2.23 104 2.26 117 2.30 120 2.46 134 2.52  24 2.94
  10  0.904  0.189  0.350-  70 2.10  46 2.91
  11  0.053  0.161  0.786- 128 2.26 126 2.32  40 2.41
  12  0.271  0.022  0.985-  55 2.21  72 2.48  91 2.54   1 3.00  48 3.09
  13  0.768  0.224  0.891- 116 1.95 125 1.97  42 2.44  54 2.96  21 3.09
  14  0.419  0.392  0.114- 118 2.20  78 2.28  86 2.50  48 3.15
  15  0.672  0.948  0.028-  97 2.17 104 2.31  99 2.42 113 2.47  42 2.82  46 3.05
  16  0.580  0.339  0.680- 110 1.89  58 2.03 115 2.16  77 2.47  31 3.01
  17  0.407  0.272  0.423- 106 2.19  59 2.21 105 2.27 122 2.44
  18  0.297  0.777  0.662-  90 2.14  61 2.23 111 2.54  49 2.67
  19  0.473  0.878  0.428-  98 2.17  60 2.22  56 2.37
  20  0.960  0.500  0.296-  81 2.08  87 2.14  82 2.31  95 2.41  28 2.84   4 3.05  25 3.06
  21  0.839  0.452  0.829-  76 1.91  66 2.36  69 2.37  63 2.43  54 2.98  13 3.09
  22  0.688  0.400  0.335-  81 1.91  79 1.97 123 2.08  36 3.13
  23  0.685  0.169  0.487-  58 1.90 102 2.05  59 2.50  50 3.13
  24  0.695  0.581  0.128- 129 2.13 118 2.32  85 2.39  81 2.55  54 2.88   9 2.94  51 2.96
  25  0.181  0.418  0.362- 105 2.15  64 2.20 121 2.20  87 2.41  30 2.86  20 3.06
  26  0.721  0.626  0.633-  63 2.23 127 2.28  68 2.49  74 2.56
  27  0.188  0.859  0.219-  89 2.14  71 2.32  94 2.40 132 2.44  72 2.46  43 2.88
  28  0.964  0.515  0.523-  68 1.49 103 1.57  95 1.69  87 1.82  50 2.71  20 2.84  52 3.05
  29  0.449  0.717  0.188- 132 1.56  85 1.57  88 1.72  56 1.75  98 2.45  32 2.50  39 3.13
  30  0.197  0.221  0.248-  84 1.44  64 1.64 121 1.66 122 1.74  37 2.65  43 2.85  25 2.86   7 2.96

  31  0.368  0.447  0.710- 110 1.43  92 1.50 124 1.73  62 1.77  35 2.75  44 2.85  16 3.01  53 3.04

[...]

  42  0.850  0.081  0.997- 125 1.52  99 1.54  80 1.68  13 2.44  15 2.82  46 3.05
  43  0.063  0.049  0.183-  83 1.62  84 1.63  89 1.74  70 1.94  30 2.85  27 2.88
  44  0.482  0.609  0.824-  62 1.39  74 1.63  65 1.68 130 1.87   6 2.64  31 2.85  51 3.03
  45  0.897  0.719  0.882- 109 1.52  93 1.54  76 1.60  96 1.77  51 2.59  38 2.85
  46  0.784  0.034  0.227-  73 1.51 104 1.70  70 1.74  80 1.97  36 2.82  10 2.91  42 3.05  15 3.05

  47  0.767  0.892  0.493- 120 1.55 131 1.81 127 1.83  60 1.91   8 3.06   3 3.10
  48  0.470  0.160  0.032-  78 1.54  67 1.79  55 1.93  57 1.95  12 3.09  14 3.15
  49  0.145  0.818  0.806- 107 1.59 111 1.59  96 1.75 112 2.02  18 2.67
  50  0.824  0.357  0.574-  63 1.62  95 1.87 102 1.99  58 1.99 103 2.21  66 2.39  28 2.71  40 2.83
                            23 3.13
  51  0.697  0.677  0.912-  97 1.62 129 1.75  74 1.86 109 2.22  45 2.59  24 2.96  44 3.03
  52  0.118  0.690  0.452-  90 1.58  71 1.64 114 1.80  87 1.87  28 3.05
  53  0.217  0.378  0.888- 124 1.55 108 1.57  86 1.75 101 1.83  34 2.67  37 2.91  31 3.04
  54  0.656  0.414  0.975-  77 1.51 118 1.62 116 1.74 129 1.79  24 2.88  13 2.96  21 2.98
  55  0.445  0.009  0.010-  48 1.93  12 2.21  32 2.26   1 2.35
  56  0.450  0.719  0.328-  29 1.75  39 1.99  19 2.37
  57  0.559  0.182  0.906-  48 1.95  41 2.06
  58  0.675  0.304  0.554-  23 1.90  50 1.99  16 2.03
  59  0.488  0.138  0.505-  17 2.21  23 2.50
  60  0.626  0.949  0.481-  47 1.91  19 2.22
  61  0.274  0.926  0.566-  33 1.75  18 2.23
  62  0.403  0.578  0.751-  44 1.39  31 1.77   6 2.57
  63  0.789  0.462  0.641-  50 1.62  26 2.23  21 2.43
  64  0.195  0.344  0.203-  37 1.52  30 1.64  25 2.20
  65  0.456  0.553  0.943-  44 1.68   6 2.36
  66  0.914  0.307  0.735-  40 2.16  21 2.36  50 2.39
  67  0.583  0.181  0.117-  36 1.61  48 1.79
  68  0.912  0.605  0.580-  28 1.49   8 2.22  26 2.49
  69  0.929  0.476  0.994-  34 1.94   4 2.10  21 2.37
  70  0.917  0.073  0.230-  46 1.74  43 1.94  10 2.10
  71  0.190  0.730  0.351-  52 1.64  27 2.32
  72  0.320  0.998  0.176-  32 1.78  27 2.46  12 2.48
  73  0.696  0.075  0.299-  46 1.51  36 1.82
  74  0.610  0.623  0.804-  44 1.63  51 1.86  26 2.56
  75  0.469  0.926  0.665-  33 1.91   1 2.42  41 2.52
  76  0.886  0.594  0.860-  45 1.60  21 1.91
  77  0.614  0.364  0.873-  54 1.51  16 2.47
  78  0.373  0.235  0.034-  48 1.54  14 2.28
  79  0.720  0.256  0.280-  36 1.71  22 1.97
  80  0.772  0.123  0.097-  42 1.68  46 1.97
  81  0.802  0.466  0.258-  22 1.91  20 2.08   4 2.39  24 2.55
  82  0.068  0.475  0.149-  37 1.75  34 2.12   2 2.15  20 2.31
  83  0.033  0.974  0.081-  43 1.62
  84  0.156  0.139  0.177-  30 1.44  43 1.63
  85  0.567  0.722  0.145-  29 1.57   9 2.23  24 2.39
  86  0.246  0.423  0.017-  53 1.75  37 1.98  34 2.39  14 2.50
  87  0.061  0.555  0.422-  28 1.82  52 1.87  20 2.14  25 2.41
  88  0.358  0.619  0.159-  29 1.72   2 2.06
  89  0.074  0.963  0.293-  43 1.74  27 2.14   5 2.42
  90  0.199  0.695  0.549-  52 1.58  18 2.14  35 2.31
  91  0.400  0.067  0.836-  41 1.75   1 2.07  12 2.54
  92  0.299  0.493  0.624-  31 1.50  35 1.51
  93  0.838  0.780  0.794-  45 1.54   8 2.57
  94  0.062  0.748  0.126-  38 1.60  27 2.40
  95  0.881  0.430  0.457-  28 1.69  50 1.87  20 2.41
  96  0.029  0.769  0.866-  49 1.75  45 1.77
  97  0.660  0.783  0.975-  51 1.62  15 2.17
  98  0.514  0.888  0.260-  32 1.61  19 2.17  29 2.45
  99  0.803  0.016  0.904-  42 1.54  15 2.42
 100  0.125  0.621  0.961-  34 1.52   6 2.22
 101  0.110  0.468  0.843-  53 1.83  34 1.87
 102  0.834  0.201  0.546-  40 1.73  50 1.99  23 2.05
 103  0.986  0.422  0.603-  28 1.57  50 2.21
 104  0.783  0.910  0.170-  46 1.70   9 2.26  15 2.31
 105  0.317  0.423  0.466-  35 1.89  25 2.15  17 2.27
 106  0.522  0.208  0.308-  36 1.46  17 2.19
 107  0.245  0.829  0.882-  49 1.59   6 2.44
 108  0.165  0.269  0.921-  53 1.57
 109  0.845  0.734  0.991-  45 1.52  38 1.85  51 2.22
 110  0.441  0.387  0.647-  31 1.43  16 1.89
[...]
 121  0.100  0.266  0.326-  30 1.66  25 2.20
 122  0.309  0.158  0.300-  30 1.74   7 2.44  17 2.44
 123  0.563  0.506  0.308-  39 1.63  22 2.08
 124  0.317  0.372  0.814-  53 1.55  31 1.73
 125  0.908  0.174  0.944-  42 1.52  13 1.97
 126  0.893  0.085  0.733-  40 1.75   3 2.18  11 2.32
 127  0.729  0.806  0.604-  47 1.83  26 2.28
 128  0.052  0.142  0.606-  40 1.50  11 2.26
 129  0.705  0.547  0.961-  51 1.75  54 1.79  24 2.13
 130  0.428  0.748  0.827-  44 1.87   1 2.01   6 2.38
 131  0.871  0.992  0.500-  47 1.81
 132  0.362  0.799  0.155-  29 1.56  32 1.72  27 2.44
 133  0.477  0.578  0.511-  39 1.64  35 1.93
 134  0.864  0.693  0.188-  38 1.49   9 2.52
 135  0.300  0.136  0.582-  33 1.68   7 2.48

IMPORTANT INFORMATION: All symmetrisations will be switched off!
NOSYMM: (Re-)initialisation of all symmetry stuff for point group C_1.

Automatic generation of k-mesh.
 generate k-points for:    2    2    2
Space group operators:
 irot       det(A)        alpha          n_x          n_y          n_z        tau_x        tau_y        tau_z
    1     1.000000     0.000001     1.000000     0.000000     0.000000     0.000000     0.000000     0.000000

 Subroutine IBZKPT returns following result:

 Found      8 irreducible k-points:

 Following reciprocal coordinates:
            Coordinates               Weight
  0.000000  0.000000  0.000000      1.000000
  0.500000  0.000000  0.000000      1.000000
  0.000000  0.500000  0.000000      1.000000
  0.500000  0.500000  0.000000      1.000000
  0.000000  0.000000  0.500000      1.000000
  0.500000  0.000000  0.500000      1.000000
  0.000000  0.500000  0.500000      1.000000
  0.500000  0.500000  0.500000      1.000000

 Following cartesian coordinates:
            Coordinates               Weight
  0.000000  0.000000  0.000000      1.000000
  0.039917  0.000000  0.000000      1.000000
  0.000000  0.039917  0.000000      1.000000
  0.039917  0.039917  0.000000      1.000000
  0.000000  0.000000  0.039917      1.000000
  0.039917  0.000000  0.039917      1.000000
  0.000000  0.039917  0.039917      1.000000
  0.039917  0.039917  0.039917      1.000000

 SYSTEM =  unknown system
 POSCAR =  Ca Si  O

 Startparameter for this run:
[...]
     0.000000000  0.000000000 12.526070000     0.000000000  0.000000000  0.079833499

  length of vectors
    12.526070000 12.526070000 12.526070000     0.079833499  0.079833499  0.079833499

 FORCES acting on ions
    electron-ion (+dipol)            ewald-force                    non-local-force                 convergence-correction
   0.142E+02 0.114E+03 0.641E+02   -.120E+02 -.116E+03 -.671E+02   -.122E+01 0.685E-01 0.328E+01   0.127E-01 -.201E-02 -.526E-03
   -.837E+02 -.117E+03 -.128E+03   0.867E+02 0.121E+03 0.126E+03   -.228E+01 -.101E+01 0.203E+01   0.448E-03 -.292E-02 0.481E-02
   0.154E+02 0.198E+03 0.929E+02   -.121E+02 -.198E+03 -.899E+02   -.298E+01 -.117E+01 -.240E+01   -.511E-02 0.916E-03 -.234E-02
   -.429E+02 0.533E+02 -.898E+02   0.440E+02 -.542E+02 0.864E+02   -.684E+00 0.638E+00 0.514E+01   -.419E-03 0.205E-02 0.136E-02
   -.140E+03 -.258E+02 -.900E+01   0.139E+03 0.278E+02 0.161E+02   0.295E+01 -.103E+01 -.637E+01   -.319E-03 -.235E-02 -.228E-03
   0.751E+02 -.819E+01 0.319E+02   -.733E+02 0.110E+02 -.302E+02   -.143E+01 -.224E+01 -.732E+00   0.336E-02 -.823E-02 0.122E-02
   0.365E+02 0.524E+02 -.192E+03   -.333E+02 -.514E+02 0.196E+03   -.287E+01 -.115E+01 -.199E+01   0.432E-02 0.251E-02 -.256E-02
   -.130E+02 -.119E+03 -.188E+03   0.122E+02 0.117E+03 0.192E+03   -.293E+01 0.222E+01 0.347E+01   -.401E-02 -.596E-02 -.601E-02
   0.832E+01 -.267E+02 -.104E+03   -.110E+02 0.277E+02 0.110E+03   0.192E+01 -.651E+00 -.280E+01   -.135E-02 -.119E-02 0.103E-02
   -.181E+03 -.881E+01 -.195E+03   0.182E+03 0.816E+01 0.193E+03   -.341E+00 0.229E+01 0.292E+01   -.106E-02 0.182E-02 -.190E-03
   -.318E+03 0.225E+02 -.127E+01   0.318E+03 -.255E+02 0.431E+01   0.171E+01 0.217E+01 0.461E+00   -.904E-02 0.203E-01 -.362E-02
   0.261E+03 -.821E+02 0.613E+02   -.261E+03 0.830E+02 -.638E+02   -.224E+01 0.326E-01 0.132E+01   0.151E-01 0.688E-02 0.202E-01
   0.389E+02 0.708E+02 0.245E+03   -.408E+02 -.690E+02 -.246E+03   -.220E+01 -.229E+01 -.423E+01   -.297E-02 0.268E-02 0.788E-03
   0.557E+02 -.142E+01 -.140E+03   -.520E+02 0.296E+01 0.134E+03   -.315E+01 -.241E+00 0.518E+01   -.102E-03 0.953E-03 0.324E-02
   0.798E+02 0.392E+02 0.535E+01   -.779E+02 -.412E+02 -.119E+02   -.281E+01 0.235E+01 0.440E+01   -.138E-02 -.724E-03 0.201E-02
   0.115E+03 -.111E+03 -.153E+02   -.114E+03 0.106E+03 0.155E+02   0.236E+01 0.379E+01 0.293E+01   -.202E-02 0.423E-03 -.361E-02
   0.112E+03 -.919E+02 -.964E+02   -.109E+03 0.852E+02 0.981E+02   -.184E+01 0.519E+01 -.390E+00   0.123E-02 0.520E-03 0.316E-02
   -.814E+02 0.504E+02 0.859E+02   0.788E+02 -.456E+02 -.900E+02   0.357E+01 -.359E+01 0.373E+01   0.717E-02 -.119E-01 -.130E-01
   0.202E+03 -.315E+02 -.205E+03   -.194E+03 0.318E+02 0.204E+03   -.636E+01 -.115E+00 0.231E+01   -.584E-03 -.712E-03 -.383E-03
   -.582E+02 -.108E+03 -.912E+02   0.505E+02 0.107E+03 0.897E+02   0.519E+01 0.720E+00 -.683E-01   0.158E-02 0.306E-03 0.404E-03
   -.776E+02 0.575E+02 0.187E+03   0.832E+02 -.561E+02 -.189E+03   -.506E+01 -.436E+01 0.852E+00   -.123E-02 0.154E-02 0.328E-03
   0.195E+03 -.795E+02 -.240E+03   -.194E+03 0.814E+02 0.237E+03   -.277E+01 -.981E+00 0.642E+01   -.219E-02 0.457E-03 0.108E-02
   0.122E+03 0.201E+03 0.165E+02   -.128E+03 -.203E+03 -.142E+02   0.203E+01 -.393E+01 -.440E+01   -.652E-02 0.728E-03 -.122E-02
   0.420E+02 -.623E+02 -.120E+03   -.456E+02 0.575E+02 0.120E+03   0.275E+01 0.399E+01 0.223E+01   -.489E-03 -.437E-03 0.128E-02
   -.129E+03 -.578E+02 -.263E+03   0.131E+03 0.545E+02 0.269E+03   -.252E+01 0.375E+01 -.373E+01   0.461E-02 0.348E-02 0.259E-02
   0.212E+03 -.594E+02 0.724E+02   -.208E+03 0.619E+02 -.741E+02   -.351E+01 -.130E+01 0.927E+00   -.278E-02 -.189E-02 -.194E-02
   -.795E+02 -.256E-01 -.240E+02   0.794E+02 -.297E+00 0.258E+02   0.130E+01 -.850E+00 -.235E+01   0.150E-02 -.310E-02 0.586E-02
   -.121E+03 -.230E+02 0.599E+01   0.113E+03 0.192E+02 0.117E+02   0.892E+01 -.819E-01 -.171E+02   0.715E-03 0.539E-05 -.777E-03
   0.210E+02 0.574E+02 -.529E+01   -.214E+02 -.586E+02 0.501E+01   -.632E+00 -.537E+01 0.455E+01   0.199E-03 -.690E-03 0.165E-02
   -.105E+03 0.178E+02 -.549E+02   0.101E+03 -.246E+02 0.576E+02   0.948E+01 0.981E+01 0.583E+01   0.757E-03 0.134E-02 0.141E-02
   0.773E+02 0.362E+02 -.738E+02   -.710E+02 -.427E+02 0.565E+02   -.968E+01 0.820E+01 0.255E+02   0.378E-03 0.770E-03 -.258E-02
   -.204E+02 -.739E+02 0.408E+02   0.155E+02 0.733E+02 -.306E+02   -.396E-01 0.480E+01 -.102E+02   0.112E-02 -.363E-03 0.197E-02
   0.578E+01 -.424E+02 -.304E+02   -.125E+02 0.431E+02 0.232E+02   0.658E+01 -.132E+01 0.545E+01   0.402E-02 0.232E-02 -.479E-02
   0.129E+02 0.491E+02 0.396E+02   -.119E+02 -.389E+02 -.482E+02   -.810E+01 -.139E+02 0.440E+01   -.557E-04 -.101E-02 0.128E-02
   0.172E+02 -.109E+03 0.813E+02   -.190E+02 0.103E+03 -.785E+02   0.426E+01 0.546E+01 -.886E+01   0.812E-04 0.614E-03 -.222E-02
   0.499E+02 0.561E+02 0.212E+02   -.608E+02 -.454E+02 -.143E+02   0.174E+02 -.102E+02 -.820E+01   -.773E-03 0.387E-03 0.106E-02
   -.202E+02 0.806E+02 0.141E+03   0.152E+02 -.800E+02 -.132E+03   -.210E+01 -.188E+01 -.137E+02   0.177E-03 0.172E-02 0.955E-03
   -.557E+02 -.771E+02 0.833E+02   0.568E+02 0.707E+02 -.712E+02   0.696E+00 0.740E+01 -.176E+02   -.930E-03 -.132E-02 0.141E-02
   0.660E+02 0.237E+02 -.599E+02   -.586E+02 -.229E+02 0.593E+02   -.544E+01 0.411E+01 -.132E+01   -.192E-02 -.612E-03 0.135E-02
   -.538E+02 -.145E+02 0.429E+02   0.630E+02 0.643E+01 -.410E+02   -.168E+02 0.823E+01 0.555E+00   -.188E-02 0.222E-02 -.216E-02
   0.983E+02 -.341E+02 0.158E+03   -.911E+02 0.328E+02 -.146E+03   -.889E+01 0.753E+01 -.107E+02   0.155E-02 0.906E-03 -.140E-02
   -.139E+03 0.133E+03 -.622E+02   0.135E+03 -.124E+03 0.467E+02   0.573E+01 -.950E+01 0.182E+02   -.223E-02 0.823E-03 0.152E-02
   -.110E+02 -.204E+02 0.241E+02   0.116E+02 0.853E+01 -.309E+02   -.465E+01 0.914E+01 0.693E+01   -.335E-03 0.664E-03 0.251E-02
   -.754E+02 -.236E+02 0.295E+02   0.667E+02 0.214E+02 -.270E+02   0.173E+02 0.963E+01 0.106E+02   0.522E-03 -.102E-02 -.108E-02
   -.102E+03 -.684E+02 0.339E+02   0.943E+02 0.672E+02 -.421E+02   0.152E+02 0.457E+00 0.205E+01   -.220E-02 -.227E-02 0.809E-03
   -.279E+02 0.522E+02 -.250E+02   0.230E+02 -.527E+02 0.249E+02   0.104E+02 -.121E+01 -.683E+01   -.864E-03 0.692E-04 0.698E-03
   0.378E+02 -.556E+02 -.612E+02   -.359E+02 0.499E+02 0.585E+02   -.605E+01 0.805E+01 0.660E+01   -.115E-02 -.292E-03 -.926E-03
   0.280E+02 0.195E+02 -.251E+02   -.334E+02 -.948E+01 0.199E+02   0.119E+02 -.122E+02 0.725E+00   0.125E-02 0.109E-02 0.133E-02
   0.354E+02 0.907E+01 0.440E+01   -.368E+02 -.200E+01 -.818E+01   -.536E+01 -.608E+00 0.681E+01   -.987E-03 -.125E-01 -.172E-02
   -.395E+02 0.481E+02 0.137E+02   0.349E+02 -.365E+02 -.743E+01   0.492E+01 -.110E+02 -.460E+01   -.798E-03 0.654E-03 -.707E-03
   0.157E+02 -.539E+02 0.101E+03   -.225E+02 0.602E+02 -.951E+02   0.517E+01 -.720E+01 -.763E+01   -.191E-03 -.690E-03 0.303E-03
   -.100E+02 0.258E+02 -.788E+01   0.191E+02 -.160E+02 0.983E+01   -.107E+02 -.684E+01 -.239E+01   0.278E-02 -.203E-02 0.283E-04
   0.164E+01 0.200E+02 0.114E+03   -.431E+01 -.291E+02 -.115E+03   -.164E+01 0.100E+02 0.136E+01   0.419E-03 0.173E-02 0.571E-03
   0.610E+02 -.147E+02 0.676E+01   -.687E+02 0.663E+01 -.109E+02   0.800E+01 0.799E+01 0.739E+01   -.858E-04 0.419E-03 0.358E-03
   -.967E+01 0.265E+02 -.979E+02   0.128E+02 -.345E+02 0.884E+02   -.130E+01 0.829E+01 0.131E+02   0.444E-02 0.400E-03 0.327E-02
   0.141E+03 0.631E+02 -.156E+03   -.147E+03 -.549E+02 0.171E+03   0.631E+01 -.109E+02 -.151E+02   -.115E-02 -.219E-02 0.257E-02
   0.110E+03 -.763E+02 0.208E+02   -.991E+02 0.852E+02 -.283E+02   -.132E+02 -.918E+01 0.108E+02   0.965E-03 0.110E-02 0.298E-04
   0.708E+02 -.145E+03 0.294E+02   -.801E+02 0.147E+03 -.286E+02   0.126E+02 0.345E+01 -.205E+01   -.251E-02 0.979E-04 -.122E-02
   0.942E+02 0.923E+02 -.615E+02   -.928E+02 -.960E+02 0.626E+02   -.160E+01 0.286E+01 -.585E+00   -.420E-03 0.171E-02 -.792E-03
   0.563E+02 -.381E+01 -.626E+02   -.694E+02 0.109E+02 0.652E+02   0.169E+02 -.770E+01 -.291E+01   -.202E-02 0.152E-02 -.962E-03
[...]
   -.948E+02 0.540E+02 -.479E+02   0.118E+03 -.690E+02 0.483E+02   -.267E+02 0.184E+02 0.129E+00   0.160E-02 0.165E-02 0.239E-02
   0.164E+03 0.188E+02 -.377E+02   -.161E+03 -.344E+02 0.181E+02   -.530E+01 0.169E+02 0.200E+02   -.179E-02 0.107E-03 0.207E-02
   0.814E+01 0.142E+03 0.950E+02   0.127E+02 -.162E+03 -.973E+02   -.183E+02 0.226E+02 -.720E+00   0.973E-03 0.238E-02 -.147E-02
   -.305E+03 0.353E+02 0.232E+02   0.329E+03 -.971E+01 -.361E+02   -.194E+02 -.239E+02 0.136E+02   -.346E-02 0.333E-02 0.213E-02
   -.112E+03 0.136E+03 0.118E+02   0.109E+03 -.150E+03 0.572E+01   0.400E+01 0.163E+02 -.201E+02   -.634E-02 0.300E-02 -.238E-02
   0.118E+03 -.185E+02 -.762E+02   -.128E+03 0.110E+02 0.885E+02   0.121E+02 0.985E+01 -.138E+02   -.186E-02 -.117E-02 -.133E-02
   -.223E+03 0.243E+02 0.940E+02   0.259E+03 -.357E+02 -.104E+03   -.334E+02 0.114E+02 0.813E+01   -.111E-02 0.523E-02 -.642E-02
   0.367E+02 -.484E+02 0.856E+02   -.302E+02 0.439E+02 -.857E+02   -.591E+01 0.570E+01 -.514E+00   -.508E-05 0.403E-04 0.292E-03
   -.710E+02 -.396E+01 0.729E+02   0.693E+02 0.152E+02 -.729E+02   0.257E+01 -.160E+02 -.376E+00   0.401E-02 -.357E-02 -.171E-02
   -.134E+03 -.256E+02 -.470E+02   0.152E+03 0.379E+02 0.492E+02   -.206E+02 -.140E+02 -.234E+01   -.224E-02 0.111E-03 -.239E-02
   0.104E+03 -.210E+02 0.709E+02   -.136E+03 0.199E+02 -.808E+02   0.312E+02 0.586E+01 0.748E+01   0.159E-02 -.165E-02 0.349E-02
   -.212E+01 -.335E+02 -.761E+02   0.604E+01 0.297E+02 0.101E+03   -.603E+01 0.375E+01 -.240E+02   -.565E-02 0.937E-04 -.158E-02
   -.323E+02 0.338E+02 -.718E+02   0.107E+02 -.503E+02 0.960E+02   0.188E+02 0.150E+02 -.199E+02   -.901E-06 -.638E-03 0.442E-03
   0.993E+02 -.115E+03 -.101E+03   -.109E+03 0.139E+03 0.990E+02   0.102E+02 -.262E+02 0.298E+01   0.653E-02 0.338E-02 -.582E-02
   -.923E+02 -.795E+01 0.111E+02   0.199E-12 0.426E-12 -.109E-11   0.923E+02 0.796E+01 -.111E+02   0.124E-01 -.214E-01 0.135E-01

 POSITION                                       TOTAL-FORCE (eV/Angst)
      5.43570     11.35036     10.69707         1.004907     -1.471231      0.267578
      2.46744      7.35670      1.98980         0.757714      2.763697      0.093166
      9.23394      0.14946      8.85429         0.257450     -1.323316      0.681345
     10.92856      4.62356      1.37140         0.392294     -0.176699      1.732732
     11.83403     10.31256      4.07618         1.509534      0.966521      0.761232
      3.67869      8.05618     11.41925         0.467769      0.569146      0.911317
      2.43292      0.86752      5.37336         0.355459     -0.174599      2.188439
     11.79905      9.71414      7.73018        -3.777716      0.691431      6.908439
      8.69802      9.74741      3.19506        -0.741061      0.348719      2.471850
     11.32592      2.36738      4.38997         0.676256      1.634814      1.172060
      0.66807      2.01068      9.84032         1.867830     -0.795458      3.495086
      3.38922      0.27885     12.34366        -2.092083      0.931501     -1.169526
      9.62456      2.80359     11.16169        -4.066368     -0.443775     -5.593394
      5.24480      4.91364      1.42332         0.586274      1.291925     -0.830955
      8.41498     11.86951      0.34715        -0.929558      0.273173     -2.152791
      7.26575      4.24223      8.52372         3.497245     -1.032358      3.098374
      5.09749      3.40747      5.30047         0.387631     -1.514837      1.323524
      3.72022      9.73144      8.29181         0.937302      1.159694     -0.412404
      5.92501     10.99649      5.36487         1.279944      0.168410      1.501334
     12.02257      6.25752      3.70882        -2.512685     -0.255825     -1.558788
     10.51420      5.66187     10.38043         0.560474     -2.954472     -1.345682
      8.61505      5.01105      4.19110        -1.554877      0.890656      3.614211
      8.57801      2.11501      6.10202        -4.111663     -5.432005     -2.105302
      8.70231      7.27740      1.59735        -0.794739     -0.844639      2.217905
      2.26290      5.23188      4.52956         0.147604      0.472584      2.614148
      9.03052      7.84437      7.93088         0.363167      1.271576     -0.719990
      2.35234     10.76578      2.74490         1.206358     -1.176180     -0.547159
     12.06925      6.45027      6.54592         1.194195     -3.906946      0.566210
      5.62931      8.98560      2.35921        -0.959544     -6.523181      4.278191
      2.46496      2.76492      3.10059         4.722875      2.983174      8.527539
      4.60987      5.60214      8.89826        -3.414753      1.714054      8.171835
      5.44159     11.46286      2.04409        -4.995477      4.139821      0.030383
      4.51060      0.27492      7.76555        -0.163789     -0.606393     -1.786957
      1.00191      6.38965     12.31428        -7.046859     -3.696467     -4.211188
      4.06098      7.02525      6.60792         2.508133     -0.973793     -6.072846
      7.68474      2.25880      3.03030         6.423964      0.500520     -1.302801
      1.61902      4.49054      1.28048        -7.120079     -1.276338     -5.181816
     11.73653      9.23917      1.32153         1.841749      1.013565     -5.558116
      6.65097      7.51196      4.92931         1.910403      4.868306     -1.906070
     11.75408      2.14294      7.91462        -7.562127      0.194359      2.497949
      6.60292      1.00588      9.77802        -1.635315      6.281626      1.249054
     10.64281      1.02020     12.48421         2.020728     -1.102172      2.723425
      0.78393      0.60969      2.29666        -4.082465     -2.743775      0.148133
      6.03723      7.62378     10.31646         8.676555      7.442703     13.119256
     11.24133      9.01184     11.04749         7.372519     -0.694836     -6.149295
      9.81896      0.42056      2.83725         5.403496     -1.717889     -6.891677
      9.61238     11.17640      6.17033        -4.193175      2.316399      3.898022
      5.88962      1.99902      0.40596         6.418851     -2.226258     -4.456073
      1.81258     10.25136     10.09031        -6.726703      6.453518      3.029680
     10.32281      4.47339      7.18812         0.328016      0.653103      1.634259
      8.72951      8.48250     11.42194        -1.612076     -0.859756     -1.991800
      1.47856      8.63956      5.66623        -1.544509      3.000431     -0.436705
      2.72030      4.73798     11.12035        -4.310361      0.893717      0.800366
      8.21375      5.18020     12.20896         0.349233     -0.098251      3.261663
      5.57597      0.11617      0.12340         1.886559      0.263647      3.631722
      5.63296      9.00737      4.10939        -0.118048     -2.767530     -0.310419
      7.00061      2.27416     11.35127        -2.536352     -0.319944      3.190336
      8.46034      3.81133      6.94127         3.290822      5.273693     -1.270330
      6.11402      1.73461      6.32503        -0.262187     -0.830477      0.455182
      7.84673     11.89142      6.03080         3.830293     -0.630162     -0.261499
[...]
      1.24770      3.33462      4.08031        -0.675249     -2.465245      2.975593
      3.87433      1.97610      3.75353        -3.562570      3.408515      0.578668
      7.05471      6.34384      3.86126        -2.324430      1.260907      0.517343
      3.96539      4.65600     10.19882         2.510320      2.120136     -3.066264
     11.37107      2.17381     11.82410         4.796192      1.770635      0.650605
     11.18122      1.07051      9.17645         0.527943      1.976721     -2.637009
      9.12983     10.09448      7.56200         2.175774      2.352536     -1.482322
      0.65009      1.78196      7.59112         3.408071      0.046971     -2.011071
      8.82927      6.85180     12.03998         0.654448      1.196469     -0.607653
      5.36713      9.36471     10.36411         0.885896     -4.697173     -0.395692
     10.91618     12.42560      6.26172        -3.056584     -1.743005     -0.152865
      4.53145     10.00906      1.94030        -0.982020      4.761269     -2.429232
      5.96945      7.23420      6.39562        -2.116384     -0.056213      0.373345
     10.82020      8.68157      2.36006        -2.743808     -1.500836      4.258880
      3.76241      1.70267      7.29076         0.577725     -1.652849      0.583489
    total drift:                               -0.003635     -0.005656      0.000731

  FREE ENERGIE OF THE ION-ELECTRON SYSTEM (eV)
  free  energy   TOTEN  =      -883.46380295 eV

  energy  without entropy=     -883.39905822  energy(sigma->0) =     -883.43143058