 vasp.5.4.4.18Apr17-6-g9f103f2a35 (build Mar 16 2023 09:39:13) complex

 executed on             LinuxIFC date 2024.04.30  21:14:41

 INCAR:
 POTCAR:    PAW_PBE Ca_sv 06Sep2000
 POTCAR:    PAW_PBE Si 05Jan2001
 POTCAR:    PAW_PBE O 08Apr2002
 POTCAR:    PAW_PBE Ca_sv 06Sep2000
   VRHFIN =Ca: 3s3p4s

   TITEL  = PAW_PBE Ca_sv 06Sep2000
   POMASS =   40.078; ZVAL   =   10.000    mass and valenz
   ENMAX  =  266.622; ENMIN  =  199.967 eV

   TITEL  = PAW_PBE Si 05Jan2001
   POMASS =   28.085; ZVAL   =    4.000    mass and valenz
   ENMAX  =  245.345; ENMIN  =  184.009 eV

   TITEL  = PAW_PBE O 08Apr2002
   POMASS =   16.000; ZVAL   =    6.000    mass and valenz
   ENMAX  =  400.000; ENMIN  =  300.000 eV

 Optimization of the real space projectors (new method)

 maximal supplied QI-value         = 16.25
 optimisation between [QCUT,QGAM] = [ 12.51, 25.03] = [ 43.85,175.40] Ry
 Optimized for a Real-space Cutoff    1.47 Angstroem

   l    n(q)    QCUT    max X(q) W(low)/X(q) W(high)/X(q)  e(spline)
   0     11    12.514    11.817    0.25E-04    0.32E-05    0.87E-07
   0     11    12.514     8.461    0.39E-04    0.59E-05    0.18E-06
   1     11    12.514     3.957    0.97E-05    0.57E-05    0.28E-07
   1     11    12.514     4.314    0.42E-04    0.14E-04    0.23E-06
   2     10    12.514    14.565    0.79E-04    0.50E-03    0.16E-05
   2     10    12.514    14.552    0.75E-04    0.48E-03    0.15E-05
 Optimization of the real space projectors (new method)

[...]

   l    n(q)    QCUT    max X(q) W(low)/X(q) W(high)/X(q)  e(spline)
   0      9    12.501   159.560    0.10E-03    0.83E-04    0.71E-07
   0      9    12.501   115.863    0.99E-04    0.81E-04    0.70E-07
   1      8    12.501    88.339    0.20E-03    0.25E-03    0.76E-07
   1      8    12.501    48.592    0.20E-03    0.24E-03    0.75E-07
 Optimization of the real space projectors (new method)

 maximal supplied QI-value         = 24.76
 optimisation between [QCUT,QGAM] = [ 12.38, 25.00] = [ 42.90,175.06] Ry
 Optimized for a Real-space Cutoff    1.16 Angstroem

   l    n(q)    QCUT    max X(q) W(low)/X(q) W(high)/X(q)  e(spline)
   0      9    12.378    20.381    0.16E-03    0.67E-05    0.31E-06
   0      9    12.378    15.268    0.17E-03    0.81E-05    0.33E-06
   1      8    12.378     5.964    0.20E-03    0.16E-03    0.30E-06
   1      8    12.378     5.382    0.18E-03    0.14E-03    0.26E-06
  PAW_PBE Ca_sv 06Sep2000               :
  PAW_PBE Si 05Jan2001                  :
  PAW_PBE O 08Apr2002                   :

 POSCAR: Ca Si  O
  positions in direct lattice
 exchange correlation table for  LEXCH =        8
   RHO(1)=    0.500       N(1)  =     2000
   RHO(2)=  100.500       N(2)  =     4000

 ion  position               nearest neighbor table
   1  0.567  0.872  0.584- 100 2.22 107 2.24 101 2.42  84 2.44  20 3.06  29 3.15
   2  0.565  0.765  0.097-  58 2.09  67 2.35 128 2.38  70 2.38  96 2.48  35 2.81
   3  0.356  0.196  0.905-  72 2.18  77 2.31  63 2.35  32 2.95  33 3.08
   4  0.832  0.392  0.446- 120 2.27 117 2.28  92 2.29  60 2.37  56 2.43  75 2.54  48 2.83  27 2.92
                            28 2.98
   5  0.615  0.264  0.928- 110 2.15 129 2.36  77 2.48 114 2.55 135 2.56
   6  0.955  0.408  0.083-  87 2.04 116 2.21  69 2.41 135 2.56  37 3.04  18 3.15
   7  0.495  0.492  0.996- 114 2.26 129 2.27  77 2.30  58 2.31  54 2.80  49 2.81
   8  0.807  0.901  0.417- 108 2.16 102 2.38  95 2.44  84 2.51  46 2.77
   9  0.054  0.612  0.738-  76 2.34 112 2.38 122 2.40 104 2.48  18 3.06  10 3.06  30 3.10
  10  0.965  0.843  0.683- 131 1.95  76 2.20 122 2.32  95 2.54  41 2.92  52 2.93   9 3.06
  11  0.262  0.709  0.576- 122 2.14  97 2.50 112 2.54  36 3.06  41 3.08
  12  0.595  0.201  0.460-  75 2.00  92 2.18  89 2.41  31 3.10
  13  0.748  0.688  0.823-  67 2.28  76 2.33 132 2.33  54 2.81
  14  0.300  0.558  0.276-  73 2.09  98 2.14  88 2.30  68 2.50  49 3.03
  15  0.182  0.973  0.773- 109 1.93 131 2.18 112 2.48  80 2.51  23 3.14
  16  0.278  0.036  0.103- 133 2.21  90 2.23  72 2.30  80 2.36  47 2.46  34 2.88
  17  0.079  0.869  0.274- 108 2.08 133 2.16 118 2.29 113 2.30 123 2.50  59 2.56  41 2.88
  18  0.151  0.471  0.923- 125 1.96 134 2.09  99 2.25  44 2.95   9 3.06   6 3.15
  19  0.020  0.184  0.272-  56 2.03  85 2.18  87 2.39
  20  0.576  0.713  0.386- 119 2.44 126 2.51  50 2.91   1 3.06
  21  0.324  0.287  0.486- 127 2.00 121 2.26  89 2.32 130 2.43  34 2.93  30 3.01  32 3.13
  22  0.832  0.101  0.037- 110 2.26 103 2.45  79 2.47  31 2.96  37 3.09
  23  0.101  0.218  0.740- 111 2.16 125 2.45  48 2.81  37 2.85  15 3.14
  24  0.630  0.451  0.611- 106 1.97  60 2.00  55 2.20  62 2.35  75 2.39  39 2.96  28 3.00  32 3.08

  25  0.599  0.350  0.222-  79 2.23  92 2.40  73 2.48 130 2.49  31 2.82
  26  0.279  0.019  0.495-  59 2.11  89 2.32 121 2.41 109 2.43 100 2.47  33 2.91  50 3.02  52 3.16

  27  0.014  0.527  0.363- 124 2.00 117 2.11  78 2.14 113 2.53   4 2.92  41 2.96  30 3.10
  28  0.793  0.269  0.656-  75 1.58  71 1.65 120 1.69  62 1.78  45 2.81  40 2.92   4 2.98  24 3.00
                            48 3.05
  29  0.484  0.879  0.831- 101 1.54 105 1.59 128 1.67  66 1.72  36 2.88  38 3.10   1 3.15
  30  0.158  0.456  0.562- 104 1.55 124 1.59  68 1.62 127 1.86  48 2.89  21 3.01  27 3.10   9 3.10

[...]

  48  0.012  0.270  0.531-  56 1.55 111 1.61 120 1.62 127 1.96 124 2.51  23 2.81   4 2.83  30 2.89
                            28 3.05  52 3.07
  49  0.343  0.367  0.119-  99 1.62  77 1.76  74 1.78  73 1.83   7 2.81  34 2.81  14 3.03
  50  0.375  0.841  0.349- 126 1.58  98 1.59 100 1.65  59 1.66  20 2.91  26 3.02  53 3.11
  51  0.810  0.651  0.558-  60 1.50  84 1.65  78 1.79  76 1.80  41 3.10
  52  0.019  0.017  0.524- 131 1.63 123 1.65 111 1.81 102 1.84  95 1.89  10 2.93  48 3.07  26 3.16

[...]

  55  0.565  0.550  0.749-  39 1.55  24 2.20
  56  0.997  0.285  0.405-  48 1.55  19 2.03   4 2.43
  57  0.957  0.431  0.794-  45 1.65
  58  0.447  0.640  0.107-  35 1.68   2 2.09   7 2.31
  59  0.269  0.927  0.347-  50 1.66  26 2.11  17 2.56
  60  0.763  0.536  0.561-  51 1.50  24 2.00   4 2.37
  61  0.297  0.676  0.934-  36 1.53  35 1.57
  62  0.745  0.373  0.748-  45 1.64  28 1.78  24 2.35
  63  0.492  0.183  0.766-  33 1.75  32 2.03   3 2.35
  64  0.653  0.036  0.338-  53 1.60  31 2.22
  65  0.999  0.115  0.898-  37 1.56  47 2.35
  66  0.549  0.763  0.782-  29 1.72  39 2.10
  67  0.668  0.642  0.987-  54 1.50  13 2.28   2 2.35
  68  0.213  0.523  0.461-  30 1.62  14 2.50
  69  0.812  0.544  0.106-  43 1.59  54 1.75   6 2.41
  70  0.690  0.832  0.234-  46 1.55   2 2.38
  71  0.809  0.150  0.721-  40 1.65  28 1.65
  72  0.440  0.078  0.011-  38 1.52   3 2.18  16 2.30
  73  0.424  0.456  0.211-  49 1.83  14 2.09  25 2.48
  74  0.281  0.241  0.165-  34 1.68  49 1.78
  75  0.703  0.274  0.562-  28 1.58  12 2.00  24 2.39   4 2.54
  76  0.882  0.681  0.685-  51 1.80  10 2.20  13 2.33   9 2.34
  77  0.444  0.312  0.030-  49 1.76   7 2.30   3 2.31   5 2.48
  78  0.913  0.643  0.453-  51 1.79  41 1.91  27 2.14
  79  0.718  0.238  0.137-  31 1.67  25 2.23  22 2.47
  80  0.186  0.922  0.973-  47 1.58  16 2.36  15 2.51
  81  0.618  0.989  0.136-  38 1.60  53 1.65
  82  0.305  0.279  0.698-  32 1.68
  83  0.827  0.681  0.252-  43 1.63  46 1.73
  84  0.723  0.754  0.537-  51 1.65   1 2.44   8 2.51
  85  0.856  0.111  0.268-  31 1.54  19 2.18
  86  0.952  0.770  0.884-  42 1.76
  87  0.997  0.244  0.085-  37 1.62   6 2.04  19 2.39
  88  0.243  0.674  0.136-  35 1.68  44 1.72  14 2.30
  89  0.426  0.133  0.540-  33 1.71  21 2.32  26 2.32  12 2.41
  90  0.159  0.125  0.994-  37 1.62  47 1.74  16 2.23
  91  0.464  0.635  0.552-  39 1.71
  92  0.724  0.267  0.353-  31 1.69  12 2.18   4 2.29  25 2.40
  93  0.794  0.945  0.767-  40 1.59
  94  0.830  0.818  0.062-  42 1.71  46 1.72
  95  0.997  0.869  0.477-  41 1.55  52 1.89   8 2.44  10 2.54
  96  0.376  0.838  0.066-  35 1.58   2 2.48
  97  0.352  0.633  0.746-  39 1.71  36 1.78  11 2.50
  98  0.367  0.710  0.336-  50 1.59  14 2.14
  99  0.279  0.467  0.058-  49 1.62  18 2.25
 100  0.420  0.872  0.473-  50 1.65   1 2.22  26 2.47
 101  0.488  0.969  0.740-  29 1.54  33 1.96   1 2.42
 102  0.872  0.016  0.562-  40 1.79  52 1.84   8 2.38
 103  0.960  0.956  0.979-  42 1.74  47 1.79  22 2.45
 104  0.216  0.511  0.663-  30 1.55   9 2.48
 105  0.357  0.857  0.806-  29 1.59  36 1.63
 106  0.495  0.360  0.611-  32 1.53  24 1.97
 107  0.690  0.009  0.565-  40 1.63   1 2.24
 108  0.907  0.881  0.270-  46 1.59  17 2.08   8 2.16
 109  0.298  0.048  0.693-  33 1.56  15 1.93  26 2.43
 110  0.660  0.096  0.964-  38 1.70   5 2.15  22 2.26
 111  0.048  0.152  0.582-  48 1.61  52 1.81  23 2.16
 112  0.172  0.770  0.755-  36 1.70   9 2.38  15 2.48  11 2.54
 113  0.107  0.713  0.379-  41 1.50  17 2.30  27 2.53
 114  0.463  0.385  0.847-  32 1.74   7 2.26   5 2.55
[...]
 121  0.273  0.161  0.357-  34 1.53  21 2.26  26 2.41
 122  0.087  0.733  0.583-  41 1.51  11 2.14  10 2.32   9 2.40
 123  0.085  0.029  0.405-  52 1.65  17 2.50
 124  0.035  0.476  0.520-  30 1.59  27 2.00  48 2.51
 125  0.113  0.313  0.918-  37 1.60  18 1.96  23 2.45
 126  0.489  0.878  0.296-  50 1.58  53 1.74  20 2.51
 127  0.171  0.304  0.545-  30 1.86  48 1.96  21 2.00
 128  0.534  0.900  0.958-  29 1.67  38 1.77   2 2.38
 129  0.666  0.422  0.030-  54 1.56   7 2.27   5 2.36
 130  0.442  0.266  0.324-  34 1.54  21 2.43  25 2.49
 131  0.067  0.958  0.635-  52 1.63  10 1.95  15 2.18
 132  0.839  0.538  0.903-  54 1.77  45 1.85  13 2.33
 133  0.107  0.001  0.157-  47 1.63  17 2.16  16 2.21
 134  0.129  0.637  0.965-  44 1.45  18 2.09
 135  0.820  0.312  0.951-  45 1.64   5 2.56   6 2.56

IMPORTANT INFORMATION: All symmetrisations will be switched off!
NOSYMM: (Re-)initialisation of all symmetry stuff for point group C_1.

Automatic generation of k-mesh.
 generate k-points for:    2    2    2
Space group operators:
 irot       det(A)        alpha          n_x          n_y          n_z        tau_x        tau_y        tau_z
    1     1.000000     0.000000     1.000000     0.000000     0.000000     0.000000     0.000000     0.000000

 Subroutine IBZKPT returns following result:

 Found      8 irreducible k-points:

 Following reciprocal coordinates:
            Coordinates               Weight
  0.000000  0.000000  0.000000      1.000000
  0.500000  0.000000  0.000000      1.000000
  0.000000  0.500000  0.000000      1.000000
  0.500000  0.500000  0.000000      1.000000
  0.000000  0.000000  0.500000      1.000000
  0.500000  0.000000  0.500000      1.000000
  0.000000  0.500000  0.500000      1.000000
  0.500000  0.500000  0.500000      1.000000

 Following cartesian coordinates:
            Coordinates               Weight
  0.000000  0.000000  0.000000      1.000000
  0.041344  0.000000  0.000000      1.000000
  0.000000  0.041344  0.000000      1.000000
  0.041344  0.041344  0.000000      1.000000
  0.000000  0.000000  0.041344      1.000000
  0.041344  0.000000  0.041344      1.000000
  0.000000  0.041344  0.041344      1.000000
  0.041344  0.041344  0.041344      1.000000

 SYSTEM =  unknown system
 POSCAR =  Ca Si  O

 Startparameter for this run:
   NWRITE =      2    write-flag & timer
[...]
     0.000000000  0.000000000 12.093787620     0.000000000  0.000000000  0.082687081

  length of vectors
    12.093787620 12.093787620 12.093787620     0.082687081  0.082687081  0.082687081

 FORCES acting on ions
    electron-ion (+dipol)            ewald-force                    non-local-force                 convergence-correction
   -.260E+02 0.363E+02 -.796E+02   0.265E+02 -.325E+02 0.811E+02   -.860E-01 -.335E+01 -.209E+00   -.781E-03 0.121E-03 -.449E-03
   -.115E+03 0.411E+01 0.253E+02   0.114E+03 -.506E+01 -.264E+02   0.277E+01 0.216E+01 0.116E+01   -.911E-03 -.400E-03 0.733E-03
   0.120E+03 -.254E+02 0.544E+02   -.114E+03 0.281E+02 -.517E+02   -.621E+01 -.127E+01 -.233E+01   0.785E-03 0.834E-03 0.524E-03
   0.122E+03 -.216E+02 0.525E+02   -.122E+03 0.212E+02 -.558E+02   -.606E+00 0.824E+00 0.211E+01   0.658E-03 -.172E-03 0.413E-03
   -.585E+02 0.693E+02 0.140E+03   0.602E+02 -.704E+02 -.137E+03   -.127E+01 0.152E+01 -.289E+01   -.141E-02 0.760E-03 0.698E-03
   -.588E+02 0.625E+01 -.275E+02   0.553E+02 -.341E+01 0.306E+02   0.120E+01 -.243E+00 -.259E+01   0.333E-04 0.735E-03 0.495E-03
   0.270E+02 -.135E+03 0.932E+02   -.289E+02 0.133E+03 -.919E+02   0.402E+00 0.239E+01 -.148E+01   -.799E-03 -.589E-03 0.916E-03
   0.155E+03 -.329E+02 -.140E+02   -.152E+03 0.354E+02 0.153E+02   -.348E+01 -.126E+01 0.407E-01   0.164E-02 -.172E-03 -.622E-03
   0.313E+02 0.164E+03 -.118E+03   -.337E+02 -.161E+03 0.115E+03   0.127E+01 -.284E+01 0.254E+01   0.880E-03 0.221E-03 -.915E-03
   0.211E+03 -.610E+02 -.220E+03   -.212E+03 0.597E+02 0.222E+03   -.136E+01 0.149E+00 0.553E+00   0.196E-02 -.747E-03 -.114E-02
   -.231E+03 0.643E+00 0.106E+03   0.228E+03 -.555E+01 -.106E+03   0.358E+01 0.334E+01 -.965E+00   -.155E-02 -.907E-03 -.857E-03
   0.918E+02 0.404E+02 -.234E+02   -.904E+02 -.426E+02 0.242E+02   -.356E+01 -.333E+00 -.112E+01   -.137E-02 0.202E-03 -.438E-03
   0.900E+02 -.154E+03 0.359E+02   -.864E+02 0.156E+03 -.347E+02   -.277E+01 0.780E+00 -.156E+01   0.534E-03 -.729E-03 -.164E-03
   0.339E+02 0.163E+03 -.165E+03   -.304E+02 -.158E+03 0.165E+03   -.449E+01 -.373E+01 0.955E+00   0.241E-03 -.118E-03 0.563E-03
   0.535E+02 -.338E+02 -.124E+03   -.537E+02 0.263E+02 0.123E+03   -.229E+01 0.348E+01 0.386E+01   0.116E-03 -.472E-03 -.123E-02
   -.108E+03 0.281E+02 -.108E+03   0.109E+03 -.326E+02 0.107E+03   0.169E+01 0.237E+01 0.253E+01   0.108E-02 0.542E-03 0.142E-02
   -.121E+03 0.252E+02 0.542E+02   0.121E+03 -.234E+02 -.529E+02   0.228E+01 -.149E+01 0.130E+00   -.139E-03 -.667E-03 0.709E-03
   -.626E+02 0.499E+02 0.108E+03   0.656E+02 -.487E+02 -.105E+03   -.942E+00 0.822E+00 -.441E+01   0.110E-02 0.702E-03 -.187E-03
   -.120E+03 -.712E+02 0.647E+02   0.118E+03 0.670E+02 -.627E+02   0.365E+01 0.155E+01 -.312E+01   0.972E-03 -.770E-03 0.101E-02
   -.528E+00 0.177E+03 -.478E+02   -.181E+00 -.181E+03 0.457E+02   0.596E+00 0.190E+01 0.130E+01   -.132E-02 -.282E-03 -.365E-03
   -.850E+02 -.255E+03 0.850E+02   0.850E+02 0.252E+03 -.858E+02   0.247E+01 0.377E+01 0.758E-01   -.253E-03 0.103E-03 -.643E-03
   0.254E+02 0.115E+03 0.592E+02   -.276E+02 -.114E+03 -.629E+02   0.213E+01 -.898E+00 0.250E+01   -.582E-03 0.487E-03 0.576E-03
   0.182E+02 -.675E+02 -.752E+02   -.188E+02 0.700E+02 0.747E+02   0.106E+01 -.117E+01 0.129E+01   0.143E-02 0.978E-03 -.144E-02
   0.125E+03 -.106E+03 0.110E+03   -.125E+03 0.107E+03 -.105E+03   0.354E+00 -.612E+00 -.342E+01   -.814E-03 -.757E-03 0.103E-04
   0.616E+02 -.102E+03 -.107E+03   -.633E+02 0.104E+03 0.107E+03   0.231E+00 0.133E+00 0.344E+00   -.196E-02 -.286E-03 -.340E-03
   -.982E+01 0.236E+02 -.626E+02   0.106E+02 -.239E+02 0.550E+02   -.167E+01 0.346E+00 0.623E+01   -.262E-03 0.107E-02 -.104E-02
   -.179E+03 0.750E+02 0.210E+03   0.179E+03 -.709E+02 -.209E+03   0.252E+01 -.212E+01 -.327E+01   0.126E-02 0.941E-03 0.682E-03
   -.638E+01 0.480E+02 -.681E+02   0.696E+00 -.519E+02 0.630E+02   0.585E+01 0.357E+01 0.724E+01   0.162E-03 0.391E-03 -.260E-03
   -.903E+02 0.717E+01 -.412E+02   0.881E+02 -.564E+01 0.350E+02   0.539E+01 -.402E+01 0.817E+01   -.283E-03 0.199E-03 0.103E-03
   -.536E+02 0.713E+02 -.334E+02   0.549E+02 -.587E+02 0.307E+02   -.838E+00 -.133E+02 -.826E+00   0.444E-04 -.954E-04 -.442E-04
   0.445E+02 0.422E+02 0.313E+01   -.320E+02 -.366E+02 -.438E+01   -.132E+02 -.369E+01 0.265E+01   -.348E-03 0.140E-03 -.251E-04
   0.201E+02 -.642E+02 -.158E+02   -.194E+02 0.651E+02 0.123E+02   -.231E+01 -.251E+01 0.957E+01   -.246E-03 -.204E-03 -.424E-03
   -.977E+02 0.183E+01 -.947E+01   0.912E+02 -.116E+01 0.741E+01   0.113E+02 0.244E+00 0.230E+01   0.761E-04 0.606E-03 -.251E-03
   0.139E+02 -.101E+02 0.576E+02   -.151E+02 0.159E+02 -.422E+02   0.265E+01 -.656E+01 -.156E+02   -.826E-05 0.371E-03 0.884E-04
   -.174E+02 -.229E+01 0.102E+02   0.199E+02 0.867E+01 -.558E+01   -.184E+01 -.598E+01 0.115E+01   -.261E-04 -.245E-03 0.461E-03
   -.200E+02 0.733E+01 0.586E+01   0.184E+02 -.764E+01 -.507E+01   -.664E+00 0.384E+00 -.606E+01   -.347E-03 -.491E-04 -.151E-03
   0.330E+02 -.515E+02 -.918E+00   -.320E+02 0.486E+02 -.138E+01   -.925E+00 0.485E+01 0.387E+01   0.332E-03 0.157E-03 0.128E-03
   -.485E+02 0.118E+02 0.356E+02   0.469E+02 -.726E+01 -.384E+02   0.636E+01 -.604E+01 -.210E+01   -.490E-03 0.208E-03 0.430E-03
   -.876E+01 -.268E+02 0.307E+02   0.114E+02 0.184E+02 -.305E+02   -.514E+01 0.110E+02 -.509E+00   -.305E-03 -.264E-03 -.164E-03
   0.735E+02 -.216E+02 -.769E+02   -.718E+02 0.122E+02 0.791E+02   0.747E+00 0.716E+01 -.381E+01   0.344E-04 0.994E-04 -.331E-03
   0.524E+02 0.470E+02 0.349E+02   -.390E+02 -.441E+02 -.343E+02   -.173E+02 -.557E+01 -.136E+01   0.365E-03 -.266E-03 -.571E-04
   0.146E+02 0.189E+02 0.346E+02   -.200E+02 -.195E+02 -.404E+02   0.143E+01 0.262E+00 -.365E+00   0.688E-03 -.235E-03 0.340E-03
   0.642E+02 0.254E+02 -.391E+02   -.634E+02 -.206E+02 0.354E+02   0.857E+00 -.372E+01 0.553E+01   0.268E-04 -.204E-03 -.295E-05
   0.260E+02 -.711E+01 -.628E+02   -.258E+02 0.364E+00 0.527E+02   -.224E+00 0.728E+01 0.175E+02   0.396E-03 -.427E-04 0.171E-03
   0.414E+01 0.144E+02 0.193E+02   0.321E+01 -.165E+02 -.174E+02   -.324E+01 0.462E+01 -.232E+00   -.814E-04 0.189E-03 -.367E-03
   0.393E+01 -.571E+01 0.710E+02   -.717E+01 0.698E+01 -.665E+02   0.537E+01 -.532E+01 -.686E+01   0.496E-03 0.104E-03 0.672E-03
   0.899E+02 0.495E+01 0.254E+02   -.814E+02 -.138E+02 -.220E+02   -.122E+02 0.760E+01 -.463E+01   0.316E-03 -.147E-03 0.548E-03
   -.192E+02 -.558E+01 -.176E+02   0.177E+02 0.685E-01 0.900E+01   0.619E+01 0.646E+01 0.766E+01   0.375E-03 0.546E-03 0.314E-04
   0.677E+02 0.355E+02 -.645E+02   -.646E+02 -.269E+02 0.591E+02   0.500E+00 -.783E+01 0.545E+01   0.301E-03 -.149E-03 0.312E-03
   0.463E+02 0.268E+02 0.412E+02   -.468E+02 -.275E+02 -.360E+02   -.344E+01 0.158E+01 -.329E+01   -.454E-03 -.386E-03 -.127E-03
   0.408E+02 -.303E+02 -.153E+02   -.439E+02 0.245E+02 0.160E+02   0.833E+01 0.105E+02 0.272E-01   0.624E-03 0.218E-04 -.810E-04
   0.398E+02 -.789E+02 0.281E+02   -.340E+02 0.757E+02 -.283E+02   -.770E+01 0.208E+01 0.161E+00   0.184E-03 -.170E-03 -.948E-04
   0.162E+02 0.185E+01 -.247E+02   -.120E+02 0.130E+01 0.255E+02   -.556E+01 -.533E+01 -.283E+00   -.513E-03 0.416E-03 -.293E-03
   -.375E+01 -.909E+00 0.445E+02   0.186E+00 0.573E+01 -.385E+02   0.111E+02 -.573E+01 -.262E+01   -.315E-03 -.410E-03 0.883E-04
   -.123E+02 -.154E+02 -.618E+02   0.300E+02 -.454E+01 0.825E+02   -.161E+02 0.195E+02 -.204E+02   -.348E-04 -.423E-03 0.925E-03
   -.495E+02 -.850E+01 0.967E+02   0.485E+02 0.149E+02 -.124E+03   -.524E+00 -.530E+01 0.272E+02   0.603E-03 0.266E-03 0.411E-03
   -.637E+02 0.197E+02 0.441E+02   0.837E+02 -.123E+02 -.551E+02   -.193E+02 -.891E+01 0.108E+02   0.623E-03 0.291E-03 -.726E-03
   -.519E+02 0.554E+02 -.719E+02   0.637E+02 -.708E+02 0.882E+02   -.125E+02 0.152E+02 -.184E+02   -.341E-03 -.104E-02 0.723E-03
   0.105E+02 0.221E+02 0.935E+02   -.313E+02 -.640E+01 -.971E+02   0.216E+02 -.177E+02 0.136E+01   -.558E-03 0.267E-03 -.586E-03
   0.546E+02 -.250E+02 0.285E+01   -.620E+02 -.155E+01 -.623E+00   0.700E+01 0.231E+02 -.348E+01   0.109E-02 0.759E-04 -.881E-04
[...]
   -.537E+02 0.487E+02 -.174E+02   0.666E+02 -.495E+02 0.449E+02   -.119E+02 -.143E+01 -.232E+02   0.484E-03 -.497E-03 0.509E-03
   -.184E+02 -.950E+02 0.725E+02   0.326E+02 0.957E+02 -.959E+02   -.154E+02 0.101E+01 0.249E+02   0.429E-03 0.633E-04 -.300E-03
   0.218E+02 0.313E+02 -.101E+03   -.455E+02 -.237E+02 0.971E+02   0.213E+02 -.976E+01 0.724E+01   -.266E-03 -.157E-03 0.712E-03
   -.509E+02 -.173E+02 0.309E+02   0.614E+02 0.349E+02 -.397E+02   -.107E+02 -.200E+02 0.770E+01   0.968E-03 0.480E-03 -.704E-03
   -.234E+02 0.257E+01 0.327E+02   0.373E+02 -.121E+02 -.377E+02   -.958E+01 0.120E+02 0.136E+01   -.347E-03 0.252E-03 -.685E-03
   -.446E+01 -.265E+02 0.172E+02   0.124E+02 0.126E+02 -.174E+02   -.133E+02 0.166E+02 0.182E+01   -.341E-03 0.130E-03 0.280E-03
   -.117E+03 0.194E+02 0.750E+02   0.122E+03 -.319E+02 -.611E+02   -.386E+01 0.134E+02 -.156E+02   -.688E-03 0.219E-04 0.443E-03
   -.304E+01 0.213E+02 -.379E+02   -.157E+01 -.487E+02 0.502E+02   0.163E+01 0.263E+02 -.128E+02   -.826E-03 -.446E-03 0.370E-03
   -.507E+02 -.151E+03 -.434E+02   0.687E+02 0.170E+03 0.558E+02   -.143E+02 -.162E+02 -.106E+02   0.306E-03 0.838E-03 -.118E-03
   -.608E+02 -.889E+02 -.566E+02   0.697E+02 0.806E+02 0.712E+02   -.482E+01 0.116E+02 -.143E+02   0.901E-03 -.156E-03 -.366E-03
   -.665E+02 -.582E+02 0.294E+02   0.896E+02 0.733E+02 -.334E+02   -.273E+02 -.177E+02 0.398E+01   -.157E-03 -.187E-04 -.110E-04
   0.494E+02 -.541E+02 -.733E+02   -.497E+02 0.550E+02 0.996E+02   -.508E+00 0.531E+00 -.270E+02   0.170E-03 -.160E-03 0.153E-02
   0.796E+02 -.364E+02 0.870E+02   -.737E+02 0.398E+02 -.124E+03   -.802E+01 -.449E+01 0.300E+02   0.386E-03 0.532E-03 -.107E-02
   -.254E+02 0.904E+02 0.250E+02   0.217E+02 -.107E+03 -.264E+01   0.438E+01 0.169E+02 -.242E+02   -.579E-03 0.267E-03 0.989E-04
   0.112E+03 0.105E+02 -.111E+02   0.213E-13 -.171E-12 -.125E-12   -.112E+03 -.106E+02 0.112E+02   0.204E-02 0.117E-02 0.207E-02

 POSITION                                       TOTAL-FORCE (eV/Angst)
      6.85523     10.54972      7.05714         0.340312      0.419078      1.350610
      6.83460      9.25435      1.17485         1.052055      1.206143     -0.010381
      4.31123      2.37515     10.94015        -0.065900      1.447006      0.370471
     10.05780      4.73976      5.39288        -0.620499      0.440548     -1.141894
      7.44323      3.19309     11.22038         0.461491      0.481005     -0.016232
     11.54418      4.93066      1.00288        -2.286423      2.596091      0.503646
      5.98215      5.95159     12.04530        -1.453161      1.181272     -0.214881
      9.76384     10.89168      5.03983        -0.330909      1.229633      1.308101
      0.65573      7.40574      8.91935        -1.176544      0.326390      0.147644
     11.66888     10.19283      8.25844        -2.986778     -1.137150      2.931910
      3.16319      8.57710      6.96266         0.805993     -1.575130     -1.079650
      7.19066      2.43057      5.56224        -2.210894     -2.591688     -0.349625
      9.04324      8.32029      9.94864         0.804583      1.886023     -0.328390
      3.62980      6.74460      3.33440        -0.980423      1.245788      0.658112
      2.20226     11.77292      9.34362        -2.520751     -3.972671      3.107579
      3.36469      0.44058      1.24064         2.834300     -2.201728      1.485939
      0.95133     10.50980      3.30859         2.143351      0.329491      1.441519
      1.82650      5.69042     11.16825         2.024073      2.017951     -0.773801
      0.23671      2.23030      3.29039         1.638879     -2.603509     -1.136216
      6.97023      8.62820      4.67391        -0.114982     -1.507014     -0.792861
      3.92206      3.46531      5.88057         2.406987      0.536161     -0.700327
     10.06374      1.22225      0.44212        -0.093202     -0.016956     -1.218284
      1.21867      2.63194      8.94427         0.481127      1.376345      0.760625
      7.62230      5.45654      7.39236         0.050978      0.979680      0.957674
      7.24692      4.23585      2.68907        -1.437719      2.035333     -0.270255
      3.37566      0.22512      5.98943        -0.908868      0.045842     -1.412199
      0.16371      6.37476      4.39604         2.797210      1.954289     -2.843880
      9.58820      3.25680      7.93386         0.173085     -0.305610      2.136083
      5.85400     10.62929     10.04544         3.128287     -2.487792      1.943750
      1.91607      5.51803      6.80212         0.449011     -0.744123     -3.520547
      8.99734      2.06318      3.07238        -0.703651      1.963995      1.392283
      5.22161      4.02033      8.67022        -1.592132     -1.581464      5.980777
      5.02537      1.19884      8.18581         4.726908      0.916737      0.244086
      4.33769      2.27233      3.23528         1.427047     -0.735268     -0.208627
      4.16289      8.60779      0.59342         0.626603      0.393715      5.795823
      3.51216      8.95665      9.97935        -2.217893      0.082333     -5.276587
      0.66563      2.49528     11.73597         0.070032      2.015740      1.565820
      6.69921      0.33981      0.32196         4.735871     -1.476927     -4.888038
      5.83414      7.61187      8.36419        -2.517700      2.498581     -0.317378
      9.32257      0.35693      8.10163         2.453527     -2.170166     -1.547284
      0.38471      9.02155      5.70640        -3.933495     -2.716277     -0.757406
     11.66353      9.89147      0.24538        -4.003503     -0.394443     -6.181311
      9.44311      6.71656      2.81913         1.648361      1.138373      1.818599
      1.37340      7.87007      1.01130        -0.001124      0.540657      7.417802
     10.10946      4.79513     10.23159         4.111563      2.533757      1.666933
      9.83537      9.85939      2.46820         2.130716     -4.054607     -2.333070
      1.14271      0.00274      0.27702        -3.626768     -1.224918     -1.239381
      0.14863      3.26402      6.42628         4.636684      0.948973     -0.917427
      4.14879      4.43413      1.44224         3.598566      0.775655      0.038302
      4.53781     10.16702      4.21910        -3.941125      0.823766      1.922328
      9.79523      7.86858      6.75093         5.217739      4.638722      0.712228
      0.23392      0.19963      6.33223        -1.887091     -1.063397     -0.032225
      6.71791     12.08295      3.09409        -1.338302     -2.181322      0.545634
      8.74408      6.42397     12.00299         7.490362     -0.899475      3.340540
      6.82821      6.64917      9.05703         1.680715     -0.466232      0.370695
     12.05297      3.44640      4.89676        -1.480856      1.130991     -0.432290
     11.57412      5.21238      9.60223         0.725912     -1.570407     -0.114676
      5.40634      7.73546      1.29977        -0.693374     -0.159802     -2.058825
      3.24917     11.20639      4.20007         0.744569     -2.026806     -2.245188
      9.22979      6.47797      6.78233        -0.441642     -3.491606     -1.254523
[...]
      3.30301      1.95130      4.31508        -2.772833     -1.358760      2.090983
      1.04722      8.86655      7.05537         1.128281     -2.200763      4.305258
      1.03336      0.34794      4.89521        -1.200739      1.693888      1.363211
      0.42789      5.75889      6.28554        -2.386200     -2.194866      3.528723
      1.37239      3.78263     11.10483        -0.131037     -2.395643     -1.108963
      5.90957     10.61856      3.57875         4.250390      2.546351     -3.706304
      2.06229      3.67343      6.58627        -5.379144      2.666969      1.642202
      6.45204     10.88996     11.58615         1.004950      0.821322     -1.733180
      8.04849      5.10710      0.35853        -2.986080     -1.091886     -0.484533
      5.33961      3.21621      3.92166         3.678900      3.247949      1.824001
      0.81464     11.58365      7.67863         4.068935      3.205410      0.255839
     10.14211      6.50653     10.92575        -4.162800     -2.548232     -0.059243
      1.29596      0.01588      1.89753        -0.812696      1.461769     -0.674977
      1.55898      7.70207     11.67267        -2.191313     -1.086462     -7.364139
      9.91701      3.77249     11.49684         0.710132      0.277509     -1.925896
    total drift:                                0.020436     -0.013033      0.029185

  FREE ENERGIE OF THE ION-ELECTRON SYSTEM (eV)
  free  energy   TOTEN  =      -942.41034206 eV

  energy  without entropy=     -942.41034206  energy(sigma->0) =     -942.41034206