 vasp.5.4.4.18Apr17-6-g9f103f2a35 (build Oct 31 2019 15:01:46) complex

 executed on             LinuxIFC date 2024.04.29  17:50:08

 INCAR:
 POTCAR:    PAW_PBE Ca_sv 06Sep2000
 POTCAR:    PAW_PBE Si 05Jan2001
 POTCAR:    PAW_PBE O 08Apr2002
 POTCAR:    PAW_PBE Ca_sv 06Sep2000
   VRHFIN =Ca: 3s3p4s

   TITEL  = PAW_PBE Ca_sv 06Sep2000
   POMASS =   40.078; ZVAL   =   10.000    mass and valenz
   ENMAX  =  266.622; ENMIN  =  199.967 eV

   TITEL  = PAW_PBE Si 05Jan2001
   POMASS =   28.085; ZVAL   =    4.000    mass and valenz
   ENMAX  =  245.345; ENMIN  =  184.009 eV

   TITEL  = PAW_PBE O 08Apr2002
   POMASS =   16.000; ZVAL   =    6.000    mass and valenz
   ENMAX  =  400.000; ENMIN  =  300.000 eV

 Optimization of the real space projectors (new method)

 maximal supplied QI-value         = 16.25
 optimisation between [QCUT,QGAM] = [ 12.51, 25.03] = [ 43.85,175.40] Ry
 Optimized for a Real-space Cutoff    1.47 Angstroem

   l    n(q)    QCUT    max X(q) W(low)/X(q) W(high)/X(q)  e(spline)
   0     11    12.514    11.817    0.25E-04    0.32E-05    0.87E-07
   0     11    12.514     8.461    0.39E-04    0.59E-05    0.18E-06
   1     11    12.514     3.957    0.97E-05    0.57E-05    0.28E-07
   1     11    12.514     4.314    0.42E-04    0.14E-04    0.23E-06
   2     10    12.514    14.565    0.79E-04    0.50E-03    0.16E-05
   2     10    12.514    14.552    0.75E-04    0.48E-03    0.15E-05
 Optimization of the real space projectors (new method)

[...]

   l    n(q)    QCUT    max X(q) W(low)/X(q) W(high)/X(q)  e(spline)
   0      9    12.501   159.560    0.10E-03    0.83E-04    0.71E-07
   0      9    12.501   115.863    0.99E-04    0.81E-04    0.70E-07
   1      8    12.501    88.339    0.20E-03    0.25E-03    0.76E-07
   1      8    12.501    48.592    0.20E-03    0.24E-03    0.75E-07
 Optimization of the real space projectors (new method)

 maximal supplied QI-value         = 24.76
 optimisation between [QCUT,QGAM] = [ 12.38, 25.00] = [ 42.90,175.06] Ry
 Optimized for a Real-space Cutoff    1.16 Angstroem

   l    n(q)    QCUT    max X(q) W(low)/X(q) W(high)/X(q)  e(spline)
   0      9    12.378    20.381    0.16E-03    0.67E-05    0.31E-06
   0      9    12.378    15.268    0.17E-03    0.81E-05    0.33E-06
   1      8    12.378     5.964    0.20E-03    0.16E-03    0.30E-06
   1      8    12.378     5.382    0.18E-03    0.14E-03    0.26E-06
  PAW_PBE Ca_sv 06Sep2000               :
  PAW_PBE Si 05Jan2001                  :
  PAW_PBE O 08Apr2002                   :

 POSCAR: Ca Si  O
  positions in direct lattice
 exchange correlation table for  LEXCH =        8
   RHO(1)=    0.500       N(1)  =     2000
   RHO(2)=  100.500       N(2)  =     4000

 ion  position               nearest neighbor table
   1  0.469  0.999  0.736- 117 2.22 107 2.33 125 2.34  52 3.02
   2  0.201  0.781  0.915- 127 1.97 124 2.48  31 3.06
   3  0.078  0.223  0.504-  57 2.03 128 2.23 114 2.30  75 2.43
   4  0.789  0.364  0.964-  93 1.96  92 2.19  84 2.36
   5  0.992  0.144  0.954-  78 2.06  84 2.23  90 2.41  64 2.41  46 2.76  33 3.09
   6  0.066  0.468  0.293- 133 2.24
   7  0.663  0.160  0.569-  73 2.02 100 2.21  60 2.45  58 2.51 121 2.53  38 2.68  23 2.93  41 3.05
                            37 3.06
   8  0.919  0.815  0.064-  66 2.13  59 2.35  83 2.45  34 2.87  42 3.05  18 3.13
   9  0.338  0.298  0.346- 126 2.33 108 2.42  57 2.44  80 2.52
  10  0.531  0.272  0.939- 122 2.36 115 2.46
  11  0.241  0.262  0.018-  64 2.24 130 2.54  65 2.55  54 2.95  30 3.06
  12  0.914  0.479  0.747-  74 2.17  61 2.45  93 2.48  39 2.79
  13  0.681  0.692  0.666- 116 2.00 111 2.23 103 2.44 123 2.57
  14  0.963  0.716  0.456-  96 1.82 134 2.17  35 2.80
  15  0.578  0.015  0.072-  82 2.08  85 2.12  91 2.43  31 3.05
  16  0.811  0.460  0.272- 133 2.13  55 2.21 101 2.36  89 2.51  45 2.79  48 2.99
  17  0.057  0.086  0.221-  64 2.12  67 2.29 128 2.33 132 2.40 120 2.44  29 2.61  50 2.64
  18  0.935  0.577  0.024-  70 2.13  93 2.26  83 2.28  59 2.28  89 2.33  43 2.95   8 3.13
  19  0.439  0.838  0.525- 123 2.19 104 2.20  99 2.25  47 2.92
  20  0.164  0.831  0.191- 131 2.05 132 2.21 102 2.35  50 2.97
  21  0.814  0.937  0.286-  77 2.20  67 2.23  79 2.25  94 2.54  66 2.55  42 2.72  44 2.89
  22  0.364  0.603  0.244- 102 1.99 126 2.24  86 2.34  54 2.73
  23  0.539  0.059  0.408-  94 1.95 121 2.19 100 2.24  72 2.43   7 2.93
  24  0.174  0.594  0.084-  59 2.02  54 2.65
  25  0.350  0.278  0.722- 125 2.15 110 2.39  71 2.50  30 3.11  52 3.14
  26  0.367  0.533  0.834-  71 1.88 127 2.14  62 2.45  27 3.15
  27  0.344  0.500  0.594- 105 2.11  80 2.12  62 2.25  26 3.15
  28  0.547  0.826  0.265- 104 1.63  82 2.05  44 3.11
  29  0.244  0.069  0.293- 108 1.62  76 1.64 132 1.84 128 1.90  53 2.40  17 2.61  50 3.03
  30  0.149  0.362  0.824-  81 1.46  63 1.58 110 1.72  61 2.21  46 2.80  11 3.06  25 3.11
  31  0.397  0.902  0.973- 107 1.56 124 1.76 106 2.15 117 2.46  53 3.05  15 3.05   2 3.06  36 3.09

  32  0.883  0.979  0.613-  87 1.44  73 1.85 135 1.92  38 2.67
  33  0.814  0.124  0.113-  79 1.61  85 1.74  90 1.79  84 1.95 101 2.51  51 2.66  48 2.84   5 3.09

[...]

  51  0.692  0.188  0.266-  69 1.45 100 1.76  79 1.96 101 2.01  33 2.66
  52  0.309  0.081  0.587-  72 1.48 125 1.55  99 2.12   1 3.02  25 3.14
  53  0.343  0.063  0.136-  65 1.56  88 1.70 108 1.81 132 1.98  29 2.40  31 3.05
  54  0.328  0.459  0.093- 122 1.73  86 1.82 130 1.86 126 1.92  24 2.65  22 2.73  11 2.95
  55  0.869  0.620  0.288-  42 1.70  16 2.21
  56  0.741  0.508  0.471-  49 1.49
  57  0.232  0.253  0.496-   3 2.03   9 2.44
  58  0.782  0.290  0.650-  38 1.74  41 1.96   7 2.51
  59  0.056  0.696  0.072-  24 2.02  18 2.28   8 2.35
  60  0.573  0.315  0.629-  37 1.66  41 1.83   7 2.45
  61  0.983  0.330  0.842-  46 2.19  30 2.21  12 2.45
  62  0.356  0.648  0.683-  47 1.54  27 2.25  26 2.45
  63  0.148  0.417  0.934-  30 1.58
  64  0.114  0.171  0.093-  17 2.12  11 2.24   5 2.41
  65  0.379  0.122  0.037-  53 1.56  11 2.55
  66  0.786  0.790  0.158-  42 1.48   8 2.13  21 2.55
  67  0.952  0.019  0.347-  50 1.75  21 2.23  17 2.29
  68  0.934  0.924  0.835-  34 1.55
  69  0.596  0.149  0.224-  51 1.45
  70  0.787  0.533  0.083-  45 1.80  18 2.13  43 2.17
  71  0.454  0.432  0.777-  26 1.88  25 2.50
  72  0.372  0.058  0.495-  52 1.48  23 2.43
  73  0.802  0.096  0.597-  38 1.48  32 1.85   7 2.02
  74  0.887  0.540  0.593-  39 1.50  12 2.17
  75  0.021  0.374  0.601-  39 1.68   3 2.43
  76  0.226  0.960  0.354-  29 1.64  50 2.15
  77  0.742  0.789  0.332-  42 1.52  44 1.82  21 2.20
  78  0.047  0.093  0.813-  46 1.57   5 2.06
  79  0.814  0.103  0.236-  33 1.61  51 1.96  21 2.25
  80  0.389  0.358  0.524-  37 1.57  27 2.12   9 2.52
  81  0.162  0.252  0.805-  30 1.46  46 1.95
  82  0.645  0.915  0.178-  28 2.05  15 2.08
  83  0.925  0.709  0.908-  34 1.59  18 2.28   8 2.45
  84  0.889  0.240  0.053-  48 1.72  33 1.95   5 2.23   4 2.36
  85  0.705  0.113  0.035-  33 1.74  15 2.12
  86  0.377  0.588  0.064-  54 1.82  22 2.34
  87  0.963  0.919  0.662-  32 1.44
  88  0.424  0.981  0.200-  53 1.70
  89  0.945  0.436  0.134-  48 1.79  18 2.33  16 2.51
  90  0.911  0.030  0.077-  33 1.79   5 2.41
  91  0.619  0.887  0.940-  36 1.53  15 2.43
  92  0.706  0.414  0.825-  41 1.71   4 2.19
  93  0.822  0.504  0.913-   4 1.96  43 2.19  18 2.26  12 2.48
  94  0.651  0.959  0.393-  44 1.76  23 1.95  21 2.54
  95  0.209  0.783  0.704-  47 1.73  40 2.43
  96  0.064  0.634  0.403-  35 1.73  14 1.82
  97  0.869  0.184  0.784-  38 1.49  46 2.15
  98  0.537  0.448  0.421-  49 1.74  37 2.02
  99  0.290  0.921  0.555-  40 1.70  52 2.12  19 2.25
 100  0.677  0.163  0.399-  51 1.76   7 2.21  23 2.24
 101  0.806  0.285  0.222-  48 1.87  51 2.01  16 2.36  33 2.51
 102  0.230  0.677  0.260-  22 1.99  20 2.35  35 2.50
 103  0.821  0.789  0.749-  34 1.59  13 2.44
 104  0.462  0.817  0.357-  28 1.63  19 2.20
 105  0.273  0.625  0.517-  35 1.74  27 2.11
 106  0.469  0.774  0.895-  36 1.59  31 2.15
 107  0.450  0.993  0.915-  31 1.56   1 2.33
 108  0.297  0.161  0.225-  29 1.62  53 1.81   9 2.42
 109  0.238  0.801  0.433-  35 1.65  40 1.97
 110  0.216  0.407  0.719-  30 1.72  25 2.39
[...]
 121  0.502  0.211  0.471-  37 1.68  23 2.19   7 2.53
 122  0.421  0.386  0.030-  54 1.73  10 2.36
 123  0.603  0.795  0.515-  44 1.59  19 2.19  13 2.57
 124  0.269  0.942  0.995-  31 1.76   2 2.48
 125  0.334  0.115  0.699-  52 1.55  25 2.15   1 2.34
 126  0.377  0.430  0.230-  54 1.92  22 2.24   9 2.33
 127  0.301  0.683  0.854-   2 1.97  26 2.14  47 2.14
 128  0.146  0.153  0.362-  29 1.90   3 2.23  17 2.33
 129  0.075  0.963  0.506-  40 1.72  50 1.86
 130  0.205  0.406  0.146-  54 1.86  11 2.54
 131  0.058  0.830  0.309-  50 1.60  20 2.05
 132  0.212  0.994  0.176-  29 1.84  53 1.98  20 2.21  17 2.40
 133  0.924  0.454  0.392-  39 1.93  16 2.13   6 2.24
 134  0.103  0.756  0.540-  40 1.74  35 1.78  14 2.17
 135  0.789  0.902  0.529-  44 1.72  32 1.92

IMPORTANT INFORMATION: All symmetrisations will be switched off!
NOSYMM: (Re-)initialisation of all symmetry stuff for point group C_1.

Automatic generation of k-mesh.
 generate k-points for:    2    2    2
Space group operators:
 irot       det(A)        alpha          n_x          n_y          n_z        tau_x        tau_y        tau_z
    1     1.000000     0.000000     1.000000     0.000000     0.000000     0.000000     0.000000     0.000000

 Subroutine IBZKPT returns following result:

 Found      8 irreducible k-points:

 Following reciprocal coordinates:
            Coordinates               Weight
  0.000000  0.000000  0.000000      1.000000
  0.500000  0.000000  0.000000      1.000000
  0.000000  0.500000  0.000000      1.000000
  0.500000  0.500000  0.000000      1.000000
  0.000000  0.000000  0.500000      1.000000
  0.500000  0.000000  0.500000      1.000000
  0.000000  0.500000  0.500000      1.000000
  0.500000  0.500000  0.500000      1.000000

 Following cartesian coordinates:
            Coordinates               Weight
  0.000000  0.000000  0.000000      1.000000
  0.038669  0.000000  0.000000      1.000000
  0.000000  0.038669  0.000000      1.000000
  0.038669  0.038669  0.000000      1.000000
  0.000000  0.000000  0.038669      1.000000
  0.038669  0.000000  0.038669      1.000000
  0.000000  0.038669  0.038669      1.000000
  0.038669  0.038669  0.038669      1.000000

 SYSTEM =  unknown system
 POSCAR =  Ca Si  O

 Startparameter for this run:
   NWRITE =      2    write-flag & timer
   PREC   = a         normal or accurate (medium, high low for compatibility)
   ISTART =      0    job   : 0-new  1-cont  2-samecut
   ICHARG =      2    charge: 1-file 2-atom 10-const
   ISPIN  =      1    spin polarized calculation?
   LNONCOLLINEAR =      F non collinear calculations
   LSORBIT =      F    spin-orbit coupling
   INIWAV =      1    electr: 0-lowe 1-rand  2-diag
   LASPH  =      F    aspherical Exc in radial PAW
   METAGGA=      F    non-selfconsistent MetaGGA calc.

 Electronic Relaxation 1
   ENCUT  =  600.0 eV  44.10 Ry    6.64 a.u.  25.83 25.83 25.83*2*pi/ulx,y,z
   ENINI  =  600.0     initial cutoff
   ENAUG  =  605.4 eV  augmentation charge cutoff
   NELM   =     60;   NELMIN=  2; NELMDL= -5     # of ELM steps
[...]
     0.000000000  0.000000000 12.930412990     0.000000000  0.000000000  0.077337050

  length of vectors
    12.930412990 12.930412990 12.930412990     0.077337050  0.077337050  0.077337050

 FORCES acting on ions
    electron-ion (+dipol)            ewald-force                    non-local-force                 convergence-correction
   -.182E+03 -.107E+03 0.272E+02   0.178E+03 0.103E+03 -.175E+02   0.503E+01 0.358E+01 -.676E+01   0.380E-02 -.392E-02 0.272E-02
   0.230E+03 -.932E+02 0.209E+02   -.225E+03 0.931E+02 -.267E+02   -.606E+01 0.167E+01 0.435E+01   0.815E-02 -.101E-01 -.538E-02
   0.145E+03 -.599E+02 -.416E+02   -.139E+03 0.606E+02 0.398E+02   -.629E+01 -.730E+00 0.496E+00   -.224E-01 0.115E-02 0.907E-02
   0.945E+02 0.217E+03 0.380E+02   -.957E+02 -.213E+03 -.391E+02   0.556E+00 -.573E+01 0.231E+01   -.370E-02 0.456E-02 -.200E-02
   -.346E+02 0.178E+03 0.972E+02   0.358E+02 -.181E+03 -.955E+02   -.121E+01 0.144E+01 -.317E+00   -.663E-02 -.156E-02 -.699E-02
   -.206E+03 -.756E+00 -.128E+03   0.201E+03 -.822E+00 0.128E+03   0.469E+01 0.128E+01 -.486E+00   -.846E-03 0.887E-02 -.191E-02
   0.316E+02 0.585E+02 -.119E+03   -.321E+02 -.517E+02 0.113E+03   -.271E+01 -.425E+01 0.413E+01   -.266E-03 -.918E-03 0.190E-02
   -.159E+02 -.150E+03 0.170E+03   0.155E+02 0.149E+03 -.172E+03   0.137E+01 0.242E+01 0.720E+00   -.306E-02 -.361E-02 -.206E-02
   -.678E+02 -.133E+03 0.513E+02   0.676E+02 0.135E+03 -.506E+02   0.347E+00 -.112E+01 -.363E+00   0.137E-01 0.984E-02 -.123E-01
   0.353E+02 0.102E+03 0.679E+01   -.350E+02 -.959E+02 -.417E+01   -.190E+00 -.409E+01 -.113E+01   0.156E-03 0.404E-02 -.204E-02
   -.135E+03 0.214E+02 0.142E+03   0.130E+03 -.227E+02 -.136E+03   0.333E+01 0.751E+00 -.468E+01   0.947E-02 0.831E-02 -.620E-02
   -.890E+02 -.220E+03 0.618E+02   0.866E+02 0.216E+03 -.590E+02   0.177E+01 0.232E+01 -.291E+00   -.160E-02 0.435E-02 0.181E-02
   -.162E+03 0.101E+03 -.236E+02   0.159E+03 -.957E+02 0.251E+02   0.481E+01 -.284E+01 0.233E+00   -.184E-02 0.461E-04 0.209E-02
   0.316E+03 -.138E+02 -.257E+03   -.312E+03 0.128E+02 0.258E+03   -.859E+01 0.347E+01 0.978E+00   -.143E-02 -.112E-02 0.166E-02
   0.650E+02 0.874E+01 0.143E+03   -.600E+02 -.111E+02 -.142E+03   -.547E+01 0.228E+01 -.163E+01   0.185E-02 -.680E-02 -.179E-03
   0.252E+03 0.399E+02 -.165E+03   -.251E+03 -.387E+02 0.168E+03   -.257E+01 -.127E+01 -.146E+01   -.423E-02 0.415E-02 -.850E-03
   0.101E+03 0.479E+02 0.610E+02   -.101E+03 -.388E+02 -.650E+02   -.134E+01 -.612E+01 0.158E+01   -.842E-02 -.107E-01 -.218E-02
   -.182E+03 -.738E+02 0.134E+03   0.178E+03 0.713E+02 -.135E+03   0.419E+01 0.110E+01 0.668E+00   -.216E-02 0.248E-02 -.282E-02
   -.724E+02 0.120E+03 -.831E+02   0.711E+02 -.123E+03 0.757E+02   0.318E+00 0.183E+01 0.548E+01   0.221E-02 -.395E-02 0.187E-03
   -.122E+03 0.869E+02 0.262E+03   0.126E+03 -.896E+02 -.256E+03   -.721E+00 0.107E+01 -.593E+01   0.240E-02 -.666E-02 -.280E-02
   -.307E+02 0.328E+02 -.147E+02   0.273E+02 -.248E+02 0.133E+02   0.219E+01 -.471E+01 0.349E+00   -.678E-02 -.451E-02 -.174E-02
   -.296E+03 -.875E+02 -.132E+03   0.294E+03 0.859E+02 0.131E+03   0.505E+01 0.160E+01 0.258E+01   0.375E-02 0.120E-02 -.322E-02
   0.152E+03 0.464E+02 0.186E+02   -.151E+03 -.417E+02 -.233E+02   -.423E+01 -.256E+01 0.198E+01   0.415E-02 -.462E-02 -.974E-03
   -.848E+02 0.134E+02 0.134E+03   0.849E+02 -.118E+02 -.131E+03   0.106E+01 -.261E+01 -.251E+01   0.390E-02 0.255E-02 -.450E-02
   -.490E+02 0.658E+02 -.996E+02   0.467E+02 -.606E+02 0.973E+02   0.196E+01 -.245E+01 0.156E+01   0.916E-02 0.731E-02 0.113E-01
   0.939E+01 -.257E+02 -.140E+03   -.841E+01 0.290E+02 0.141E+03   -.258E+01 -.101E+01 0.242E+01   0.264E-02 0.529E-02 -.327E-03
   0.291E+02 -.385E+02 0.856E+02   -.311E+02 0.420E+02 -.870E+02   0.140E+01 -.229E+01 0.203E+01   0.459E-02 0.971E-02 0.806E-02
   0.126E+02 0.121E+03 0.107E+03   -.160E+02 -.127E+03 -.104E+03   0.412E+01 0.794E+01 -.402E+01   0.738E-03 -.116E-02 -.131E-02
   -.941E+02 -.242E+02 -.606E+02   0.873E+02 0.217E+02 0.606E+02   0.209E+01 0.216E+01 0.287E+01   0.448E-02 -.470E-02 -.253E-02
   0.237E+02 -.124E+03 0.282E+02   -.183E+02 0.119E+03 -.254E+02   -.788E+01 0.145E+02 -.393E+01   0.799E-03 0.299E-02 0.769E-03
   0.620E+01 0.117E+03 -.995E+02   -.725E+01 -.104E+03 0.921E+02   -.111E+01 -.139E+02 0.465E+01   0.165E-02 -.289E-02 -.551E-03
   0.570E+02 -.188E+02 -.880E+01   -.390E+02 0.260E+01 0.180E+02   -.250E+02 0.163E+02 -.142E+02   -.159E-02 -.148E-02 0.936E-03
   0.481E+02 0.288E+01 0.836E+02   -.509E+02 -.119E+02 -.830E+02   0.320E+01 0.651E+01 -.646E+01   -.288E-02 -.983E-03 -.604E-03
   -.200E+02 -.168E+01 0.772E+01   0.184E+02 0.781E+01 -.156E+02   -.225E+00 -.598E+01 0.357E+01   -.672E-03 -.127E-02 0.513E-05
   -.403E+02 0.139E+03 0.670E+01   0.458E+02 -.134E+03 0.956E-01   -.293E+01 -.643E+01 -.490E+01   0.710E-03 -.323E-04 0.837E-03
   -.572E+02 0.344E+02 -.196E+02   0.553E+02 -.224E+02 0.201E+02   0.324E+01 -.137E+02 0.140E+01   -.523E-03 -.511E-04 0.124E-02
   -.885E+02 -.864E+02 0.387E+02   0.768E+02 0.805E+02 -.387E+02   0.114E+02 0.496E+01 -.285E+01   0.300E-02 0.162E-02 0.130E-02
   0.268E+02 0.243E+02 0.126E+02   -.253E+02 -.222E+02 0.591E+00   0.260E+01 0.747E+01 -.953E+01   -.175E-02 -.139E-03 0.783E-03
   -.670E+02 -.410E+00 0.323E+02   0.602E+02 0.783E+00 -.233E+02   0.801E+01 -.564E+01 -.149E+02   -.153E-02 0.237E-02 0.121E-02
   0.438E+02 -.332E+02 -.161E+03   -.414E+02 0.302E+02 0.155E+03   -.412E+00 -.792E+00 0.507E+01   0.577E-03 -.328E-02 0.149E-02
   0.125E+02 -.657E+02 0.172E+02   -.116E+02 0.634E+02 -.651E+01   -.486E+00 0.125E+01 -.100E+02   -.134E-02 0.144E-02 0.877E-03
   0.156E+02 0.111E+03 -.167E+02   -.165E+02 -.107E+03 0.118E+02   0.418E+01 -.140E+02 0.692E+01   -.187E-02 0.350E-04 -.479E-03
   -.895E+02 -.132E+03 0.171E+02   0.708E+02 0.128E+03 -.177E+02   0.259E+02 0.885E+00 0.859E+00   -.961E-03 0.317E-03 -.123E-03
   -.364E+02 0.944E+02 -.452E+02   0.244E+02 -.883E+02 0.520E+02   0.107E+02 -.163E+01 -.676E+01   -.105E-02 -.900E-03 -.569E-03
   0.879E+02 -.660E+02 -.103E+03   -.937E+02 0.590E+02 0.100E+03   0.311E+01 0.781E+01 0.135E+01   -.108E-02 0.129E-02 -.593E-03
   -.797E+02 -.315E+02 0.353E+02   0.752E+02 0.143E+02 -.296E+02   0.399E+01 0.184E+02 0.538E+00   -.154E-02 0.165E-03 0.135E-02
   -.319E+02 -.363E+02 0.342E+02   0.242E+02 0.293E+02 -.318E+02   0.163E+01 0.777E+01 0.347E+01   -.245E-03 -.331E-02 0.320E-02
   -.218E+02 -.243E+01 -.213E+02   0.264E+02 0.437E+01 0.241E+02   -.359E+01 0.147E+00 -.131E+01   -.380E-02 0.252E-02 -.137E-02
   0.466E+02 -.710E+01 -.210E+02   -.347E+02 0.102E+02 0.162E+02   -.183E+02 0.176E+00 0.554E+01   0.294E-04 0.123E-02 0.473E-03
   0.206E+02 -.227E+02 -.601E+02   -.269E+02 0.186E+02 0.577E+02   0.671E+01 0.696E+01 0.736E+01   -.132E-02 -.422E-02 0.424E-03
   -.255E+02 -.149E+03 -.202E+02   0.834E+01 0.137E+03 0.201E+02   0.257E+02 0.131E+02 0.628E+01   -.100E-02 -.409E-03 -.488E-03
   0.131E+03 -.238E+02 -.674E+02   -.117E+03 0.229E+02 0.624E+02   -.182E+02 0.186E+00 0.441E+01   0.344E-02 -.500E-02 0.322E-02
   -.268E+02 0.252E+02 0.383E+02   0.364E+02 -.222E+02 -.432E+02   -.100E+02 -.536E+01 0.604E+01   0.364E-02 -.205E-02 -.144E-02
   -.172E+02 -.954E+01 0.382E+02   0.240E+02 0.769E+01 -.363E+02   -.106E+01 -.105E+01 0.111E+01   0.169E-02 0.211E-02 -.718E-03
   0.231E+02 -.479E+02 -.494E+02   -.874E+01 0.284E+02 0.572E+02   -.158E+02 0.243E+02 -.875E+01   -.195E-02 0.122E-02 -.474E-03
   -.481E+01 -.492E+01 -.251E+02   0.458E+02 0.554E+01 0.168E+02   -.381E+02 -.106E+01 0.706E+01   -.910E-03 0.164E-02 0.483E-03
   -.271E+02 -.812E+02 -.724E+02   0.333E+02 0.850E+02 0.716E+02   -.477E+01 -.477E+01 0.223E+01   0.360E-02 0.289E-02 0.146E-02
   -.187E+02 -.150E+03 0.911E+02   0.234E+02 0.171E+03 -.102E+03   -.670E+01 -.225E+02 0.106E+02   -.199E-02 0.123E-02 0.111E-02
   -.266E+02 -.870E+02 0.646E+02   0.242E+02 0.891E+02 -.643E+02   0.216E+01 0.124E+00 -.664E-01   0.818E-03 -.476E-03 -.218E-02
   -.202E+02 -.101E+03 -.419E+02   0.179E+02 0.961E+02 0.536E+02   0.387E+01 0.580E+01 -.114E+02   0.806E-03 0.257E-02 0.362E-02
[...]
   -.497E+02 0.102E+02 0.142E+02   0.700E+02 -.156E+02 -.184E+02   -.242E+02 0.518E+01 0.349E+01   0.154E-02 0.353E-02 -.171E-02
   -.174E+02 0.104E+03 -.386E+02   -.407E+01 -.118E+03 0.526E+02   0.234E+02 0.143E+02 -.137E+02   -.447E-03 -.786E-03 -.296E-03
   0.990E+02 -.889E+01 0.829E+02   -.118E+03 0.224E+02 -.803E+02   0.220E+02 -.171E+02 -.266E+01   0.292E-02 -.531E-02 -.228E-02
   0.724E+02 0.452E+02 -.137E+03   -.719E+02 -.396E+02 0.168E+03   0.323E+00 -.620E+01 -.299E+02   0.393E-02 -.285E-02 0.502E-02
   -.121E+03 0.208E+02 -.680E+02   0.130E+03 -.265E+02 0.769E+02   -.104E+02 0.651E+01 -.101E+02   0.281E-02 0.397E-02 -.282E-02
   0.505E+02 0.586E+02 -.525E+02   -.464E+02 -.625E+02 0.538E+02   -.483E+01 0.444E+01 -.756E+00   0.211E-02 -.168E-02 0.674E-03
   0.408E+01 -.838E+02 -.890E+02   -.113E+02 0.950E+02 0.962E+02   0.965E+01 -.144E+02 -.983E+01   -.455E-02 -.500E-02 -.511E-02
   0.730E+02 -.851E+02 -.171E+03   -.899E+02 0.105E+03 0.182E+03   0.182E+02 -.218E+02 -.131E+02   -.175E-02 -.615E-02 0.255E-02
   0.128E+02 0.102E+02 -.438E+02   -.264E+02 -.210E+02 0.524E+02   0.151E+02 0.133E+02 -.109E+02   0.396E-02 0.607E-02 -.225E-02
   0.119E+03 0.936E+02 0.184E+02   -.120E+03 -.123E+03 -.272E+02   -.121E+01 0.296E+02 0.981E+01   -.658E-03 -.359E-02 -.127E-03
   -.415E+02 0.723E+02 0.178E+03   0.337E+02 -.837E+02 -.190E+03   0.957E+01 0.148E+02 0.120E+02   0.393E-02 -.686E-02 -.210E-02
   0.669E+01 0.835E+02 -.170E+03   -.145E+02 -.847E+02 0.161E+03   0.110E+02 0.734E+00 0.135E+02   -.282E-02 0.347E-02 0.704E-03
   0.941E+02 0.804E+02 -.274E+03   -.107E+03 -.905E+02 0.291E+03   0.121E+02 0.112E+02 -.163E+02   0.663E-03 -.178E-02 0.229E-02
   -.452E+02 0.451E+02 -.129E+03   0.481E+02 -.421E+02 0.136E+03   -.137E+01 -.315E+01 -.605E+01   -.196E-02 -.173E-02 0.687E-03
   -.149E+03 -.888E+02 0.300E+01   0.178E-12 0.810E-12 0.199E-12   0.149E+03 0.888E+02 -.298E+01   0.147E-03 -.235E-01 -.443E-02

 POSITION                                       TOTAL-FORCE (eV/Angst)
      6.06507     12.92368      9.51248         0.221337     -1.106558      2.940886
      2.60170     10.10212     11.83469        -1.181607      1.542436     -1.451762
      1.00692      2.88931      6.52272        -0.595081     -0.074410     -1.285874
     10.20064      4.71304     12.46419        -0.669362     -1.670415      1.173317
     12.82681      1.85572     12.33657        -0.079415     -0.986187      1.421762
      0.85089      6.04956      3.78546         0.049712     -0.287459     -0.624462
      8.57483      2.06855      7.35603        -3.219710      2.508513     -1.898037
     11.88146     10.54367      0.83308         1.026044      1.490201     -1.515868
      4.36928      3.84740      4.47979         0.144869      0.311993      0.331896
      6.86965      3.52155     12.14745         0.160344      1.569693      1.487087
      3.11935      3.38367      0.23428        -0.794246     -0.464508      1.448667
     11.82465      6.18867      9.65551        -0.605528     -1.310232      2.485687
      8.81127      8.94950      8.61347         1.479332      2.035096      1.700511
     12.45591      9.25835      5.90186        -4.573852      2.462640      1.901626
      7.47928      0.19972      0.92474        -0.460350     -0.057066     -0.617427
     10.48824      5.95061      3.52212        -1.359182      0.003483      0.801080
      0.73607      1.10599      2.85372        -1.717440      2.913530     -2.414431
     12.08766      7.46372      0.30752         0.273745     -1.388403     -0.110607
      5.68028     10.82984      6.78528        -0.922820     -1.466171     -1.874705
      2.11873     10.74212      2.47098         2.594227     -1.715019     -0.286711
     10.52083     12.11206      3.70014        -1.185658      3.203711     -1.068548
      4.70254      7.79497      3.15981         3.497446      0.021287      1.269795
      6.97282      0.75736      5.27635        -3.292326      2.117536     -2.702029
      2.24381      7.68578      1.09111         1.145743     -1.000972      0.486088
      4.52472      3.60090      9.32967        -0.340262      2.693524     -0.746462
      4.74431      6.89414     10.77990        -1.602211      2.366168      2.672082
      4.44700      6.46224      7.67763        -0.609837      1.262478      0.654980
      7.06943     10.68200      3.42297         0.686657      2.104433     -1.744787
      3.15963      0.89472      3.78705        -4.677600     -0.347236      2.890904
      1.93250      4.68250     10.65982        -2.482448      9.751996     -1.191553
      5.13099     11.66048     12.57773        -2.163766     -0.601419     -2.766028
     11.42142     12.65960      7.92624        -7.042327      0.011159     -4.988521
     10.53040      1.59954      1.46290         0.358595     -2.470985     -5.827928
     11.58666     10.47926     10.91003        -1.819220      0.142867     -4.317639
      2.30367      8.91620      5.76898         2.541471     -1.078940      1.900400
      7.57388     10.36474     11.18929         1.339935     -1.643632      1.822705
      6.56030      4.28284      6.72684        -0.223462     -0.943245     -2.931522
     10.88591      2.23078      8.69785         4.156087      9.570476      3.638651
     12.39441      6.05973      6.93235         1.248956     -5.262672     -5.879593
      2.15757     11.31789      7.05060         1.959420     -3.822745     -1.230607
      8.56840      4.19195      9.54118         0.412093     -1.133876      0.614911
     10.42059      9.43034      3.27417         3.293585    -10.084434      2.017552
      9.32266      8.14034     12.45811         7.220969     -3.127110      0.301604
      9.00000     10.92188      5.84807        -1.400058      4.455886      0.032182
      8.51358      6.49090      1.62662        -2.732645      0.758858     -1.172138
      0.41515      2.53095      9.71028        -0.562036      1.268353      6.229716
      4.40580      9.85882      9.22760        -6.134273      0.764551      5.879913
     12.10581      3.87837      2.09123         0.945461      2.083571      1.411131
      8.14365      6.56951      6.44405        -6.427144      3.293534      0.717884
      0.79499     12.16426      4.71133         0.449335      2.818152      4.960961
      8.95157      2.43302      3.44000         8.596252      0.911930      6.176287
      3.99264      1.04234      7.59030        -4.037034     -0.639268     -0.518373
      4.43889      0.81394      1.76326        -0.423226     -2.288467      1.140345
      4.23705      5.93928      1.20629         5.690279     -2.907171      3.053237
     11.24075      8.01433      3.72036        -1.393041      4.824786     -0.982441
      9.58771      6.56881      6.08880         2.883987     -0.442127     -1.192634
      2.99927      3.27385      6.41456         1.391814     -0.968056      1.517673
     10.10513      3.75362      8.40491        -1.977445     -1.290522     -0.077313
      0.72227      9.00129      0.92644        -0.174419      2.144929      0.248889
      7.40323      4.07865      8.13654         1.554275      1.087694      0.237384
[...]
      6.49284      2.73473      6.08390         0.865897      2.240717      1.165923
      5.44013      4.99456      0.39099        -3.932802     -0.239084     -0.660366
      7.79785     10.28083      6.66194         1.905395     -0.238067      0.220103
      3.47516     12.18682     12.86312         2.749000     -3.591924     -0.079915
      4.32386      1.48141      9.04115         0.786806     -0.613714      1.237350
      4.86956      5.56447      2.97970        -1.232784      0.765728     -1.146648
      3.88650      8.83718     11.04046        -0.732177      0.557946      0.579696
      1.88543      1.98054      4.68166         2.385717     -3.278266     -2.613916
      0.96390     12.45089      6.54528         1.313874     -1.515945     -2.157815
      2.64795      5.25464      1.88228         1.619635      2.431512     -2.237152
      0.74897     10.73508      3.99789        -2.620203      0.506080      0.933375
      2.74447     12.84859      2.27907         1.748823      3.370112     -0.077715
     11.95072      5.86971      5.06442         3.179595     -0.469894      4.912135
      1.33615      9.78139      6.98184        -0.975263      1.039382      0.723301
     10.20392     11.65791      6.83378         1.493199     -0.202295      0.127354
    total drift:                                0.009126     -0.001581      0.017416

  FREE ENERGIE OF THE ION-ELECTRON SYSTEM (eV)
  free  energy   TOTEN  =      -861.27817945 eV

  energy  without entropy=     -861.20459638  energy(sigma->0) =     -861.24138791