 vasp.5.4.4.18Apr17-6-g9f103f2a35 (build Oct 31 2019 15:01:46) complex

 executed on             LinuxIFC date 2024.04.29  06:32:38

 INCAR:
 POTCAR:    PAW_PBE Ca_sv 06Sep2000
 POTCAR:    PAW_PBE Si 05Jan2001
 POTCAR:    PAW_PBE O 08Apr2002
 POTCAR:    PAW_PBE Ca_sv 06Sep2000
   VRHFIN =Ca: 3s3p4s

   TITEL  = PAW_PBE Ca_sv 06Sep2000
   POMASS =   40.078; ZVAL   =   10.000    mass and valenz
   ENMAX  =  266.622; ENMIN  =  199.967 eV

   TITEL  = PAW_PBE Si 05Jan2001
   POMASS =   28.085; ZVAL   =    4.000    mass and valenz
   ENMAX  =  245.345; ENMIN  =  184.009 eV

   TITEL  = PAW_PBE O 08Apr2002
   POMASS =   16.000; ZVAL   =    6.000    mass and valenz
   ENMAX  =  400.000; ENMIN  =  300.000 eV

 Optimization of the real space projectors (new method)

 maximal supplied QI-value         = 16.25
 optimisation between [QCUT,QGAM] = [ 12.51, 25.03] = [ 43.85,175.40] Ry
 Optimized for a Real-space Cutoff    1.47 Angstroem

   l    n(q)    QCUT    max X(q) W(low)/X(q) W(high)/X(q)  e(spline)
   0     11    12.514    11.817    0.25E-04    0.32E-05    0.87E-07
   0     11    12.514     8.461    0.39E-04    0.59E-05    0.18E-06
   1     11    12.514     3.957    0.97E-05    0.57E-05    0.28E-07
   1     11    12.514     4.314    0.42E-04    0.14E-04    0.23E-06
   2     10    12.514    14.565    0.79E-04    0.50E-03    0.16E-05
   2     10    12.514    14.552    0.75E-04    0.48E-03    0.15E-05
 Optimization of the real space projectors (new method)

[...]

   l    n(q)    QCUT    max X(q) W(low)/X(q) W(high)/X(q)  e(spline)
   0      9    12.501   159.560    0.10E-03    0.83E-04    0.71E-07
   0      9    12.501   115.863    0.99E-04    0.81E-04    0.70E-07
   1      8    12.501    88.339    0.20E-03    0.25E-03    0.76E-07
   1      8    12.501    48.592    0.20E-03    0.24E-03    0.75E-07
 Optimization of the real space projectors (new method)

 maximal supplied QI-value         = 24.76
 optimisation between [QCUT,QGAM] = [ 12.38, 25.00] = [ 42.90,175.06] Ry
 Optimized for a Real-space Cutoff    1.16 Angstroem

   l    n(q)    QCUT    max X(q) W(low)/X(q) W(high)/X(q)  e(spline)
   0      9    12.378    20.381    0.16E-03    0.67E-05    0.31E-06
   0      9    12.378    15.268    0.17E-03    0.81E-05    0.33E-06
   1      8    12.378     5.964    0.20E-03    0.16E-03    0.30E-06
   1      8    12.378     5.382    0.18E-03    0.14E-03    0.26E-06
  PAW_PBE Ca_sv 06Sep2000               :
  PAW_PBE Si 05Jan2001                  :
  PAW_PBE O 08Apr2002                   :

 POSCAR: Ca Si  O
  positions in direct lattice
 exchange correlation table for  LEXCH =        8
   RHO(1)=    0.500       N(1)  =     2000
   RHO(2)=  100.500       N(2)  =     4000

 ion  position               nearest neighbor table
   1  0.865  0.008  0.565-  57 2.08  60 2.23  10 2.96
   2  0.453  0.605  0.172-  94 2.00  65 2.40
   3  0.115  0.724  0.074-  82 2.24  96 2.25  62 2.36  74 2.48  84 2.49   9 3.16
   4  0.534  0.288  0.524- 123 2.28 128 2.33  95 2.38 103 2.39  47 2.95
   5  0.195  0.250  0.004-  64 1.93 104 2.57  44 2.71
   6  0.891  0.371  0.566-  58 1.87  47 3.04
   7  0.169  0.321  0.301- 134 2.16  99 2.39  33 3.15
   8  0.797  0.167  0.722- 127 2.34  98 2.51  27 2.88  49 3.13  39 3.16
   9  0.053  0.756  0.295-  62 2.09  74 2.28   3 3.16
  10  0.068  0.071  0.605-  60 2.41  59 2.55   1 2.96
  11  0.954  0.217  0.214- 111 2.29 134 2.40  53 2.77  43 3.10
  12  0.261  0.261  0.738-  73 2.07  90 2.27  89 2.30 120 2.52  29 3.08
  13  0.962  0.335  0.872-  98 2.14  56 2.27  39 2.88  19 3.14
  14  0.264  0.621  0.703-  91 2.00 135 2.03  70 2.17  34 3.06
  15  0.375  0.030  0.427- 103 2.21  59 2.39  29 2.46
  16  0.443  0.985  0.123- 101 2.29 117 2.31  79 2.49
  17  0.404  0.055  0.873-  83 2.23 120 2.39  30 3.10
  18  0.254  0.545  0.407- 116 2.06  99 2.43  94 2.46
  19  0.984  0.543  0.778- 115 2.26  67 2.28  58 2.40 135 2.56  46 2.89  31 3.02  13 3.14
  20  0.644  0.607  0.824-  76 2.03 118 2.22 114 2.35  37 3.01  36 3.13
  21  0.971  0.855  0.820-  69 2.12 102 2.19  36 2.91
  22  0.693  0.945  0.924-  61 2.11  72 2.18 117 2.27 121 2.55  27 2.57
  23  0.642  0.864  0.585-  57 2.02 133 2.05  55 2.15  49 2.58
  24  0.832  0.891  0.162- 125 2.41  61 2.52  40 2.89
  25  0.565  0.285  0.222- 123 2.04  88 2.09  41 2.86
  26  0.611  0.049  0.333-  79 2.44
  27  0.665  0.126  0.881-  83 1.96 121 1.98  72 2.33  38 2.36 127 2.38  22 2.57   8 2.88
  28  0.263  0.806  0.895-  70 1.60  84 1.76 122 2.04  97 2.08
  29  0.329  0.145  0.557-  89 1.54  73 1.81  59 1.83 103 1.95  15 2.46  12 3.08
  30  0.182  0.032  0.911- 119 1.57 122 1.66 107 1.66 120 1.69  44 2.96  39 3.10  17 3.10
  31  0.133  0.526  0.940-  82 1.58 100 1.64 115 1.98 104 2.25  54 2.95  19 3.02
  32  0.824  0.543  0.420- 110 1.59 132 1.62  93 1.70 131 1.87  52 2.72  42 2.92
  33  0.210  0.347  0.526- 113 1.55  99 1.61  73 1.66   7 3.15
  34  0.081  0.643  0.577- 135 1.46  92 1.69 116 1.87 126 2.00  67 2.36  50 2.71  14 3.06
  35  0.579  0.787  0.277-  75 1.49  79 1.73  80 1.77
  36  0.810  0.743  0.904-  69 1.45 108 1.63 118 1.68  61 1.96  37 2.81  21 2.91  20 3.13
  37  0.781  0.558  0.990-  81 1.70  77 1.74 118 1.89  87 2.29  36 2.81  20 3.01
  38  0.572  0.232  0.782-  83 1.51 127 1.56 128 2.07 124 2.16  27 2.36
  39  0.985  0.127  0.851-  86 1.62  56 1.75 107 1.77  98 1.82  13 2.88  30 3.10   8 3.16
  40  0.022  0.984  0.150-  85 1.41 105 1.73  74 1.76  44 2.85  24 2.89
  41  0.408  0.406  0.288-  71 1.50  94 1.87 106 2.41  25 2.86
  42  0.761  0.747  0.425- 109 1.67 133 1.71  75 1.93 131 2.07  32 2.92
  43  0.759  0.130  0.138-  88 1.61 125 1.63 121 1.87  11 3.10
  44  0.199  0.089  0.119-  64 1.52 105 1.59 119 1.68 101 1.84   5 2.71  40 2.85  30 2.96
  45  0.288  0.798  0.290-  68 1.53  65 1.64  96 1.77
  46  0.847  0.622  0.637-  67 1.63 132 1.63  76 1.89  19 2.89
  47  0.722  0.327  0.427-  95 1.56  93 1.58  63 1.65 123 2.16  52 2.81   4 2.95   6 3.04
  48  0.902  0.572  0.200-  87 1.51 110 1.69  62 1.85 130 1.97  54 2.93
  49  0.620  0.037  0.657-  55 1.53 124 1.59  57 1.68  72 1.81  23 2.58   8 3.13
  50  0.013  0.825  0.539-  78 1.50  92 1.60 102 1.84 126 2.02  34 2.71
  51  0.422  0.441  0.732- 114 1.68  91 1.70  90 1.80 128 2.07
  52  0.629  0.509  0.402- 112 1.61 131 1.75 106 2.03  93 2.18  32 2.72  47 2.81
  53  0.962  0.170  0.411-  60 1.61 134 1.68 111 1.69  63 2.34  11 2.77
  54  0.082  0.471  0.143-  66 1.51 104 1.55 130 1.72  48 2.93  31 2.95
  55  0.540  0.982  0.602-  49 1.53  23 2.15
  56  0.994  0.196  0.958-  39 1.75  13 2.27
  57  0.717  0.991  0.597-  49 1.68  23 2.02   1 2.08
  58  0.931  0.399  0.694-   6 1.87  19 2.40
  59  0.227  0.076  0.508-  29 1.83  15 2.39  10 2.55
  60  0.934  0.150  0.524-  53 1.61   1 2.23  10 2.41
[...]
 121  0.737  0.107  0.005-  43 1.87  27 1.98  22 2.55
 122  0.257  0.945  0.949-  30 1.66  28 2.04
 123  0.576  0.322  0.367-  25 2.04  47 2.16   4 2.28
 124  0.601  0.152  0.649-  49 1.59  38 2.16
 125  0.810  0.056  0.217-  43 1.63  24 2.41
 126  0.973  0.691  0.491-  34 2.00  50 2.02
 127  0.678  0.272  0.787-  38 1.56   8 2.34  27 2.38
 128  0.487  0.313  0.687-  51 2.07  38 2.07   4 2.33
 129  0.397  0.805  0.054-  97 1.17
 130  0.958  0.459  0.131-  54 1.72  48 1.97
 131  0.704  0.607  0.435-  52 1.75  32 1.87  42 2.07
 132  0.852  0.563  0.534-  32 1.62  46 1.63
 133  0.772  0.825  0.522-  42 1.71  23 2.05
 134  0.042  0.249  0.362-  53 1.68   7 2.16  11 2.40
 135  0.119  0.622  0.675-  34 1.46  14 2.03  19 2.56

IMPORTANT INFORMATION: All symmetrisations will be switched off!
NOSYMM: (Re-)initialisation of all symmetry stuff for point group C_1.

Automatic generation of k-mesh.
 generate k-points for:    2    2    2
Space group operators:
 irot       det(A)        alpha          n_x          n_y          n_z        tau_x        tau_y        tau_z
    1     1.000000     0.000000     1.000000     0.000000     0.000000     0.000000     0.000000     0.000000

 Subroutine IBZKPT returns following result:

 Found      8 irreducible k-points:

 Following reciprocal coordinates:
            Coordinates               Weight
  0.000000  0.000000  0.000000      1.000000
  0.500000  0.000000  0.000000      1.000000
  0.000000  0.500000  0.000000      1.000000
  0.500000  0.500000  0.000000      1.000000
  0.000000  0.000000  0.500000      1.000000
  0.500000  0.000000  0.500000      1.000000
  0.000000  0.500000  0.500000      1.000000
  0.500000  0.500000  0.500000      1.000000

 Following cartesian coordinates:
            Coordinates               Weight
  0.000000  0.000000  0.000000      1.000000
  0.036574  0.000000  0.000000      1.000000
  0.000000  0.036574  0.000000      1.000000
  0.036574  0.036574  0.000000      1.000000
  0.000000  0.000000  0.036574      1.000000
  0.036574  0.000000  0.036574      1.000000
  0.000000  0.036574  0.036574      1.000000
  0.036574  0.036574  0.036574      1.000000

 SYSTEM =  unknown system
 POSCAR =  Ca Si  O

 Startparameter for this run:
   NWRITE =      2    write-flag & timer
   PREC   = a         normal or accurate (medium, high low for compatibility)
   ISTART =      0    job   : 0-new  1-cont  2-samecut
   ICHARG =      2    charge: 1-file 2-atom 10-const
   ISPIN  =      1    spin polarized calculation?
   LNONCOLLINEAR =      F non collinear calculations
   LSORBIT =      F    spin-orbit coupling
   INIWAV =      1    electr: 0-lowe 1-rand  2-diag
   LASPH  =      F    aspherical Exc in radial PAW
   METAGGA=      F    non-selfconsistent MetaGGA calc.

 Electronic Relaxation 1
   ENCUT  =  600.0 eV  44.10 Ry    6.64 a.u.  27.30 27.30 27.30*2*pi/ulx,y,z
   ENINI  =  600.0     initial cutoff
   ENAUG  =  605.4 eV  augmentation charge cutoff
   NELM   =     60;   NELMIN=  2; NELMDL= -5     # of ELM steps
   EDIFF  = 0.1E-05   stopping-criterion for ELM
   LREAL  =      T    real-space projection
   NLSPLINE    = F    spline interpolate recip. space projectors
   LCOMPAT=      F    compatible to vasp.4.4
   GGA_COMPAT  = T    GGA compatible to vasp.4.4-vasp.4.6
   LMAXPAW     = -100 max onsite density
   LMAXMIX     =    2 max onsite mixed and CHGCAR
   VOSKOWN=      0    Vosko Wilk Nusair interpolation
   ROPT   =   -0.00025  -0.00025  -0.00025
 Ionic relaxation
   EDIFFG = -.1E-01   stopping-criterion for IOM
   NSW    =      1    number of steps for IOM
   NBLOCK =      1;   KBLOCK =      1    inner block; outer block
   IBRION =     -1    ionic relax: 0-MD 1-quasi-New 2-CG
   NFREE  =      0    steps in history (QN), initial steepest desc. (CG)
   ISIF   =      2    stress and relaxation
   IWAVPR =     10    prediction:  0-non 1-charg 2-wave 3-comb
   ISYM   =      0    0-nonsym 1-usesym 2-fastsym
   LCORR  =      T    Harris-Foulkes like correction to forces

   POTIM  = 1.0000    time-step for ionic-motion
   TEIN   =    0.0    initial temperature
   TEBEG  =    0.0;   TEEND  =   0.0 temperature during run
   SMASS  =  -3.00    Nose mass-parameter (am)
   estimated Nose-frequenzy (Omega)   =  0.10E-29 period in steps =****** mass=  -0.427E-26a.u.
   SCALEE = 1.0000    scale energy and forces
   NPACO  =    256;   APACO  = 16.0  distance and # of slots for P.C.
   PSTRESS=    0.0 pullay stress

  Mass of Ions in am
[...]
     0.000000000  0.000000000 13.670863650     0.000000000  0.000000000  0.073148268

  length of vectors
    13.670863650 13.670863650 13.670863650     0.073148268  0.073148268  0.073148268

 FORCES acting on ions
    electron-ion (+dipol)            ewald-force                    non-local-force                 convergence-correction
   -.208E+02 0.311E+02 0.108E+03   0.170E+02 -.383E+02 -.111E+03   0.356E+01 0.342E+01 0.139E+01   0.236E-02 -.109E-02 0.215E-02
   -.872E+02 0.987E+02 0.307E+03   0.886E+02 -.962E+02 -.302E+03   0.545E+00 -.673E+00 -.704E+01   -.169E-01 0.312E-01 -.166E-01
   -.196E+03 0.161E+02 0.699E+02   0.194E+03 -.167E+02 -.713E+02   0.144E+01 0.998E+00 0.125E+00   0.215E-01 0.858E-02 -.579E-02
   0.128E+03 -.924E+02 -.136E+02   -.125E+03 0.931E+02 0.140E+02   -.229E+01 -.357E+00 0.383E+00   -.156E-02 -.895E-03 0.607E-02
   -.290E+03 -.327E+03 0.852E+02   0.288E+03 0.326E+03 -.837E+02   0.268E+01 0.273E+01 -.490E+01   0.228E-02 -.501E-02 -.209E-02
   -.153E+02 0.223E+02 0.116E+03   0.167E+02 -.211E+02 -.110E+03   -.151E+01 -.164E+01 -.782E+01   0.261E-02 -.977E-03 0.192E-02
   -.928E+02 -.336E+01 0.876E+02   0.951E+02 0.307E+01 -.853E+02   -.587E+00 0.415E+00 -.286E+01   -.138E-02 0.132E-03 -.217E-02
   -.236E+02 -.118E+03 0.628E+02   0.244E+02 0.122E+03 -.595E+02   -.292E+00 -.234E+01 -.330E+01   0.315E-05 -.299E-02 0.165E-02
   -.164E+03 -.544E+02 -.221E+03   0.161E+03 0.532E+02 0.218E+03   0.293E+01 0.143E+01 0.523E+01   0.802E-02 0.245E-02 -.488E-02
   -.251E+03 0.857E+02 -.115E+02   0.254E+03 -.857E+02 0.841E+01   -.108E+01 -.248E+00 0.276E+01   0.286E-02 -.312E-02 0.310E-02
   0.114E+03 -.226E+03 0.158E+03   -.115E+03 0.221E+03 -.154E+03   0.747E-02 0.421E+01 -.424E+01   0.505E-02 -.315E-02 -.116E-02
   0.506E+02 -.119E+03 -.143E+03   -.433E+02 0.119E+03 0.146E+03   -.622E+01 0.146E+00 0.756E+00   0.217E-03 -.297E-02 0.390E-02
   0.115E+03 -.115E+03 -.191E+03   -.114E+03 0.114E+03 0.188E+03   -.119E+01 0.325E+01 0.310E+01   0.583E-02 -.210E-02 -.989E-03
   -.343E+03 -.163E+03 0.506E+02   0.344E+03 0.162E+03 -.465E+02   0.438E+00 0.195E+01 -.205E+01   0.270E-02 0.101E-01 0.104E-01
   -.488E+02 0.309E+03 0.785E+02   0.460E+02 -.308E+03 -.807E+02   0.196E+01 -.376E+01 0.190E+00   -.772E-02 -.760E-02 0.247E-02
   -.351E+02 -.589E+02 -.195E+03   0.389E+02 0.581E+02 0.189E+03   -.261E+01 -.360E+00 0.454E+01   -.171E-01 -.432E-01 -.317E-01
   -.312E+02 0.123E+03 0.913E+02   0.319E+02 -.122E+03 -.878E+02   -.593E+00 -.184E+01 -.258E+01   -.419E-02 -.257E-01 0.123E-01
   -.223E+03 -.121E+03 -.309E+02   0.221E+03 0.123E+03 0.312E+02   0.276E+01 -.261E+01 -.881E+00   -.132E-02 0.580E-02 -.815E-03
   0.169E+02 0.146E+02 -.787E+02   -.159E+02 -.164E+02 0.773E+02   -.123E+01 0.172E+01 0.194E+01   0.772E-02 0.246E-02 0.497E-03
   0.432E+03 0.412E+02 -.150E+01   -.432E+03 -.441E+02 -.238E+00   -.260E+01 0.223E+01 0.158E+01   -.130E-01 0.107E-01 -.871E-02
   -.163E+03 -.924E+02 0.878E+01   0.161E+03 0.878E+02 -.976E+01   0.236E+01 0.480E+01 0.143E+01   0.107E-01 0.118E-02 0.307E-02
   0.199E+03 0.221E+03 -.118E+03   -.198E+03 -.228E+03 0.120E+03   -.486E+00 0.438E+01 -.959E+00   -.168E-01 -.863E-03 0.332E-02
   0.458E+03 0.422E+03 -.725E+01   -.454E+03 -.419E+03 0.684E+01   -.538E+01 -.629E+01 0.121E+01   -.565E-02 -.457E-03 0.511E-02
   0.229E+03 0.135E+03 -.106E+03   -.227E+03 -.134E+03 0.101E+03   -.166E+01 -.172E+01 0.369E+01   0.107E-02 0.518E-03 -.218E-02
   0.163E+03 -.165E+02 0.411E+03   -.159E+03 0.194E+02 -.405E+03   -.474E+01 -.154E+01 -.626E+01   -.145E-02 -.508E-02 -.370E-02
   0.805E+02 0.217E+02 -.224E+02   -.823E+02 -.245E+02 0.181E+02   0.278E+01 0.193E+01 0.347E+01   0.359E-02 -.670E-02 -.251E-02
   0.581E+02 -.242E+03 -.231E+03   -.587E+02 0.240E+03 0.237E+03   0.352E+01 0.656E+00 -.366E+01   -.665E-02 -.825E-02 0.676E-03
   -.102E+03 0.208E+02 0.609E+02   0.987E+02 -.277E+02 -.673E+02   0.905E+00 0.785E+01 0.732E+01   0.186E-01 0.275E-02 0.137E-01
   -.338E+02 0.856E+02 0.681E+02   0.326E+02 -.882E+02 -.565E+02   -.200E+01 0.558E+01 -.133E+02   -.913E-03 -.139E-02 0.256E-02
   -.484E+02 0.633E+02 0.115E+03   0.511E+02 -.595E+02 -.108E+03   -.838E+00 -.344E+01 -.838E+01   0.593E-02 -.653E-02 0.255E-02
   -.107E+03 0.108E+03 0.275E+01   0.111E+03 -.909E+02 -.278E+01   0.137E+00 -.164E+02 -.293E+01   0.369E-02 0.344E-02 0.255E-03
   -.144E+02 0.208E+02 0.410E+02   0.142E+02 -.177E+02 -.434E+02   -.208E+01 -.157E+01 0.214E+01   0.166E-02 0.778E-03 0.702E-03
   -.378E+01 -.238E+01 -.368E+01   -.238E+00 0.101E+02 0.264E+01   0.537E+01 -.757E+01 0.115E+01   -.287E-03 0.270E-03 0.105E-02
   -.308E+02 0.871E+02 0.796E+02   0.404E+02 -.791E+02 -.717E+02   -.119E+02 -.190E+01 -.190E+02   0.214E-02 0.996E-03 0.147E-02
   0.122E+03 0.647E+02 -.150E+02   -.111E+03 -.625E+02 0.106E+02   -.128E+02 -.114E+01 -.633E+01   -.542E-02 0.889E-03 -.535E-02
   0.104E+03 0.592E+02 -.805E+02   -.966E+02 -.541E+02 0.705E+02   -.147E+02 0.167E+01 0.113E+02   0.190E-02 0.268E-02 0.309E-03
   0.465E+02 0.610E+02 -.409E+02   -.562E+02 -.690E+02 0.401E+02   0.708E+01 0.527E+01 0.318E+01   0.115E-01 0.357E-02 -.447E-02
   0.112E+03 -.184E+03 -.277E+02   -.106E+03 0.181E+03 0.327E+02   -.101E+02 0.963E+01 -.158E+02   -.173E-02 -.266E-02 0.707E-03
   -.509E+02 -.288E+01 0.257E+02   0.409E+02 0.384E+01 -.206E+02   0.937E+01 0.575E+00 -.240E+01   0.201E-02 -.159E-02 0.561E-03
   -.601E+02 0.248E+02 -.105E+03   0.487E+02 -.242E+02 0.917E+02   0.216E+02 -.762E+01 0.194E+02   0.353E-02 -.172E-02 -.181E-02
   -.442E+02 -.734E+02 0.740E+02   0.418E+02 0.637E+02 -.787E+02   0.561E+01 0.165E+02 0.438E+01   -.311E-02 0.195E-02 -.199E-03
   0.116E+03 0.377E+02 0.354E+01   -.104E+03 -.267E+02 -.636E+01   -.105E+02 -.731E+01 0.806E+00   -.120E-03 0.118E-02 -.254E-03
   0.481E+02 -.672E+02 0.641E+02   -.496E+02 0.672E+02 -.563E+02   0.361E+00 -.144E+01 -.112E+02   0.258E-03 -.253E-02 -.185E-02
   -.172E+03 0.444E+02 -.119E+03   0.164E+03 -.372E+02 0.116E+03   0.127E+02 -.104E+02 -.485E+00   0.248E-02 -.540E-02 -.345E-02
   -.524E+02 0.115E+02 -.111E+03   0.553E+02 -.605E+01 0.108E+03   -.235E+01 -.941E+01 -.200E+01   0.234E-02 0.383E-03 -.871E-02
   0.165E+03 -.199E+02 -.520E+01   -.158E+03 0.210E+02 0.127E+02   -.932E+01 -.752E+00 -.267E+01   0.127E-02 0.639E-03 0.329E-03
   0.741E+02 -.121E+02 0.103E+03   -.668E+02 0.926E+00 -.919E+02   -.888E+01 0.581E+01 -.127E+02   0.101E-02 -.852E-03 0.156E-02
   -.160E+02 0.200E+02 -.299E+00   0.165E+01 -.215E+02 -.774E+01   0.187E+02 0.375E+01 0.709E+01   0.404E-02 0.175E-02 0.793E-03
   0.832E+02 0.322E+02 -.126E+02   -.895E+02 -.334E+02 0.688E+01   0.827E+01 0.134E+01 0.950E+01   -.170E-02 -.130E-02 0.281E-02
   -.661E+02 -.498E+02 -.939E+01   0.696E+02 0.527E+02 0.447E+01   -.507E+01 -.868E+01 0.102E+02   0.194E-02 0.470E-03 0.662E-03
   -.420E+02 -.283E+02 -.433E+02   0.431E+02 0.380E+02 0.478E+02   0.165E+00 -.919E+01 -.202E+01   -.206E-02 0.137E-02 0.128E-02
   0.105E+03 -.937E+02 0.824E+02   -.113E+03 0.895E+02 -.727E+02   0.412E+01 0.249E+01 -.108E+02   -.810E-03 0.167E-02 0.197E-02
   -.131E+02 -.423E+01 -.127E+02   0.165E+02 -.108E+01 0.782E+01   -.455E+01 0.500E+01 0.886E+00   0.106E-02 -.848E-03 0.877E-04
   0.140E+02 0.209E+02 -.425E+01   -.630E+01 -.238E+02 0.864E+01   -.124E+02 0.379E+01 -.733E+01   0.260E-02 0.163E-02 -.113E-02
   0.345E+03 0.169E+03 0.845E+02   -.374E+03 -.180E+03 -.992E+02   0.249E+02 0.910E+01 0.126E+02   -.290E-02 -.304E-02 0.579E-02
   0.564E+02 -.847E+02 -.153E+03   -.578E+02 0.888E+02 0.175E+03   0.248E+01 -.424E+01 -.251E+02   0.331E-02 -.268E-02 -.575E-03
   0.303E+02 -.101E+02 0.100E+03   -.165E+02 0.411E+01 -.110E+03   -.122E+02 0.931E+01 0.999E+01   -.867E-03 -.743E-03 0.281E-02
   0.222E+02 0.429E+01 -.649E+02   -.187E+02 -.575E+01 0.711E+02   -.342E+01 0.277E+01 -.360E+01   0.222E-02 -.360E-03 0.372E-03
   0.423E+02 0.164E+03 0.566E+02   -.575E+02 -.174E+03 -.656E+02   0.178E+02 0.111E+02 0.102E+02   -.806E-03 -.247E-02 0.191E-02
   -.298E+02 -.667E+02 0.188E+01   0.195E+02 0.696E+02 0.213E+02   0.118E+02 -.302E+01 -.226E+02   0.150E-02 -.117E-02 0.910E-03
[...]
   -.143E+03 0.107E+03 0.416E+02   0.154E+03 -.119E+03 -.230E+02   -.895E+01 0.112E+02 -.221E+02   0.227E-01 -.211E-01 0.672E-02
   0.527E+02 -.389E+01 0.590E+02   -.615E+02 0.851E+01 -.595E+02   0.124E+02 -.625E+01 0.282E+01   0.400E-03 -.171E-02 0.299E-02
   0.100E+03 -.468E+02 0.794E+02   -.106E+03 0.723E+02 -.915E+02   0.616E+01 -.236E+02 0.145E+02   -.147E-02 -.227E-02 0.320E-02
   0.104E+03 0.158E+02 -.992E+02   -.901E+02 -.287E+02 0.121E+03   -.160E+02 0.128E+02 -.235E+02   0.194E-02 -.259E-02 -.187E-02
   0.136E+02 0.424E+02 0.101E+03   -.252E+02 -.479E+02 -.114E+03   0.119E+02 0.599E+01 0.144E+02   0.321E-02 0.152E-02 0.205E-03
   -.571E+01 -.343E+03 -.123E+03   0.335E+02 0.366E+03 0.122E+03   -.261E+02 -.228E+02 0.240E+01   -.133E-02 -.345E-02 -.678E-03
   0.572E+01 -.140E+03 -.816E+02   -.971E+01 0.137E+03 0.726E+02   0.514E+01 0.349E+01 0.110E+02   -.194E-02 -.140E-02 0.177E-02
   -.921E+02 0.191E+03 -.201E+03   0.951E+02 -.208E+03 0.264E+03   -.236E+01 0.144E+02 -.527E+02   -.480E-02 0.107E-01 -.491E-01
   0.107E+03 0.151E+03 0.134E+01   -.131E+03 -.161E+03 -.147E+02   0.275E+02 0.112E+02 0.161E+02   0.624E-02 0.461E-03 0.588E-04
   0.232E+03 -.107E+03 -.290E+02   -.239E+03 0.120E+03 0.401E+02   0.100E+02 -.119E+02 -.124E+02   -.479E-03 0.265E-02 0.229E-02
   0.484E+02 0.350E+02 -.276E+02   -.399E+02 -.394E+02 0.309E+02   -.841E+01 0.217E+01 -.370E+01   0.206E-02 0.486E-03 0.131E-02
   0.428E+02 0.550E+02 0.128E+02   -.313E+02 -.415E+02 0.297E+01   -.113E+02 -.168E+02 -.183E+02   -.875E-04 0.124E-02 0.993E-03
   -.623E+02 -.637E+02 -.612E+02   0.760E+02 0.766E+02 0.564E+02   -.147E+02 -.129E+02 0.596E+01   0.119E-02 -.101E-02 -.355E-03
   -.130E+03 -.447E+01 -.552E+02   0.139E+03 0.603E-01 0.918E+02   -.822E+01 0.101E+01 -.311E+02   0.385E-02 0.274E-02 0.312E-02
   0.322E+02 0.939E+02 0.743E+02   0.597E-12 0.211E-12 0.242E-12   -.324E+02 -.938E+02 -.743E+02   0.123E+00 -.489E-01 -.190E-01

 POSITION                                       TOTAL-FORCE (eV/Angst)
     11.82267      0.10870      7.72784        -0.247848     -3.753920     -1.343469
      6.18948      8.26564      2.34805         1.966913      1.863986     -1.414941
      1.56600      9.89422      1.01679        -0.289833      0.431195     -1.313478
      7.29593      3.93857      7.16795         0.271623      0.364890      0.857485
      2.66089      3.42159      0.05783         0.472931      1.926529     -3.355256
     12.17593      5.07054      7.73379        -0.094986     -0.491438     -1.293846
      2.30868      4.38671      4.11297         1.714092      0.127175     -0.569747
     10.90072      2.28347      9.87112         0.480784      1.141249      0.012269
      0.72090     10.32914      4.02752        -0.376960      0.262868      1.960448
      0.93148      0.96774      8.27386         2.063097     -0.274551     -0.331493
     13.04804      2.96340      2.91981        -0.355345     -0.771223     -0.569614
      3.57078      3.57073     10.08689         1.043500      0.407156      3.339569
     13.15068      4.57511     11.92554        -0.305161      2.037202     -0.090197
      3.61233      8.49124      9.60992         0.831795      0.948931      2.038744
      5.12060      0.41459      5.83302        -0.795463     -2.223942     -2.038793
      6.05087     13.46549      1.68334         1.250192     -1.228264     -1.334726
      5.52897      0.74629     11.94034         0.073766     -0.740880      0.852833
      3.46588      7.45714      5.55836         0.283255      0.186022     -0.594505
     13.44876      7.42384     10.63150        -0.255173     -0.006905      0.537488
      8.79844      8.29831     11.27159        -2.685920     -0.707602     -0.173857
     13.26986     11.68498     11.21510         0.025454      0.241291      0.461165
      9.47748     12.92343     12.63182         0.206640     -2.619709      0.668296
      8.77492     11.81340      7.99986        -1.518407     -3.182923      0.806921
     11.37796     12.17412      2.21225         0.053782     -0.843656     -1.357864
      7.72928      3.89884      3.03463        -0.502130      1.346352     -0.744437
      8.34747      0.67362      4.55259         0.926581     -0.831650     -0.878845
      9.09550      1.72191     12.03884         2.990411     -1.919155      2.356277
      3.59450     11.02189     12.23721        -2.664108      0.931764      1.010546
      4.50262      1.98759      7.61534        -3.251945      2.973997     -1.776462
      2.48298      0.43349     12.45394         1.855751      0.396345     -1.293974
      1.81288      7.18846     12.84796         3.877351      0.393293     -2.954717
     11.26941      7.42671      5.74070        -2.238036      1.477045     -0.254913
      2.87652      4.73994      7.19357         1.356048      0.122776      0.104135
      1.10532      8.79208      7.88923        -2.317719      6.082942    -11.026649
      7.90921     10.75663      3.78111        -1.494684      1.052354    -10.715324
     11.07166     10.15196     12.36064        -7.732689      6.849232      1.365268
     10.67589      7.62771     13.53221        -2.549452     -2.679557      2.417670
      7.81621      3.16900     10.69078        -4.125562      6.202698    -10.748117
     13.45909      1.73064     11.64020        -0.617445      1.535729      2.703322
      0.30028     13.44931      2.04697        10.314361     -7.071931      5.917887
      5.57317      5.55565      3.93384         3.230016      6.819586     -0.369541
     10.40446     10.21294      5.80955         1.468269      3.711682     -2.014722
     10.38132      1.77365      1.88655        -1.128070     -1.447987     -3.393962
      2.72664      1.21075      1.62671         4.329017     -3.243715     -3.315815
      3.93192     10.91410      3.96302         0.522590     -4.011469     -5.896905
     11.58185      8.50510      8.70911        -1.635423      0.361940      4.792768
      9.87667      4.47113      5.83293        -1.519355     -5.365238     -2.083267
     12.33428      7.82267      2.73932         4.294818      2.266894     -0.942540
      8.47989      0.50734      8.98543         1.951183      0.171904      3.742537
      0.17599     11.28151      7.37245        -1.587160     -5.746948      5.314008
      5.76620      6.03408     10.00360         1.267739      0.488676      2.457778
      8.60268      6.95375      5.49516        -3.708182     -1.698667     -1.140385
     13.15119      2.32335      5.61682        -1.133159     -0.308357     -3.964370
      1.12517      6.43598      1.94845        -4.695352      0.924246     -2.947035
      7.38477     13.43090      8.23112        -4.125422     -2.199045     -2.068521
     13.58725      2.68361     13.10310         1.094428     -0.053882     -2.379054
      9.79911     13.54709      8.15493         1.613085      3.338810      0.442108
     12.72682      5.45031      9.48259         0.082711      1.308047      2.540141
      3.09903      1.03385      6.93975         2.625161      1.155256      1.136987
     12.76565      2.05433      7.16186         1.498728     -0.146745      0.613141
[...]
     10.08052      1.46827      0.07048         1.509699      0.635707      6.517415
      3.51969     12.91951     12.97055         2.500293     -0.129246     -3.457690
      7.87550      4.40059      5.01069         3.520444     -1.620501      2.332680
      8.21529      2.07497      8.87454         0.447691      1.952854      2.419647
     11.07666      0.76997      2.96505        -1.731582     -0.144454     -1.210974
     13.30209      9.45130      6.71575         0.381485      0.529455      1.204749
      9.27416      3.71910     10.75418         1.710470     -0.670793      1.299750
      6.65624      4.27523      9.38611         1.147155      0.243065      2.070774
      5.42669     11.00125      0.74205         0.657350     -1.998525     10.980398
     13.09243      6.27087      1.79433         3.435057      0.584793      2.698378
      9.62842      8.30307      5.94468         2.361834      0.803716     -1.284467
     11.65150      7.70236      7.29461         0.141758     -2.216674     -0.380894
     10.55883     11.28088      7.13562         0.201205     -3.201114     -2.506673
      0.57458      3.40740      4.94920        -1.041866      0.036333      1.157490
      1.62437      8.50971      9.22257         0.393504     -3.391617      5.539936
    total drift:                               -0.008265      0.001256      0.000273

  FREE ENERGIE OF THE ION-ELECTRON SYSTEM (eV)
  free  energy   TOTEN  =      -864.90732728 eV

  energy  without entropy=     -864.85962214  energy(sigma->0) =     -864.88347471