 vasp.5.4.4.18Apr17-6-g9f103f2a35 (build Mar 16 2023 09:39:13) complex

 executed on             LinuxIFC date 2024.04.30  18:04:30

 INCAR:
 POTCAR:    PAW_PBE Ca_sv 06Sep2000
 POTCAR:    PAW_PBE Si 05Jan2001
 POTCAR:    PAW_PBE O 08Apr2002
 POTCAR:    PAW_PBE Ca_sv 06Sep2000
   VRHFIN =Ca: 3s3p4s

   TITEL  = PAW_PBE Ca_sv 06Sep2000
   POMASS =   40.078; ZVAL   =   10.000    mass and valenz
   ENMAX  =  266.622; ENMIN  =  199.967 eV

   TITEL  = PAW_PBE Si 05Jan2001
   POMASS =   28.085; ZVAL   =    4.000    mass and valenz
   ENMAX  =  245.345; ENMIN  =  184.009 eV

   TITEL  = PAW_PBE O 08Apr2002
   POMASS =   16.000; ZVAL   =    6.000    mass and valenz
   ENMAX  =  400.000; ENMIN  =  300.000 eV

 Optimization of the real space projectors (new method)

 maximal supplied QI-value         = 16.25
 optimisation between [QCUT,QGAM] = [ 12.51, 25.03] = [ 43.85,175.40] Ry
 Optimized for a Real-space Cutoff    1.47 Angstroem

   l    n(q)    QCUT    max X(q) W(low)/X(q) W(high)/X(q)  e(spline)
   0     11    12.514    11.817    0.25E-04    0.32E-05    0.87E-07
   0     11    12.514     8.461    0.39E-04    0.59E-05    0.18E-06
   1     11    12.514     3.957    0.97E-05    0.57E-05    0.28E-07
   1     11    12.514     4.314    0.42E-04    0.14E-04    0.23E-06
   2     10    12.514    14.565    0.79E-04    0.50E-03    0.16E-05
   2     10    12.514    14.552    0.75E-04    0.48E-03    0.15E-05
 Optimization of the real space projectors (new method)

[...]

   l    n(q)    QCUT    max X(q) W(low)/X(q) W(high)/X(q)  e(spline)
   0      9    12.501   159.560    0.10E-03    0.83E-04    0.71E-07
   0      9    12.501   115.863    0.99E-04    0.81E-04    0.70E-07
   1      8    12.501    88.339    0.20E-03    0.25E-03    0.76E-07
   1      8    12.501    48.592    0.20E-03    0.24E-03    0.75E-07
 Optimization of the real space projectors (new method)

 maximal supplied QI-value         = 24.76
 optimisation between [QCUT,QGAM] = [ 12.38, 25.00] = [ 42.90,175.06] Ry
 Optimized for a Real-space Cutoff    1.16 Angstroem

   l    n(q)    QCUT    max X(q) W(low)/X(q) W(high)/X(q)  e(spline)
   0      9    12.378    20.381    0.16E-03    0.67E-05    0.31E-06
   0      9    12.378    15.268    0.17E-03    0.81E-05    0.33E-06
   1      8    12.378     5.964    0.20E-03    0.16E-03    0.30E-06
   1      8    12.378     5.382    0.18E-03    0.14E-03    0.26E-06
  PAW_PBE Ca_sv 06Sep2000               :
  PAW_PBE Si 05Jan2001                  :
  PAW_PBE O 08Apr2002                   :

 POSCAR: Ca Si  O
  positions in direct lattice
 exchange correlation table for  LEXCH =        8
   RHO(1)=    0.500       N(1)  =     2000
   RHO(2)=  100.500       N(2)  =     4000

 ion  position               nearest neighbor table
   1  0.390  0.144  0.749- 117 2.09  98 2.50  70 2.57  31 3.11
   2  0.537  0.919  0.426- 109 2.03 102 2.39
   3  0.134  0.364  0.534-  85 2.12  79 2.26  46 3.04
   4  0.312  0.458  0.223- 131 2.05  99 2.18 121 2.43  40 2.97
   5  0.797  0.652  0.020- 114 2.31  58 2.33  62 2.39  60 2.42  74 2.48  34 2.97
   6  0.784  0.518  0.658-  55 2.27  88 2.32  65 2.56  42 2.61  38 2.97
   7  0.708  0.136  0.803-  82 2.19  90 2.25 126 2.30  19 3.11
   8  0.713  0.118  0.263-  71 2.17  68 2.34  56 2.41  45 2.89  30 3.05
   9  0.285  0.742  0.281-  78 2.15  59 2.34 131 2.42 102 2.45 108 2.49  54 2.91
  10  0.560  0.691  0.651- 119 2.14  69 2.19 128 2.20  91 2.33  24 3.02
  11  0.907  0.457  0.420-  76 2.34  61 2.41  88 2.52  42 2.96
  12  0.101  0.590  0.751- 122 2.09  95 2.28  85 2.39
  13  0.057  0.855  0.207- 116 2.02  63 2.03  59 2.42  44 2.94
  14  0.012  0.747  0.495-  63 2.19 108 2.26  81 2.28  88 2.49  44 3.13
  15  0.291  0.258  0.019- 121 2.10  98 2.11  66 2.44  89 2.46
  16  0.283  0.514  0.929-  66 2.09 122 2.39  96 2.54
  17  0.046  0.042  0.644- 129 2.22 105 2.39
  18  0.106  0.054  0.922- 129 2.08  89 2.20 132 2.42 115 2.49  50 2.90
  19  0.789  0.203  0.578- 127 2.19  82 2.35  75 2.35  65 2.36  35 2.90   7 3.11  52 3.14
  20  0.186  0.128  0.310- 125 2.18  77 2.25 103 2.37  83 2.40  43 3.10  36 3.11  48 3.15
  21  0.773  0.366  0.934-  62 2.21 126 2.25  94 2.49
  22  0.769  0.849  0.629- 134 2.11  69 2.27 106 2.31 127 2.40 119 2.51  52 3.07
  23  0.590  0.397  0.429-  61 2.28  65 2.30 111 2.36  91 2.50
  24  0.432  0.486  0.653-  93 2.22 100 2.30 120 2.37  55 2.38  38 2.84  10 3.02
  25  0.320  0.798  0.591-
  26  0.754  0.843  0.206-  60 2.08 133 2.18  68 2.42  80 2.55  44 2.81
  27  0.015  0.433  0.010- 114 2.05  86 2.29  66 2.38  57 2.53
  28  0.162  0.313  0.806- 113 1.55  66 1.74  89 1.75 105 2.04  57 2.46  35 2.93
  29  0.365  0.811  0.846-  92 1.53  87 1.56  84 1.58 135 1.71  49 2.91  50 2.94
  30  0.837  0.083  0.057- 115 1.64  68 1.68 101 1.84  56 2.08   8 3.05
  31  0.316  0.046  0.533- 109 1.47  77 1.58  70 1.61  72 1.84   1 3.11
  32  0.452  0.155  0.234- 118 1.61  97 1.64  71 1.65  83 1.79  36 3.03
  33  0.710  0.890  0.909-  58 1.60 106 1.63 101 1.63 110 1.71  34 2.93
  34  0.902  0.773  0.845-  58 1.56  74 1.63 134 1.64 112 1.96  33 2.93  37 2.96   5 2.97  50 3.08

  35  0.942  0.264  0.740-  82 1.50  57 1.60 105 1.71  75 1.92  19 2.90  28 2.93
  36  0.353  0.276  0.418- 103 1.54  97 1.56 120 1.71  72 1.73  32 3.03  20 3.11
  37  0.063  0.684  0.993- 122 1.51 114 1.66 116 1.66 112 1.85  34 2.96  50 3.10
  38  0.614  0.356  0.689-  65 1.57 126 1.57 100 1.61  55 1.82  24 2.84   6 2.97  41 3.14
  39  0.544  0.943  0.726- 117 1.50  84 1.62  69 1.78 106 2.11
  40  0.084  0.521  0.246-  78 1.67  86 1.73 124 1.88  76 1.90   4 2.97  44 3.13
  41  0.586  0.540  0.857- 128 1.56  62 1.65  96 1.65  55 1.91  51 2.86  38 3.14
  42  0.750  0.622  0.481-  88 1.49  61 1.50 119 1.61  80 2.04   6 2.61  11 2.96
  43  0.299  0.965  0.162- 132 1.63  73 1.65  83 1.76  59 1.76  20 3.10
  44  0.904  0.692  0.276-  63 1.57  76 1.64  80 1.67  60 1.68  26 2.81  13 2.94  40 3.13  14 3.13

[...]

  51  0.506  0.412  0.028- 121 1.55  96 1.66 130 1.71 104 1.83  41 2.86  47 2.95
  52  0.843  0.995  0.448-  81 1.56 133 1.70 127 1.73 107 1.77  22 3.07  19 3.14
  53  0.522  0.164  0.981-  98 1.57  90 1.62 118 1.70 104 1.74
  54  0.450  0.632  0.402- 102 1.55 131 1.67  91 1.88  67 2.23  93 2.31   9 2.91  46 3.15
  55  0.613  0.499  0.712-  38 1.82  41 1.91   6 2.27  24 2.38
  56  0.746  0.215  0.101-  45 1.79  30 2.08   8 2.41
  57  0.970  0.345  0.835-  35 1.60  28 2.46  27 2.53
  58  0.807  0.807  0.917-  34 1.56  33 1.60   5 2.33
  59  0.226  0.920  0.273-  43 1.76   9 2.34  13 2.42
  60  0.885  0.753  0.159-  44 1.68  26 2.08   5 2.42
  61  0.725  0.519  0.425-  42 1.50  23 2.28  11 2.41
  62  0.708  0.528  0.905-  41 1.65  21 2.21   5 2.39
  63  0.977  0.780  0.327-  44 1.57  13 2.03  14 2.19
  64  0.859  0.294  0.286-  48 1.63  45 1.66
  65  0.682  0.358  0.584-  38 1.57  23 2.30  19 2.36   6 2.56
  66  0.177  0.384  0.924-  28 1.74  16 2.09  27 2.38  15 2.44
  67  0.562  0.572  0.277-  47 1.65  54 2.23
  68  0.838  0.013  0.172-  30 1.68   8 2.34  26 2.42
  69  0.588  0.861  0.619-  39 1.78  10 2.19  22 2.27
  70  0.275  0.006  0.648-  31 1.61   1 2.57
  71  0.547  0.070  0.269-  32 1.65   8 2.17
  72  0.324  0.193  0.524-  36 1.73  31 1.84
  73  0.411  0.900  0.140-  43 1.65  49 1.76
  74  0.895  0.643  0.848-  34 1.63   5 2.48
  75  0.903  0.347  0.618-  35 1.92  19 2.35
  76  0.941  0.566  0.273-  44 1.64  40 1.90  11 2.34
  77  0.221  0.024  0.452-  31 1.58  20 2.25
  78  0.159  0.632  0.245-  40 1.67   9 2.15
  79  0.027  0.288  0.410-  48 1.56   3 2.26
  80  0.786  0.692  0.338-  44 1.67  42 2.04  26 2.55
  81  0.926  0.906  0.474-  52 1.56  14 2.28
  82  0.869  0.169  0.744-  35 1.50   7 2.19  19 2.35
  83  0.330  0.100  0.186-  43 1.76  32 1.79  20 2.40
  84  0.450  0.865  0.770-  29 1.58  39 1.62
  85  0.156  0.525  0.581-  46 1.65   3 2.12  12 2.39
  86  0.120  0.420  0.160-  40 1.73  27 2.29
  87  0.433  0.772  0.943-  29 1.56  49 1.59
  88  0.860  0.622  0.525-  42 1.49   6 2.32  14 2.49  11 2.52
  89  0.199  0.190  0.860-  28 1.75  18 2.20  15 2.46
  90  0.624  0.089  0.954-  53 1.62   7 2.25
  91  0.544  0.576  0.505-  54 1.88  10 2.33  23 2.50
  92  0.267  0.877  0.876-  29 1.53  50 1.83
  93  0.337  0.580  0.538-  46 1.67  24 2.22  54 2.31
  94  0.836  0.414  0.116-  45 1.59  21 2.49
  95  0.139  0.766  0.724-  50 1.59  12 2.28
  96  0.484  0.491  0.924-  41 1.65  51 1.66  16 2.54
  97  0.425  0.250  0.320-  36 1.56  32 1.64
  98  0.402  0.153  0.948-  53 1.57  15 2.11   1 2.50
  99  0.398  0.573  0.126-  47 1.71   4 2.18
 100  0.492  0.317  0.694-  38 1.61  24 2.30
 101  0.785  0.974  0.972-  33 1.63  30 1.84
 102  0.450  0.754  0.385-  54 1.55   2 2.39   9 2.45
 103  0.251  0.300  0.355-  36 1.54  20 2.37
 104  0.567  0.295  0.965-  53 1.74  51 1.83
 105  0.068  0.219  0.712-  35 1.71  28 2.04  17 2.39
 106  0.701  0.924  0.784-  33 1.63  39 2.11  22 2.31
 107  0.886  0.116  0.387-  48 1.69  52 1.77
 108  0.185  0.719  0.452-  46 1.75  14 2.26   9 2.49
 109  0.408  0.979  0.503-  31 1.47   2 2.03
 110  0.617  0.833  0.992-  33 1.71  49 1.79
[...]
 121  0.405  0.364  0.081-  51 1.55  15 2.10   4 2.43
 122  0.131  0.628  0.911-  37 1.51  12 2.09  16 2.39
 123  0.522  0.738  0.130-  49 1.61  47 1.65
 124  0.139  0.518  0.386-  46 1.75  40 1.88
 125  0.032  0.180  0.248-  48 1.55  20 2.18
 126  0.687  0.317  0.784-  38 1.57  21 2.25   7 2.30
 127  0.779  0.029  0.566-  52 1.73  19 2.19  22 2.40
 128  0.548  0.653  0.822-  41 1.56  10 2.20
 129  0.088  0.954  0.791-  50 1.50  18 2.08  17 2.22
 130  0.590  0.506  0.081-  51 1.71  47 1.78
 131  0.353  0.569  0.336-  54 1.67   4 2.05   9 2.42  46 2.49
 132  0.207  0.987  0.072-  43 1.63  18 2.42
 133  0.766  0.936  0.353-  52 1.70  26 2.18
 134  0.903  0.837  0.730-  34 1.64  22 2.11
 135  0.359  0.689  0.785-  29 1.71

IMPORTANT INFORMATION: All symmetrisations will be switched off!
NOSYMM: (Re-)initialisation of all symmetry stuff for point group C_1.

Automatic generation of k-mesh.
 generate k-points for:    2    2    2
Space group operators:
 irot       det(A)        alpha          n_x          n_y          n_z        tau_x        tau_y        tau_z
    1     1.000000     0.000001     1.000000     0.000000     0.000000     0.000000     0.000000     0.000000

 Subroutine IBZKPT returns following result:

 Found      8 irreducible k-points:

 Following reciprocal coordinates:
            Coordinates               Weight
  0.000000  0.000000  0.000000      1.000000
  0.500000  0.000000  0.000000      1.000000
  0.000000  0.500000  0.000000      1.000000
  0.500000  0.500000  0.000000      1.000000
  0.000000  0.000000  0.500000      1.000000
  0.500000  0.000000  0.500000      1.000000
  0.000000  0.500000  0.500000      1.000000
  0.500000  0.500000  0.500000      1.000000

 Following cartesian coordinates:
            Coordinates               Weight
  0.000000  0.000000  0.000000      1.000000
  0.039917  0.000000  0.000000      1.000000
  0.000000  0.039917  0.000000      1.000000
  0.039917  0.039917  0.000000      1.000000
  0.000000  0.000000  0.039917      1.000000
  0.039917  0.000000  0.039917      1.000000
  0.000000  0.039917  0.039917      1.000000
  0.039917  0.039917  0.039917      1.000000

 SYSTEM =  unknown system
[...]
     0.000000000  0.000000000 12.526070000     0.000000000  0.000000000  0.079833499

  length of vectors
    12.526070000 12.526070000 12.526070000     0.079833499  0.079833499  0.079833499

 FORCES acting on ions
    electron-ion (+dipol)            ewald-force                    non-local-force                 convergence-correction
   0.982E+02 -.240E+02 0.173E+02   -.986E+02 0.243E+02 -.172E+02   -.202E+01 0.144E+01 0.444E-01   0.545E-03 -.133E-03 -.484E-03
   -.105E+03 -.134E+03 0.162E+03   0.101E+03 0.134E+03 -.160E+03   0.541E+01 -.441E+00 -.273E+01   0.175E-03 0.113E-02 0.124E-02
   0.242E+02 0.191E+03 -.902E+02   -.235E+02 -.189E+03 0.868E+02   0.146E+00 -.291E+01 0.271E+01   0.595E-03 -.394E-04 0.629E-04
   0.425E+02 0.185E+03 0.480E+02   -.408E+02 -.181E+03 -.472E+02   -.235E+01 -.541E+01 -.826E+00   0.933E-04 0.664E-04 0.789E-03
   0.163E+03 0.367E+02 -.143E+03   -.157E+03 -.394E+02 0.140E+03   -.525E+01 0.101E+01 0.286E+01   0.869E-03 -.118E-03 -.107E-02
   -.247E+03 -.409E+02 -.140E+03   0.246E+03 0.367E+02 0.140E+03   0.134E+01 0.225E+01 0.141E+01   -.584E-03 -.574E-03 0.181E-04
   -.133E+02 0.819E+02 0.444E+01   0.121E+02 -.822E+02 -.206E+00   0.126E+00 -.108E+01 -.306E+01   -.351E-03 0.118E-03 -.313E-03
   0.809E+02 0.801E+01 -.960E+02   -.816E+02 -.980E+01 0.928E+02   0.120E+01 0.182E+01 0.303E+01   -.295E-03 -.611E-04 0.470E-04
   -.920E+02 -.206E+03 0.120E+03   0.880E+02 0.204E+03 -.118E+03   0.358E+01 0.214E+01 -.206E+01   -.609E-03 -.435E-04 0.555E-03
   0.476E+02 -.877E+02 -.620E+02   -.456E+02 0.879E+02 0.607E+02   -.308E+01 -.722E+00 0.156E+01   -.575E-04 0.651E-04 -.144E-03
   -.533E+02 0.121E+03 -.437E+01   0.510E+02 -.121E+03 0.152E+01   0.187E+01 -.743E+00 0.235E+01   -.448E-03 -.215E-03 0.415E-03
   0.995E+02 0.980E+02 0.121E+03   -.965E+02 -.932E+02 -.121E+03   -.303E+01 -.466E+01 -.141E+01   0.168E-03 0.386E-03 0.484E-03
   -.923E+00 -.353E+03 0.407E+02   0.340E+01 0.349E+03 -.420E+02   -.178E+01 0.630E+01 0.333E+00   -.355E-04 -.418E-03 -.368E-03
   -.603E+02 -.771E+02 -.205E+03   0.607E+02 0.809E+02 0.198E+03   -.385E+00 -.295E+01 0.656E+01   -.278E-03 0.444E-03 -.320E-03
   0.215E+03 0.108E+03 -.992E+02   -.212E+03 -.111E+03 0.956E+02   -.483E+01 0.964E+00 0.363E+01   0.717E-03 -.650E-03 -.931E-03
   -.548E+02 -.921E+02 -.120E+02   0.535E+02 0.935E+02 0.124E+02   0.283E+01 0.830E+00 -.950E-02   -.263E-03 -.146E-03 -.864E-03
   0.133E+01 0.934E+01 0.173E+03   0.327E+01 -.104E+02 -.169E+03   -.343E+01 0.553E+00 -.410E+01   -.247E-05 -.162E-03 0.941E-03
   0.708E+02 -.506E+02 -.167E+03   -.693E+02 0.528E+02 0.168E+03   -.155E+01 -.824E+00 0.152E+01   -.116E-03 -.150E-04 -.493E-03
   0.678E+02 0.906E+02 0.185E+03   -.650E+02 -.886E+02 -.185E+03   -.239E+01 -.534E+00 -.183E+01   -.100E-02 -.168E-03 0.438E-03
   0.101E+03 0.615E+02 0.440E+02   -.103E+03 -.612E+02 -.424E+02   0.146E+01 -.511E+00 -.133E+01   0.490E-03 -.471E-04 0.409E-03
   -.146E+03 0.101E+03 -.903E+02   0.142E+03 -.981E+02 0.913E+02   0.393E+01 -.301E+01 0.869E-01   -.374E-03 -.388E-03 -.546E-03
   -.108E+03 -.319E+02 0.605E+02   0.108E+03 0.352E+02 -.605E+02   0.129E+00 -.269E+01 -.171E+01   -.358E-03 0.632E-03 -.216E-04
   0.609E+02 0.254E+03 0.150E+03   -.584E+02 -.248E+03 -.151E+03   -.293E+01 -.412E+01 -.225E+00   -.129E-03 -.778E-03 0.103E-02
   0.184E+03 0.694E+02 -.135E+03   -.187E+03 -.735E+02 0.127E+03   0.492E+00 0.320E+01 0.639E+01   0.362E-03 -.565E-03 -.490E-03
   0.928E+02 -.108E+03 0.214E+02   -.969E+02 0.107E+03 -.219E+02   0.275E+01 0.295E+00 0.251E+00   0.383E-03 0.466E-03 0.526E-03
   0.257E+03 -.667E+02 0.641E+02   -.251E+03 0.695E+02 -.595E+02   -.760E+01 -.123E+01 -.379E+01   0.134E-02 0.112E-02 0.420E-03
   0.329E+02 0.228E+03 -.378E+02   -.310E+02 -.226E+03 0.406E+02   -.180E+01 -.370E+01 -.217E+01   -.347E-03 0.331E-03 -.517E-03
   0.711E+02 0.377E+02 0.283E+02   -.552E+02 -.356E+02 -.279E+02   -.163E+02 -.673E+01 0.291E+01   0.136E-03 -.228E-03 -.474E-04
   0.548E+02 -.476E+02 -.333E+02   -.553E+02 0.423E+02 0.343E+02   0.651E+00 -.151E+01 -.375E+01   -.119E-03 -.442E-04 -.371E-03
   -.200E+02 -.242E+02 0.120E+02   0.312E+02 0.214E+02 -.898E+01   -.106E+02 0.185E+01 -.269E+01   0.660E-04 0.112E-04 -.776E-04
   0.602E+00 -.793E+02 -.433E+01   -.509E+01 0.679E+02 0.475E+00   -.221E+01 0.165E+02 0.421E+01   0.333E-03 -.132E-04 0.224E-03
   -.496E+00 0.194E+02 -.627E+02   0.693E+01 -.249E+02 0.578E+02   -.562E+01 0.257E+01 0.241E+01   0.320E-03 -.128E-03 0.154E-03
   0.851E+02 -.242E+02 -.210E+02   -.764E+02 0.273E+02 0.221E+02   -.899E+01 -.960E+00 0.188E+01   0.170E-03 0.355E-03 -.230E-03
   -.588E+02 -.386E+02 0.359E+02   0.520E+02 0.338E+02 -.421E+02   0.103E+02 0.423E+01 0.270E+01   0.823E-05 0.369E-04 -.203E-03
   -.273E+02 -.232E+02 0.173E+01   0.278E+02 0.196E+02 0.155E+01   0.404E+01 0.937E+01 -.669E+01   -.208E-03 -.188E-03 0.487E-04
   -.589E+02 0.552E+02 -.426E+02   0.504E+02 -.497E+02 0.410E+02   0.792E+01 -.307E+01 0.984E+01   0.127E-03 -.768E-05 0.422E-03
   -.181E+02 -.468E+02 -.453E+02   0.243E+02 0.422E+02 0.476E+02   -.798E+01 0.818E+01 0.357E+01   -.732E-04 -.182E-04 -.489E-04
   0.432E+02 0.848E+02 0.106E+02   -.429E+02 -.891E+02 -.103E+02   -.297E+01 0.545E+01 0.109E+01   -.118E-03 -.348E-03 -.134E-03
   -.991E+01 -.282E+02 -.301E+02   0.557E+01 0.348E+02 0.230E+02   0.749E+01 -.129E+02 0.403E+01   0.412E-04 0.406E-03 -.411E-03
   0.684E+02 0.775E+02 0.359E+02   -.565E+02 -.698E+02 -.392E+02   -.910E+01 -.454E+01 0.457E+01   0.115E-03 0.264E-03 0.166E-03
   -.926E+01 0.271E+02 -.377E+02   0.973E+01 -.134E+02 0.384E+02   0.162E+01 -.124E+02 -.184E+01   0.176E-03 -.300E-04 -.317E-03
   0.164E+02 -.616E+02 0.308E+02   -.154E+02 0.569E+02 -.326E+02   -.627E+01 0.115E+02 -.560E+01   -.194E-03 -.555E-04 0.194E-03
   -.315E+02 0.136E+02 0.141E+02   0.214E+02 -.121E+02 -.176E+02   0.613E+01 0.406E+00 0.419E+01   -.338E-03 0.183E-03 -.823E-04
   0.237E+02 0.481E+02 0.229E+02   -.247E+02 -.407E+02 -.197E+02   -.176E+01 -.685E+01 -.380E+01   0.191E-03 0.362E-03 0.719E-04
   0.174E+02 -.843E+01 0.300E+02   -.163E+02 0.124E+02 -.279E+02   -.299E+01 -.481E+01 -.798E+00   -.175E-03 -.230E-03 -.975E-04
   0.132E+02 -.129E+02 0.184E+01   -.144E+02 0.142E+02 0.617E+01   0.935E+00 -.350E+00 -.913E+01   0.184E-03 -.870E-04 0.103E-03
   -.750E+02 -.449E+02 0.959E+01   0.672E+02 0.391E+02 -.227E+01   0.458E+01 0.171E+01 -.611E+01   -.193E-03 -.302E-03 0.849E-04
   0.905E+01 0.505E+02 -.760E+01   0.344E+01 -.480E+02 0.499E+00   -.120E+02 -.350E+01 0.506E+01   0.587E-04 -.363E-04 -.424E-04
   0.147E+02 -.128E+03 -.276E+02   -.164E+02 0.117E+03 0.259E+02   0.303E+01 0.114E+02 0.335E+01   -.847E-04 0.246E-03 -.374E-03
   -.376E+02 0.114E+02 -.507E+02   0.327E+02 -.572E+01 0.360E+02   0.677E+01 -.908E+01 0.161E+02   -.175E-04 0.220E-03 -.257E-03
   -.547E+02 0.373E+02 -.415E+02   0.478E+02 -.371E+02 0.422E+02   0.106E+02 -.421E+00 -.170E+01   0.148E-04 -.443E-03 -.160E-03
   -.112E+02 -.661E+02 0.952E+01   0.128E+02 0.548E+02 -.870E+01   -.348E+01 0.113E+02 -.287E+01   -.353E-03 -.196E-03 0.161E-03
   -.197E+02 0.677E+02 0.132E+02   0.167E+02 -.694E+02 -.129E+02   0.465E+01 0.395E+01 0.381E+01   0.328E-04 -.317E-04 -.244E-03
   -.564E+02 0.700E+01 0.104E+02   0.532E+02 -.165E+01 -.138E+02   0.598E+01 -.119E+02 0.488E+01   -.734E-04 -.891E-04 0.422E-03
   -.182E+02 -.468E+01 -.408E+02   0.196E+02 0.173E+02 0.331E+02   -.219E+01 -.139E+02 0.915E+01   -.156E-03 -.427E-03 -.241E-03
   -.146E+02 0.315E+02 0.513E+02   -.392E+00 -.368E+02 -.630E+02   0.168E+02 0.455E+01 0.121E+02   -.199E-03 -.224E-03 -.195E-04
   -.800E+01 -.311E+02 -.522E+02   0.137E+02 0.483E+02 0.715E+02   -.605E+01 -.159E+02 -.178E+02   -.230E-03 -.419E-03 -.183E-03
   0.546E+00 -.360E+02 -.415E+02   -.135E+01 0.318E+02 0.609E+02   -.706E+00 0.210E+01 -.179E+02   0.350E-03 0.214E-03 -.396E-03
   0.101E+02 -.614E+02 -.690E+02   -.199E+02 0.597E+02 0.908E+02   0.120E+02 0.164E+01 -.247E+02   -.467E-04 0.117E-03 0.243E-04
   -.232E+01 -.362E+02 0.105E+03   0.744E+01 0.459E+02 -.125E+03   -.564E+01 -.114E+02 0.200E+02   0.424E-03 0.298E-03 0.141E-03
[...]
   -.107E+03 -.776E+01 -.186E+02   0.124E+03 -.401E+01 0.100E+01   -.120E+02 0.918E+01 0.149E+02   -.293E-03 0.280E-03 -.215E-03
   -.564E+02 -.701E+02 -.800E+02   0.606E+02 0.756E+02 0.967E+02   -.250E+01 -.647E+01 -.156E+02   -.408E-03 -.596E-04 -.262E-03
   0.642E+02 0.882E+02 -.896E+00   -.681E+02 -.953E+02 0.770E+00   0.229E+01 0.462E+01 0.551E+00   0.354E-03 0.405E-04 0.104E-03
   -.242E+02 0.662E+02 0.188E+03   0.401E+02 -.733E+02 -.215E+03   -.149E+02 0.521E+01 0.253E+02   -.370E-03 -.153E-03 0.799E-04
   -.267E+02 0.633E+02 -.376E+02   0.390E+02 -.682E+02 0.579E+02   -.102E+02 0.327E+01 -.191E+02   -.238E-03 -.149E-03 -.280E-03
   0.606E+02 -.354E+02 -.169E+01   -.711E+02 0.365E+02 0.196E+02   0.110E+02 -.109E+01 -.196E+02   -.535E-03 0.117E-03 0.129E-03
   -.175E+02 -.107E+03 -.112E+03   0.336E+01 0.137E+03 0.109E+03   0.155E+02 -.293E+02 0.207E+01   -.817E-04 -.126E-03 -.557E-03
   0.446E+02 -.625E+02 0.547E+02   -.587E+02 0.865E+02 -.657E+02   0.124E+02 -.201E+02 0.923E+01   0.597E-04 0.108E-03 0.196E-04
   -.132E+03 -.492E+01 -.920E+02   0.158E+03 0.582E+01 0.920E+02   -.255E+02 -.873E+00 0.100E+01   -.348E-04 -.556E-03 -.418E-03
   -.343E+02 0.350E+02 -.440E+01   0.199E+02 -.460E+02 -.463E+01   0.154E+02 0.130E+02 0.113E+02   -.208E-03 -.122E-03 0.460E-03
   0.590E+02 -.316E+02 0.489E+02   -.772E+02 0.347E+02 -.655E+02   0.184E+02 -.322E+01 0.162E+02   -.139E-03 0.249E-04 -.298E-03
   0.885E+02 -.195E+02 -.231E+02   -.965E+02 0.736E+01 0.106E+02   0.685E+01 0.143E+02 0.144E+02   0.445E-04 0.335E-03 0.195E-03
   -.108E+03 -.590E+02 0.527E+02   0.114E+03 0.731E+02 -.730E+02   -.513E+01 -.153E+02 0.218E+02   -.586E-04 0.389E-03 0.977E-04
   0.102E+03 0.742E+02 0.175E+01   -.988E+02 -.959E+02 -.857E+01   -.511E+01 0.233E+02 0.587E+01   0.456E-04 0.132E-03 -.302E-03
   0.109E+03 -.415E+01 -.667E+02   0.270E-12 -.341E-12 0.412E-12   -.109E+03 0.416E+01 0.668E+02   0.635E-03 -.124E-02 -.210E-02

 POSITION                                       TOTAL-FORCE (eV/Angst)
      4.88446      1.79750      9.37991        -2.348600      1.736134      0.190685
      6.73107     11.51064      5.33453         1.283164     -0.682068     -0.802582
      1.67682      4.55953      6.68583         0.920113     -1.570839     -0.666375
      3.90253      5.73815      2.79390        -0.632223     -0.785350      0.011065
      9.98446      8.17099      0.24545         0.630597     -1.633274     -0.131149
      9.82320      6.48934      8.24305         0.953659     -1.960726      1.682062
      8.87087      1.70042     10.05964        -1.062165     -1.341753      1.177176
      8.93102      1.47282      3.30040         0.484908      0.031665     -0.120132
      3.56665      9.29673      3.52562        -0.441939     -0.218341     -0.212098
      7.00957      8.65084      8.15337        -1.068436     -0.500750      0.239694
     11.36489      5.72132      5.25605        -0.425255     -0.867661     -0.494266
      1.26644      7.39242      9.40926        -0.003143      0.158810     -1.571952
      0.71236     10.71490      2.59711         0.693123      2.496541     -0.996992
      0.15289      9.35488      6.19835         0.038168      0.803298     -0.165225
      3.64143      3.23112      0.23834        -1.715786     -1.874956      0.074423
      3.54326      6.43229     11.63208         1.541797      2.227954      0.384177
      0.57047      0.52714      8.06140         1.165835     -0.467451     -0.229802
      1.33052      0.67633     11.54731        -0.031398      1.413953      2.949765
      9.88462      2.54130      7.23955         0.446270      1.421562     -0.983870
      2.32828      1.60277      3.88403        -0.466248     -0.211076      0.231466
      9.68638      4.58348     11.69637        -0.523663     -0.316676      1.120015
      9.62832     10.63091      7.88286        -0.112361      0.653452     -1.719228
      7.38524      4.97867      5.37969        -0.416356      1.324976     -1.341075
      5.41721      6.08803      8.18434        -2.033638     -0.958007     -1.634563
      4.01159      9.99998      7.40647        -1.316025      0.158212     -0.213503
      9.44160     10.55990      2.58544        -0.844674      1.558176      0.832443
      0.19197      5.42211      0.13111         0.141111     -1.818470      0.600882
      2.02720      3.92327     10.09219        -0.358415     -4.640349      3.277919
      4.57709     10.15795     10.59934         0.157916     -6.809161     -2.706498
     10.48332      1.04059      0.70820         0.562999     -0.988213      0.338944
      3.95980      0.58005      6.67230        -6.692816      5.197941      0.360306
      5.66448      1.94535      2.93112         0.813885     -2.900513     -2.430765
      8.88781     11.14278     11.38311        -0.309898      2.131575      3.063911
     11.29650      9.67809     10.57846         3.490023     -0.528650     -3.434687
     11.80547      3.30074      9.27436         4.496473      5.783870     -3.414262
      4.42515      3.46182      5.24147        -0.558847      2.468477      8.292759
      0.79094      8.57230     12.44363        -1.829476      3.534444      5.870390
      7.69426      4.45762      8.62895        -2.643973      1.150102      1.465914
      6.81546     11.81193      9.09720         3.152955     -6.407457     -3.086592
      1.04964      6.52997      3.08128         2.860177      3.168057      1.220392
      7.34336      6.76308     10.73761         2.094160      1.291209     -1.081235
      9.39037      7.79186      6.02443        -5.321195      6.818327     -7.351131
      3.74146     12.08876      2.02410        -3.992256      1.918712      0.701392
     11.32153      8.66466      3.45975        -2.671715      0.576873     -0.537232
      9.73885      4.07415      2.32754        -1.868755     -0.855373      1.382114
      2.70972      7.33913      6.01701        -0.277118      0.923805     -1.114992
      6.59102      7.62295      1.94471        -3.226129     -4.083579      1.208713
     11.94452      2.75521      4.20367         0.489531     -1.067106     -2.032996
      6.06840     10.35888      0.55943         1.387094     -0.257494      1.609778
      1.69393     10.61712     10.28947         1.833029     -3.447341      1.392813
      6.33594      5.15622      0.35550         3.649105     -0.224822     -1.082594
     10.55961     12.46833      5.60993        -1.881308      0.081854     -2.051376
      6.54091      2.05462     12.28579         1.659321      2.249244      4.077160
      5.64217      7.91161      5.03222         2.823185     -6.576521      1.516010
      7.67569      6.24906      8.92356        -0.822775     -1.294468      1.390541
      9.34404      2.69376      1.26322         1.864549     -0.694018      0.397604
     12.15271      4.31827     10.45673        -0.320757      1.245161      1.453498
     10.11055     10.11204     11.48813        -1.507486     -2.120014      1.524155
      2.83687     11.52300      3.42564         2.196472     -0.053114     -2.873043
     11.08749      9.43488      1.98651        -0.516329     -1.654936     -0.778796
[...]
      5.06727      4.56246      1.01077        -2.050093      0.498549      1.043128
      1.63882      7.86367     11.41436         4.688466     -2.585911     -2.689247
      6.53332      9.24274      1.62226         1.685986     -0.961609      1.106346
      1.74294      6.48884      4.82974        -1.540834     -2.511260      0.425472
      0.39613      2.25929      3.10499         1.014991     -1.857364     -1.737965
      8.59962      3.97502      9.81912         2.071882     -1.631304      1.194581
      9.76141      0.35952      7.08534         0.542125      0.029564     -1.615073
      6.86592      8.18082     10.29359         1.355412      0.952144     -0.226286
      1.10205     11.94529      9.90579        -1.731655      4.020185     -1.783635
      7.38770      6.33545      1.00866        -0.205080      0.018993      1.015242
      4.41550      7.13217      4.21285         1.002693      1.999704      2.280446
      2.59707     12.36589      0.89980         0.268432     -0.082540     -0.388841
      9.59581     11.72687      4.42514        -1.162069      2.084484      1.929821
     11.30586     10.47880      9.14664         0.723944     -1.087723      1.445819
      4.49390      8.63340      9.83889        -2.072547      1.594883     -0.943719
    total drift:                                0.020099      0.007200      0.004168

  FREE ENERGIE OF THE ION-ELECTRON SYSTEM (eV)
  free  energy   TOTEN  =      -937.36017274 eV

  energy  without entropy=     -937.36017274  energy(sigma->0) =     -937.36017274