 vasp.5.4.4.18Apr17-6-g9f103f2a35 (build Oct 31 2019 15:01:46) complex

 executed on             LinuxIFC date 2024.04.30  00:13:46

 INCAR:
 POTCAR:    PAW_PBE Sc_sv 07Sep2000
 POTCAR:    PAW_PBE Cl 06Sep2000
 POTCAR:    PAW_PBE C 08Apr2002
 POTCAR:    PAW_PBE Sc_sv 07Sep2000
   VRHFIN =Sc: 3p4s3d

   TITEL  = PAW_PBE Sc_sv 07Sep2000
   POMASS =   44.956; ZVAL   =   11.000    mass and valenz
   ENMAX  =  222.660; ENMIN  =  166.995 eV

 POTCAR:    PAW_PBE Cl 06Sep2000
   VRHFIN =Cl: s2p5

   TITEL  = PAW_PBE Cl 06Sep2000
   POMASS =   35.453; ZVAL   =    7.000    mass and valenz
   ENMAX  =  262.472; ENMIN  =  196.854 eV

 POTCAR:    PAW_PBE C 08Apr2002
   VRHFIN =C: s2p2

   TITEL  = PAW_PBE C 08Apr2002
   POMASS =   12.011; ZVAL   =    4.000    mass and valenz
   ENMAX  =  400.000; ENMIN  =  300.000 eV

 Optimization of the real space projectors (new method)

 maximal supplied QI-value         = 15.12
 optimisation between [QCUT,QGAM] = [ 12.55, 25.10] = [ 44.09,176.36] Ry
 Optimized for a Real-space Cutoff    1.56 Angstroem

   l    n(q)    QCUT    max X(q) W(low)/X(q) W(high)/X(q)  e(spline)
   0     12    12.548     2.962    0.12E-05    0.11E-06    0.46E-07
   0     12    12.548    26.414    0.30E-04    0.15E-05    0.76E-07
   1     11    12.548     3.969    0.45E-05    0.12E-05    0.60E-07
   1     11    12.548     5.137    0.15E-04    0.18E-04    0.36E-06
   2     11    12.548   143.970    0.20E-03    0.19E-03    0.76E-06
   2     11    12.548   121.201    0.20E-03    0.19E-03    0.76E-06
 Optimization of the real space projectors (new method)

[...]

   l    n(q)    QCUT    max X(q) W(low)/X(q) W(high)/X(q)  e(spline)
   0      9    12.501   168.010    0.44E-04    0.61E-04    0.77E-07
   0      9    12.501   164.674    0.43E-04    0.60E-04    0.75E-07
   1      8    12.501    69.222    0.11E-03    0.13E-03    0.91E-07
   1      8    12.501    56.786    0.11E-03    0.13E-03    0.90E-07
 Optimization of the real space projectors (new method)

 maximal supplied QI-value         = 25.13
 optimisation between [QCUT,QGAM] = [ 12.32, 24.88] = [ 42.47,173.37] Ry
 Optimized for a Real-space Cutoff    1.16 Angstroem

   l    n(q)    QCUT    max X(q) W(low)/X(q) W(high)/X(q)  e(spline)
   0      9    12.315   115.676    0.19E-03    0.80E-05    0.34E-06
   0      9    12.315    87.132    0.19E-03    0.82E-05    0.34E-06
   1      8    12.315     4.429    0.18E-03    0.13E-03    0.22E-06
   1      8    12.315     2.733    0.14E-03    0.10E-03    0.18E-06
  PAW_PBE Sc_sv 07Sep2000               :
  PAW_PBE Cl 06Sep2000                  :
  PAW_PBE C 08Apr2002                   :

 POSCAR: Sc Cl  C
  positions in cartesian coordinates
 exchange correlation table for  LEXCH =        8
   RHO(1)=    0.500       N(1)  =     2000
   RHO(2)=  100.500       N(2)  =     4000

 ion  position               nearest neighbor table
   1  0.085  0.162  0.546-  65 2.29  70 2.30  66 2.39  61 2.45  49 2.55  50 2.59  29 3.14  17 3.23
                            18 3.30   4 3.32  13 3.35   5 3.37   6 3.40
   2  0.089  0.428  0.544-  71 2.16  67 2.34  66 2.48  51 2.52  50 2.53  62 2.60  19 3.15  30 3.16
                             7 3.27   6 3.33  18 3.34
   3  0.083  0.674  0.539-  68 2.20  67 2.21  72 2.39  52 2.72  63 2.73  51 2.79  31 2.90  20 3.10
                            19 3.19   4 3.39   8 3.40  15 3.42   7 3.43
   4  0.087  0.922  0.542-  65 2.19  69 2.26  68 2.37  49 2.51  52 2.87  64 2.88  17 3.10  20 3.15
                            32 3.17   1 3.32   5 3.36   8 3.37   3 3.39
   5  0.331  0.165  0.545-  70 2.20  69 2.37  74 2.39  54 2.51  49 2.61  53 2.65  21 3.17  22 3.20
                            17 3.22   4 3.36   1 3.37   8 3.38  10 3.42   9 3.43
   6  0.324  0.416  0.542-  71 2.30  75 2.37  70 2.50  55 2.53  54 2.61  50 2.69  18 3.16  23 3.23
                             2 3.33   1 3.40  10 3.40  22 3.41   7 3.41
   7  0.327  0.664  0.545-  72 2.37  71 2.39  55 2.45  76 2.47  56 2.55  51 2.61  19 3.18  24 3.24
                             2 3.27  23 3.28   6 3.41   3 3.43
   8  0.330  0.919  0.547-  72 2.33  69 2.34  73 2.42  53 2.54  52 2.57  56 2.58  20 3.18  21 3.31
                            24 3.31   4 3.37   5 3.38   3 3.40   9 3.43
   9  0.580  0.166  0.544-  73 2.27  78 2.43  74 2.44  53 2.52  58 2.77  57 2.79  26 3.04  25 3.06
                            21 3.11  14 3.41   5 3.43   8 3.43
  10  0.572  0.420  0.546-  75 2.18  74 2.33  79 2.44  59 2.52  58 2.57  54 2.61  26 3.11  27 3.20
                            11 3.24  22 3.31   6 3.40   5 3.42
  11  0.581  0.659  0.544-  76 2.32  75 2.33  80 2.43  55 2.51  60 2.55  59 2.56  27 3.09  28 3.19
                            10 3.24  23 3.32  16 3.38  15 3.42
  12  0.582  0.910  0.546-  76 2.33  73 2.47  77 2.48  60 2.50  57 2.51  56 2.67  28 3.13  24 3.20
                            25 3.30  16 3.36
  13  0.843  0.161  0.544-  77 2.30  78 2.40  66 2.43  61 2.57  57 2.62  62 2.72  29 3.12  25 3.16
                            30 3.23   1 3.35  16 3.40
  14  0.827  0.413  0.544-  78 2.30  79 2.33  58 2.40  62 2.50  67 2.52  63 2.65  26 2.93  31 3.13
                            30 3.39  15 3.41   9 3.41
  15  0.829  0.661  0.547-  79 2.30  80 2.44  64 2.53  68 2.55  63 2.57  59 2.60  31 3.17  27 3.21
                            32 3.23  14 3.41   3 3.42  11 3.42  16 3.43
  16  0.824  0.906  0.546-  80 2.25  77 2.33  65 2.35  64 2.59  61 2.64  60 2.81  28 3.09  32 3.12
                            29 3.25  12 3.36  11 3.38  13 3.40  15 3.43
  17  0.167  0.080  0.454-  70 2.23  69 2.32  65 2.50  33 2.55  36 2.59  37 2.88   4 3.10   5 3.22
                             1 3.23  22 3.31  20 3.32  29 3.34  21 3.42  18 3.42
  18  0.165  0.327  0.451-  66 2.21  71 2.43  70 2.52  33 2.64  38 2.69  34 2.74   6 3.16  30 3.25
                             1 3.30   2 3.34  29 3.36  17 3.42
  19  0.170  0.586  0.453-  71 2.30  34 2.31  67 2.31  39 2.40  72 2.45  35 2.63   2 3.15   7 3.18
                             3 3.19  23 3.29  31 3.39  30 3.41
  20  0.174  0.843  0.455-  69 2.23  68 2.32  72 2.32  35 2.45  40 2.49  36 2.49   3 3.10   4 3.15
                             8 3.18  17 3.32
  21  0.422  0.094  0.455-  74 2.32  73 2.35  69 2.43  40 2.59  41 2.64  37 2.95   9 3.11  22 3.13
                             5 3.17   8 3.31  26 3.41  25 3.42  17 3.42
  22  0.411  0.315  0.450-  74 2.19  70 2.43  75 2.53  38 2.58  37 2.62  42 2.69  21 3.13   5 3.20
                            17 3.31  10 3.31   6 3.41  26 3.42
  23  0.407  0.582  0.451-  76 2.40  71 2.44  39 2.48  75 2.55  38 2.55  43 2.57   6 3.23   7 3.28
                            19 3.29  11 3.32  24 3.40
  24  0.419  0.834  0.455-  72 2.26  76 2.40  73 2.40  40 2.46  39 2.48  44 2.55  12 3.20   7 3.24
                             8 3.31  23 3.40
  25  0.671  0.096  0.458-  78 2.18  73 2.35  41 2.37  77 2.46  45 2.63  44 2.80   9 3.06  13 3.16
                            12 3.30  26 3.38  21 3.42
  26  0.669  0.340  0.464-  79 2.18  74 2.24  78 2.36  41 2.63  42 2.71  46 2.71  14 2.93   9 3.04
                            10 3.11  25 3.38  21 3.41  22 3.42  27 3.42
  27  0.665  0.585  0.456-  80 2.34  79 2.37  75 2.37  43 2.50  47 2.58  42 2.61  11 3.09  10 3.20
                            15 3.21  32 3.39  26 3.42  28 3.42
  28  0.668  0.835  0.457-  80 2.29  77 2.29  76 2.29  48 2.57  43 2.58  44 2.68  16 3.09  12 3.13
                            11 3.19  32 3.35  27 3.42
  29  0.926  0.080  0.456-  77 2.32  65 2.33  66 2.35  33 2.54  48 2.66  45 2.67  13 3.12   1 3.14
                            16 3.25  32 3.31  17 3.34  18 3.36  30 3.42
  30  0.932  0.330  0.453-  66 2.25  45 2.40  78 2.48  67 2.55  34 2.56  46 2.64   2 3.16  13 3.23
                            18 3.25  14 3.39  19 3.41  29 3.42
  31  0.925  0.586  0.460-  67 2.15  68 2.25  79 2.42  46 2.64  47 2.78  35 2.79   3 2.90  14 3.13
                            15 3.17  19 3.39
  32  0.910  0.832  0.458-  80 2.18  65 2.36  68 2.38  47 2.47  48 2.51  36 2.61  16 3.12   4 3.17
                            15 3.23  29 3.31  28 3.35  27 3.39
  33  0.079  0.152  0.393-  29 2.54  17 2.55  18 2.64
  34  0.095  0.445  0.396-  19 2.31  30 2.56  18 2.74
  35  0.102  0.691  0.395-  20 2.45  19 2.63  31 2.79
  36  0.078  0.907  0.398-  20 2.49  17 2.59  32 2.61
  37  0.331  0.174  0.378-  22 2.62  17 2.88  21 2.95
  38  0.345  0.418  0.393-  23 2.55  22 2.58  18 2.69
  39  0.327  0.671  0.399-  19 2.40  23 2.48  24 2.48
  40  0.340  0.918  0.401-  24 2.46  20 2.49  21 2.59
  41  0.603  0.177  0.401-  25 2.37  26 2.63  21 2.64
  42  0.594  0.422  0.394-  27 2.61  22 2.69  26 2.71
  43  0.586  0.667  0.399-  27 2.50  23 2.57  28 2.58
  44  0.580  0.916  0.394-  24 2.55  28 2.68  25 2.80
  45  0.842  0.175  0.399-  30 2.40  25 2.63  29 2.67
  46  0.836  0.417  0.399-  30 2.64  31 2.64  26 2.71
  47  0.834  0.678  0.398-  32 2.47  27 2.58  31 2.78
  48  0.829  0.907  0.396-  32 2.51  28 2.57  29 2.66
  49  0.162  0.074  0.605-   4 2.51   1 2.55   5 2.61
  50  0.149  0.331  0.603-   2 2.53   1 2.59   6 2.69
  51  0.161  0.580  0.607-   2 2.52   7 2.61   3 2.79
  52  0.174  0.829  0.611-   8 2.57   3 2.72   4 2.87
  53  0.424  0.084  0.605-   9 2.52   8 2.54   5 2.65
  54  0.399  0.325  0.603-   5 2.51  10 2.61   6 2.61
  55  0.412  0.584  0.597-   7 2.45  11 2.51   6 2.53
  56  0.406  0.827  0.605-   7 2.55   8 2.58  12 2.67
  57  0.673  0.071  0.603-  12 2.51  13 2.62   9 2.79
  58  0.677  0.354  0.602-  14 2.40  10 2.57   9 2.77
  59  0.659  0.579  0.605-  10 2.52  11 2.56  15 2.60
  60  0.636  0.812  0.607-  12 2.50  11 2.55  16 2.81
  61  0.928  0.082  0.603-   1 2.45  13 2.57  16 2.64
  62  0.919  0.343  0.602-  14 2.50   2 2.60  13 2.72
  63  0.916  0.582  0.606-  15 2.57  14 2.65   3 2.73
  64  0.900  0.819  0.608-  15 2.53  16 2.59   4 2.88
  65  0.997  0.994  0.506-   4 2.19   1 2.29  29 2.33  16 2.35  32 2.36  17 2.50
  66  0.014  0.253  0.496-  18 2.21  30 2.25  29 2.35   1 2.39  13 2.43   2 2.48
  67  0.009  0.514  0.499-  31 2.15   3 2.21  19 2.31   2 2.34  14 2.52  30 2.55
  68  0.007  0.754  0.497-   3 2.20  31 2.25  20 2.32   4 2.37  32 2.38  15 2.55
  69  0.248  0.998  0.499-  20 2.23   4 2.26  17 2.32   8 2.34   5 2.37  21 2.43
  70  0.246  0.231  0.501-   5 2.20  17 2.23   1 2.30  22 2.43   6 2.50  18 2.52
  71  0.238  0.495  0.500-   2 2.16   6 2.30  19 2.30   7 2.39  18 2.43  23 2.44
  72  0.259  0.762  0.498-  24 2.26  20 2.32   8 2.33   7 2.37   3 2.39  19 2.45
  73  0.500  0.005  0.500-   9 2.27  25 2.35  21 2.35  24 2.40   8 2.42  12 2.47
  74  0.499  0.260  0.499-  22 2.19  26 2.24  21 2.32  10 2.33   5 2.39   9 2.44
  75  0.496  0.492  0.500-  10 2.18  11 2.33   6 2.37  27 2.37  22 2.53  23 2.55
  76  0.504  0.747  0.500-  28 2.29  11 2.32  12 2.33  24 2.40  23 2.40   7 2.47
  77  0.758  1.000  0.499-  28 2.29  13 2.30  29 2.32  16 2.33  25 2.46  12 2.48
  78  0.756  0.250  0.501-  25 2.18  14 2.30  26 2.36  13 2.40   9 2.43  30 2.48
  79  0.748  0.500  0.502-  26 2.18  15 2.30  14 2.33  27 2.37  31 2.42  10 2.44
  80  0.754  0.755  0.498-  32 2.18  16 2.25  28 2.29  27 2.34  11 2.43  15 2.44

  LATTYP: Found a hexagonal cell.
 ALAT       =    13.7939866762
 C/A-ratio  =     2.0161119278

  Lattice vectors:

[...]
     0.000000000  0.000000000 27.810221070     0.000000000  0.000000000  0.035958003

  length of vectors
    13.793986680 13.793986676 27.810221070     0.083710429  0.083710429  0.035958003

 FORCES acting on ions
    electron-ion (+dipol)            ewald-force                    non-local-force                 convergence-correction
   0.843E+01 -.437E+02 -.110E+04   -.807E+01 0.431E+02 0.110E+04   -.105E+00 0.812E+00 0.418E+01   -.165E-04 -.251E-04 0.102E-03
   0.363E+02 0.498E+02 -.105E+04   -.367E+02 -.493E+02 0.105E+04   -.266E+00 -.122E+01 0.374E+01   -.139E-04 0.707E-05 0.692E-04
   -.780E+01 -.560E+01 -.102E+04   0.806E+01 0.580E+01 0.102E+04   0.503E+00 -.942E-01 0.516E+01   -.257E-04 0.309E-05 0.501E-04
   0.320E+01 0.544E+02 -.108E+04   -.364E+01 -.549E+02 0.108E+04   0.439E+00 -.635E+00 0.536E+01   -.684E-06 -.442E-05 0.774E-04
   -.355E+02 -.828E+01 -.111E+04   0.345E+02 0.838E+01 0.111E+04   0.825E+00 -.286E+00 0.471E+01   0.266E-04 -.166E-04 0.104E-03
   -.147E+02 0.279E+02 -.999E+03   0.156E+02 -.275E+02 0.995E+03   -.214E+00 -.726E+00 0.411E+01   -.813E-05 0.176E-04 0.798E-04
   -.552E+01 -.189E+02 -.107E+04   0.501E+01 0.203E+02 0.107E+04   0.247E+00 -.537E+00 0.359E+01   0.593E-05 -.172E-04 0.625E-04
   -.276E+02 -.171E+02 -.113E+04   0.281E+02 0.160E+02 0.112E+04   0.126E+00 0.620E+00 0.408E+01   -.154E-04 0.101E-04 0.779E-04
   -.366E+02 -.611E+01 -.111E+04   0.372E+02 0.464E+01 0.111E+04   0.894E-01 0.127E+01 0.489E+01   -.733E-05 0.186E-04 0.699E-04
   0.529E+01 0.349E+02 -.112E+04   -.532E+01 -.349E+02 0.111E+04   0.425E+00 -.410E+00 0.466E+01   0.319E-04 0.827E-06 0.100E-03
   0.200E+01 0.893E+00 -.103E+04   -.323E+01 -.412E+00 0.102E+04   0.505E+00 -.217E+00 0.411E+01   0.159E-04 0.331E-05 0.805E-04
   0.238E+02 -.461E+02 -.107E+04   -.240E+02 0.460E+02 0.106E+04   -.309E+00 0.288E+00 0.351E+01   0.692E-06 -.192E-05 0.713E-04
   0.348E+02 -.294E+02 -.107E+04   -.362E+02 0.291E+02 0.107E+04   0.535E+00 0.794E+00 0.451E+01   0.348E-05 0.167E-04 0.754E-04
   -.509E+02 0.193E+02 -.105E+04   0.516E+02 -.190E+02 0.105E+04   0.482E+00 0.522E+00 0.326E+01   -.395E-05 0.270E-05 0.855E-04
   -.174E+02 -.169E+02 -.112E+04   0.179E+02 0.166E+02 0.111E+04   -.233E+00 0.621E+00 0.358E+01   0.965E-05 0.312E-06 0.714E-04
   0.255E+02 -.159E+02 -.116E+04   -.241E+02 0.164E+02 0.115E+04   -.834E+00 0.111E+00 0.532E+01   0.152E-04 -.887E-05 0.736E-04
   -.122E+02 -.159E+02 0.113E+04   0.125E+02 0.156E+02 -.113E+04   -.215E+00 -.167E-01 -.486E+01   -.210E-04 -.544E-04 -.694E-04
   -.324E+02 -.894E+01 0.119E+04   0.316E+02 0.836E+01 -.118E+04   0.839E+00 0.709E+00 -.534E+01   -.181E-04 0.190E-04 -.434E-04
   0.214E+02 -.394E+01 0.109E+04   -.233E+02 0.489E+01 -.109E+04   0.465E+00 0.325E+00 -.396E+01   -.167E-04 0.215E-04 -.846E-04
   -.701E+00 -.100E+02 0.108E+04   0.618E+00 0.905E+01 -.108E+04   0.336E-02 0.404E+00 -.387E+01   -.244E-04 -.270E-04 -.132E-03
   -.214E+01 -.962E+00 0.112E+04   0.354E+01 -.643E+00 -.111E+04   -.844E+00 0.485E+00 -.513E+01   0.342E-04 -.198E-04 -.468E-04
   0.154E+02 -.398E+02 0.118E+04   -.149E+02 0.413E+02 -.118E+04   -.752E+00 0.146E+00 -.408E+01   0.292E-04 0.703E-05 -.353E-04
   -.391E+02 0.225E+02 0.115E+04   0.407E+02 -.221E+02 -.114E+04   -.318E+00 -.349E+00 -.411E+01   -.250E-04 0.288E-04 -.419E-04
   -.532E+02 -.445E+02 0.105E+04   0.528E+02 0.454E+02 -.105E+04   0.465E+00 -.346E+00 -.403E+01   -.794E-05 0.393E-05 -.987E-04
   -.375E+02 0.598E+02 0.101E+04   0.377E+02 -.602E+02 -.101E+04   0.746E+00 -.113E+01 -.437E+01   -.243E-04 0.300E-04 -.911E-04
   -.169E+02 -.564E+01 0.928E+03   0.169E+02 0.663E+01 -.926E+03   0.265E+00 -.867E+00 -.407E+01   0.276E-04 -.186E-04 -.797E-04
   -.703E+01 0.397E+02 0.107E+04   0.792E+01 -.402E+02 -.107E+04   -.302E+00 -.473E-01 -.357E+01   0.327E-04 0.388E-04 -.622E-04
   0.490E+02 -.316E+02 0.106E+04   -.492E+02 0.319E+02 -.105E+04   -.208E+00 -.260E+00 -.441E+01   0.187E-04 -.132E-04 -.790E-04
   0.429E+02 -.126E+01 0.107E+04   -.438E+02 0.634E+00 -.106E+04   0.691E-01 0.238E+00 -.472E+01   0.309E-06 -.176E-04 -.708E-04
   0.480E+02 -.117E+02 0.110E+04   -.496E+02 0.118E+02 -.109E+04   0.229E-01 0.752E+00 -.338E+01   -.437E-04 0.695E-05 -.649E-04
   0.507E+02 0.335E+02 0.104E+04   -.507E+02 -.333E+02 -.104E+04   -.104E+01 -.217E+00 -.483E+01   -.702E-05 0.150E-04 -.109E-03
   -.279E+02 -.149E+00 0.102E+04   0.288E+02 -.783E+00 -.101E+04   0.174E+00 0.847E+00 -.389E+01   0.860E-05 -.172E-04 -.117E-03
   0.166E+02 -.130E+02 0.148E+04   -.165E+02 0.126E+02 -.148E+04   -.137E+00 0.894E+00 0.189E+01   -.110E-04 -.259E-04 0.205E-05
   0.293E+01 0.445E+02 0.148E+04   -.317E+01 -.441E+02 -.148E+04   0.568E+00 -.248E+01 0.459E+00   -.216E-04 0.262E-04 -.108E-04
   0.352E+02 0.340E+02 0.147E+04   -.353E+02 -.338E+02 -.147E+04   -.202E+00 -.148E+01 0.177E+01   -.106E-04 0.863E-05 -.100E-04
   0.135E+02 0.146E+00 0.145E+04   -.135E+02 -.463E+00 -.145E+04   -.195E+00 0.106E+01 0.161E+01   0.863E-07 -.331E-04 -.319E-05
   -.198E+02 0.213E+02 0.153E+04   0.196E+02 -.212E+02 -.153E+04   0.584E+00 -.549E+00 0.371E+01   -.561E-06 -.229E-04 0.102E-04
   0.306E+01 -.477E+01 0.146E+04   -.269E+01 0.479E+01 -.146E+04   -.106E+01 -.867E-01 0.213E+01   -.734E-05 0.865E-05 0.492E-05
   -.285E+02 -.141E+02 0.146E+04   0.284E+02 0.141E+02 -.146E+04   0.105E+01 0.672E-01 0.397E+00   -.270E-04 0.123E-04 -.145E-04
   -.125E+02 -.398E+02 0.143E+04   0.126E+02 0.397E+02 -.144E+04   -.200E+00 0.996E+00 0.969E+00   -.958E-05 -.261E-04 -.105E-04
   0.120E+02 -.113E+02 0.143E+04   -.117E+02 0.114E+02 -.143E+04   -.159E+01 0.156E-02 0.105E+01   0.208E-04 0.828E-06 0.142E-04
   -.225E+02 0.147E+01 0.145E+04   0.228E+02 -.135E+01 -.145E+04   -.413E+00 -.402E+00 0.267E+01   0.277E-04 0.112E-04 0.156E-04
   0.908E+01 -.205E+01 0.144E+04   -.879E+01 0.212E+01 -.144E+04   -.731E+00 -.105E+00 0.150E+01   0.123E-04 0.243E-04 0.472E-05
   -.200E+02 -.289E+02 0.145E+04   0.200E+02 0.290E+02 -.145E+04   0.437E+00 0.177E+00 0.235E+01   -.345E-05 -.176E-05 -.142E-05
   0.896E+01 0.335E+02 0.144E+04   -.916E+01 -.334E+02 -.144E+04   0.371E+00 -.809E+00 0.124E+01   -.944E-05 0.810E-06 0.659E-06
   0.167E+02 -.504E+01 0.142E+04   -.170E+02 0.500E+01 -.142E+04   0.359E+00 0.340E+00 0.237E+01   0.213E-05 0.160E-04 0.379E-05
   -.260E+02 0.430E+02 0.144E+04   0.260E+02 -.428E+02 -.144E+04   0.317E+00 -.937E+00 0.182E+01   0.232E-04 0.171E-04 0.343E-05
   0.265E+02 -.223E+02 0.147E+04   -.264E+02 0.220E+02 -.147E+04   -.237E+00 0.988E+00 0.182E+01   0.145E-04 -.135E-04 0.422E-05
   -.834E+01 0.934E+00 -.148E+04   0.828E+01 -.114E+01 0.148E+04   0.360E+00 0.412E+00 -.164E+01   0.443E-05 -.411E-05 -.852E-05
   -.932E+01 0.290E+01 -.145E+04   0.898E+01 -.293E+01 0.145E+04   0.116E+01 0.139E+00 -.197E+01   -.539E-05 -.692E-05 -.176E-04
   0.158E+02 -.645E+01 -.147E+04   -.161E+02 0.642E+01 0.148E+04   0.403E+00 0.332E+00 -.233E+01   -.101E-04 -.256E-05 -.259E-04
   0.287E+02 0.516E+01 -.148E+04   -.285E+02 -.540E+01 0.149E+04   -.749E+00 0.461E+00 -.287E+01   -.737E-05 0.433E-05 -.157E-04
   -.135E+02 -.210E+02 -.147E+04   0.136E+02 0.209E+02 0.147E+04   -.303E+00 0.372E+00 -.175E+01   -.962E-05 0.559E-05 -.129E-05
   0.238E+01 -.617E+01 -.146E+04   -.247E+01 0.605E+01 0.146E+04   0.295E+00 0.493E+00 -.171E+01   0.149E-04 -.699E-05 0.529E-05
   -.444E+01 0.217E+02 -.142E+04   0.441E+01 -.216E+02 0.142E+04   0.138E+00 -.855E+00 -.998E+00   0.882E-05 0.253E-05 -.433E-05
   -.102E+02 -.189E+02 -.145E+04   0.101E+02 0.188E+02 0.146E+04   0.496E+00 0.323E+00 -.224E+01   -.513E-05 0.470E-05 -.102E-04
   0.100E+02 -.349E+02 -.143E+04   -.992E+01 0.347E+02 0.144E+04   -.397E+00 0.738E+00 -.207E+01   -.248E-05 0.412E-05 -.360E-05
   0.916E+01 0.479E+02 -.145E+04   -.893E+01 -.475E+02 0.145E+04   -.754E+00 -.161E+01 -.128E+01   -.278E-05 0.943E-05 0.104E-04
   0.346E+01 0.820E+00 -.148E+04   -.340E+01 -.802E+00 0.148E+04   -.118E+00 0.157E+00 -.176E+01   0.901E-05 -.599E-05 0.409E-05
   -.175E+02 -.205E+02 -.148E+04   0.172E+02 0.204E+02 0.148E+04   0.125E+01 0.717E+00 -.199E+01   0.809E-05 -.401E-05 -.818E-05
[...]
   0.491E+01 0.460E+02 0.303E+01   -.475E+01 -.456E+02 -.301E+01   0.302E+00 -.141E+01 0.125E+00   -.595E-05 0.685E-05 -.339E-05
   0.299E+02 -.727E+01 0.196E+02   -.297E+02 0.740E+01 -.201E+02   -.901E+00 -.210E+00 0.149E+01   0.280E-05 -.435E-05 -.911E-05
   -.197E+02 -.178E+02 0.332E+01   0.196E+02 0.174E+02 -.325E+01   0.257E+00 0.135E+01 0.885E-01   -.156E-05 -.677E-05 0.539E-05
   0.866E+01 -.401E+02 -.472E+00   -.850E+01 0.395E+02 0.843E+00   -.675E+00 0.198E+01 -.134E+01   0.125E-05 -.771E-05 0.150E-04
   -.252E+02 0.452E+01 0.146E+02   0.248E+02 -.467E+01 -.143E+02   0.175E+01 0.628E+00 -.943E+00   -.854E-05 0.559E-05 0.574E-05
   -.614E+01 0.408E+01 0.418E+01   0.626E+01 -.372E+01 -.427E+01   -.932E-01 -.110E+01 0.823E+00   -.749E-05 -.228E-05 -.564E-05
   -.117E+02 0.164E+02 -.366E+01   0.117E+02 -.164E+02 0.350E+01   0.183E+00 0.505E+00 0.430E+00   -.110E-05 0.290E-05 0.543E-06
   -.339E+01 0.503E+01 -.667E+01   0.316E+01 -.453E+01 0.653E+01   0.702E+00 -.189E+01 0.521E+00   0.688E-05 0.125E-05 0.108E-04
   0.255E+02 0.104E+02 0.292E+02   -.253E+02 -.106E+02 -.289E+02   -.105E+01 0.801E+00 -.450E+00   0.445E-05 0.486E-05 0.118E-04
   0.118E+02 0.511E+01 0.626E+01   -.115E+02 -.503E+01 -.628E+01   -.949E+00 -.609E-01 -.324E-01   0.388E-05 0.221E-05 0.172E-05
   0.276E+02 -.107E+02 0.190E+02   -.274E+02 0.108E+02 -.194E+02   -.638E+00 -.103E+00 0.115E+01   0.265E-05 -.183E-05 -.118E-05
   -.202E+02 -.725E+01 -.178E+02   0.204E+02 0.715E+01 0.176E+02   -.498E+00 0.404E+00 0.793E+00   -.192E-05 0.173E-05 -.198E-05
   0.227E+01 -.129E+02 -.433E+01   -.230E+01 0.130E+02 0.403E+01   0.109E+00 0.409E+00 0.639E+00   0.569E-05 0.317E-05 0.922E-06
   0.422E+01 0.211E+02 0.253E+01   -.409E+01 -.209E+02 -.287E+01   -.620E+00 -.127E+01 0.146E+01   0.239E-05 0.288E-05 -.549E-05
   0.124E+01 -.518E+00 -.252E+00   -.271E-12 -.497E-13 -.884E-11   -.123E+01 0.514E+00 0.251E+00   -.237E-04 0.118E-04 -.357E-04

 POSITION                                       TOTAL-FORCE (eV/Angst)
      0.05900      1.93223     15.18448         0.254176      0.256156     -0.821070
     -1.72643      5.11742     15.11645        -0.636459     -0.725090     -0.147695
     -3.50194      8.05225     14.99199         0.758082      0.102123      1.698326
     -5.16081     11.01099     15.08116        -0.001154     -1.200802      0.717170
      3.43233      1.96928     15.16766        -0.145414     -0.184466     -0.521033
      1.59528      4.96597     15.07712         0.707847     -0.317726     -0.371503
     -0.07898      7.93789     15.16900        -0.270635      0.766636     -0.944446
     -1.78942     10.97869     15.22014         0.552595     -0.518472     -0.925967
      6.85939      1.97789     15.12146         0.676412     -0.196297      0.623985
      4.99582      5.01288     15.19336         0.391539     -0.367768     -0.615053
      3.46303      7.87166     15.12229        -0.724984      0.263166     -0.805813
      1.75047     10.86950     15.17680        -0.506987      0.247262     -0.667459
     10.50847      1.92879     15.12138        -0.824069      0.441073     -0.041471
      8.56303      4.92944     15.14250         1.215755      0.783002     -0.034500
      6.88497      7.89161     15.22181         0.276231      0.354262     -0.458800
      5.11131     10.82395     15.18736         0.576900      0.628487      0.093937
      1.75713      0.95076     12.61858         0.116639     -0.319055      0.353500
      0.02647      3.90493     12.54192         0.041340      0.132716      0.772155
     -1.69055      6.99507     12.59230        -1.397281      1.272942      2.146970
     -3.40904     10.06849     12.64213        -0.079779     -0.592741      0.499911
      5.17503      1.12389     12.65282         0.555894     -1.118960      0.098040
      3.49855      3.76540     12.51546        -0.233195      1.598855      0.610275
      1.60317      6.95385     12.53301         1.253101      0.065094      1.414708
      0.02929      9.96394     12.64178         0.070482      0.585018      1.358425
      8.58896      1.15096     12.73899         0.966804     -1.546518      0.101771
      6.87841      4.06100     12.91089         0.255950      0.123794     -2.376166
      5.13698      6.99267     12.68010         0.590360     -0.579613      0.022645
      3.46088      9.97222     12.71784        -0.420376      0.087707     -0.476181
     12.21666      0.95473     12.69504        -0.920196     -0.389510      0.211682
     10.57127      3.94683     12.59730        -1.518187      0.834389      0.971705
      8.72062      6.99996     12.79692        -1.083476      0.023703     -1.969738
      6.80809      9.94173     12.72340         1.060306     -0.084938      0.075389
      0.04060      1.81164     10.93858        -0.076724      0.546536     -0.167300
     -1.75502      5.31236     11.01206         0.328743     -2.029693     -1.490671
     -3.35878      8.25134     10.99354        -0.320076     -1.200221     -0.348626
     -5.17783     10.83307     11.06189        -0.209439      0.746871     -0.492944
      3.36811      2.07706     10.51995         0.384735     -0.361349      1.468564
      1.87471      4.99569     10.92829        -0.684732     -0.065560     -0.063932
     -0.11957      8.02159     11.10108         0.946350      0.134868     -1.528833
     -1.63839     10.96651     11.14233        -0.180584      0.860516     -1.112696
      7.10517      2.11067     11.15382        -1.202671      0.141478     -0.890984
      5.28303      5.04330     10.95642        -0.120113     -0.278760      0.467880
      3.47784      7.96756     11.09007        -0.442609     -0.036359     -0.590227
      1.68242     10.93706     10.95832         0.389903      0.221951      0.221352
     10.41008      2.08615     11.09226         0.179548     -0.689312     -0.737173
      8.66209      4.98077     11.09057         0.060508      0.297588      0.197173
      6.82978      8.09691     11.07503         0.346743     -0.798603     -0.230000
      5.18572     10.83535     11.02509        -0.158032      0.737020     -0.242145
      1.71698      0.88655     16.81484         0.297067      0.210137      0.400033
     -0.21803      3.94937     16.77730         0.815111      0.104264      0.149391
     -1.77392      6.92786     16.87011         0.156346      0.306068     -0.324586
     -3.32331      9.90199     16.98353        -0.584180      0.214731     -0.767637
      5.26560      1.00495     16.81648        -0.171198      0.321016      0.299960
      3.25997      3.88460     16.77822         0.199712      0.371920      0.388542
      1.65194      6.97934     16.61111         0.108761     -0.724258      1.079543
     -0.09820      9.87469     16.83143         0.373465      0.233025     -0.072096
      8.79360      0.85338     16.78188        -0.299001      0.587061      0.081953
      6.90115      4.22790     16.73268        -0.524431     -1.259817      0.787237
      5.10293      6.91461     16.83618        -0.057470      0.175668      0.275884
      3.16957      9.70054     16.87224         0.938754      0.574820      0.097537
[...]
     -1.55775      3.02326     13.80344        -0.569668     -0.466963      0.087095
     -3.42002      6.14481     13.87374         0.457776     -0.998699      0.146927
     -5.09703      9.00615     13.82255        -0.662574     -0.080388      1.011637
     -3.46489     11.91685     13.88774         0.177493      1.029139      0.163691
      1.79735      2.75879     13.92619        -0.514088      1.360696     -0.973714
     -0.12986      5.91485     13.89664         1.425271      0.473727     -0.705981
     -1.67794      9.09770     13.85079         0.020227     -0.735939      0.739685
      6.86113      0.06023     13.90628         0.122962      0.507183      0.264824
      5.09312      3.10203     13.86930         0.474922     -1.398722      0.381801
      3.44784      5.87635     13.91727        -0.830982      0.589178     -0.237216
      1.79449      8.92476     13.89270        -0.638199      0.026109     -0.058444
      3.55648     11.94588     13.86756        -0.344648     -0.025710      0.750065
      8.71259      2.98216     13.92157        -0.312832      0.310183      0.597997
      6.86046      5.97785     13.95415         0.078584      0.428875      0.334502
      5.19542      9.01389     13.85677        -0.490447     -1.019824      1.112773
    total drift:                                0.005333     -0.003620     -0.001711

  FREE ENERGIE OF THE ION-ELECTRON SYSTEM (eV)
  free  energy   TOTEN  =      -524.25089915 eV

  energy  without entropy=     -524.25089915  energy(sigma->0) =     -524.25089915