 vasp.5.4.4.18Apr17-6-g9f103f2a35 (build Oct 31 2019 15:01:46) complex

 executed on             LinuxIFC date 2024.04.28  19:22:11

 INCAR:
 POTCAR:    PAW_PBE Ca_sv 06Sep2000
 POTCAR:    PAW_PBE Si 05Jan2001
 POTCAR:    PAW_PBE O 08Apr2002
 POTCAR:    PAW_PBE Ca_sv 06Sep2000
   VRHFIN =Ca: 3s3p4s

   TITEL  = PAW_PBE Ca_sv 06Sep2000
   POMASS =   40.078; ZVAL   =   10.000    mass and valenz
   ENMAX  =  266.622; ENMIN  =  199.967 eV

   TITEL  = PAW_PBE Si 05Jan2001
   POMASS =   28.085; ZVAL   =    4.000    mass and valenz
   ENMAX  =  245.345; ENMIN  =  184.009 eV

   TITEL  = PAW_PBE O 08Apr2002
   POMASS =   16.000; ZVAL   =    6.000    mass and valenz
   ENMAX  =  400.000; ENMIN  =  300.000 eV

 Optimization of the real space projectors (new method)

 maximal supplied QI-value         = 16.25
 optimisation between [QCUT,QGAM] = [ 12.51, 25.03] = [ 43.85,175.40] Ry
 Optimized for a Real-space Cutoff    1.47 Angstroem

   l    n(q)    QCUT    max X(q) W(low)/X(q) W(high)/X(q)  e(spline)
   0     11    12.514    11.817    0.25E-04    0.32E-05    0.87E-07
   0     11    12.514     8.461    0.39E-04    0.59E-05    0.18E-06
   1     11    12.514     3.957    0.97E-05    0.57E-05    0.28E-07
   1     11    12.514     4.314    0.42E-04    0.14E-04    0.23E-06
   2     10    12.514    14.565    0.79E-04    0.50E-03    0.16E-05
   2     10    12.514    14.552    0.75E-04    0.48E-03    0.15E-05
 Optimization of the real space projectors (new method)

[...]

   l    n(q)    QCUT    max X(q) W(low)/X(q) W(high)/X(q)  e(spline)
   0      9    12.501   159.560    0.10E-03    0.83E-04    0.71E-07
   0      9    12.501   115.863    0.99E-04    0.81E-04    0.70E-07
   1      8    12.501    88.339    0.20E-03    0.25E-03    0.76E-07
   1      8    12.501    48.592    0.20E-03    0.24E-03    0.75E-07
 Optimization of the real space projectors (new method)

 maximal supplied QI-value         = 24.76
 optimisation between [QCUT,QGAM] = [ 12.38, 25.00] = [ 42.90,175.06] Ry
 Optimized for a Real-space Cutoff    1.16 Angstroem

   l    n(q)    QCUT    max X(q) W(low)/X(q) W(high)/X(q)  e(spline)
   0      9    12.378    20.381    0.16E-03    0.67E-05    0.31E-06
   0      9    12.378    15.268    0.17E-03    0.81E-05    0.33E-06
   1      8    12.378     5.964    0.20E-03    0.16E-03    0.30E-06
   1      8    12.378     5.382    0.18E-03    0.14E-03    0.26E-06
  PAW_PBE Ca_sv 06Sep2000               :
  PAW_PBE Si 05Jan2001                  :
  PAW_PBE O 08Apr2002                   :

 POSCAR: Ca Si  O
  positions in direct lattice
 exchange correlation table for  LEXCH =        8
   RHO(1)=    0.500       N(1)  =     2000
   RHO(2)=  100.500       N(2)  =     4000

 ion  position               nearest neighbor table
   1  0.583  0.574  0.867- 134 2.07 127 2.36  53 2.98
   2  0.678  0.562  0.320-  59 1.96  91 2.17 118 2.19 103 2.49
   3  0.709  0.507  0.644-  99 2.14 134 2.18  36 3.07
   4  0.317  0.041  0.413-  93 2.16  29 2.85
   5  0.229  0.725  0.112-  90 2.02  58 2.15  37 3.10
   6  0.207  0.299  0.358-  93 2.07
   7  0.429  0.453  0.658- 121 1.98  99 2.10  64 2.50  86 2.54  54 2.71  36 3.10
   8  0.641  0.773  0.459- 133 2.15  88 2.19 129 2.19  71 2.49  40 3.08  36 3.15
   9  0.079  0.997  0.804-  66 2.14  84 2.30  83 2.55  42 2.83  49 2.89
  10  0.445  0.287  0.954- 112 2.14  82 2.52  53 3.09
  11  0.742  0.037  0.505-  95 1.84
  12  0.295  0.633  0.512-  37 2.93
  13  0.822  0.400  0.100-  55 2.49
  14  0.871  0.295  0.539- 107 1.92  38 2.84
  15  0.861  0.138  0.025-  76 2.39 128 2.52
  16  0.750  0.886  0.940-  56 2.14  65 2.43  28 3.00
  17  0.471  0.828  0.272-  72 2.22 129 2.31 126 2.57  43 2.78
  18  0.734  0.175  0.746- 122 2.13 109 2.19
  19  0.495  0.762  1.000-  72 2.10 120 2.30
  20  0.930  0.715  0.161-  94 2.15 101 2.45 117 2.57
  21  0.920  0.608  0.832- 110 2.47 116 2.51 100 2.56  46 2.90
  22  0.318  0.914  0.709- 111 2.20  61 2.29 113 2.33  84 2.44  40 3.15
  23  0.064  0.147  0.204-  57 2.18 125 2.34 130 2.42 128 2.48  44 2.67
  24  0.077  0.413  0.861- 104 1.95 119 2.23 116 2.41  54 3.05
  25  0.126  0.480  0.122- 102 2.05 119 2.19  34 2.87
  26  0.267  0.014  0.058-  57 2.23 108 2.45  29 2.70
  27  0.535  0.248  0.558-  73 2.16  38 3.10
  28  0.612  0.043  0.891-  56 1.64 109 1.65 105 1.79  82 2.04  35 2.81  16 3.00  50 3.00
  29  0.330  0.099  0.219-  62 1.49 126 1.81  57 1.86  93 2.29  26 2.70   4 2.85
  30  0.079  0.514  0.381-  67 1.56 135 1.74 115 1.75  74 2.54  37 2.79
  31  0.785  0.797  0.701-  65 1.57 100 1.58  78 1.81  88 1.87  33 2.30
  32  0.050  0.909  0.043- 117 1.46  83 1.73  77 1.75  63 1.88  42 2.32
  33  0.631  0.851  0.685-  81 1.45  69 1.59  88 1.72  65 1.74 133 2.24  31 2.30  40 2.66  35 2.76

  34  0.202  0.310  0.036- 119 1.62 130 1.71  68 1.81  25 2.87
  35  0.528  0.016  0.712- 105 1.49  81 1.57  61 1.59  85 1.80  33 2.76  28 2.81
  36  0.546  0.578  0.517-  92 1.63  71 1.67 118 1.81  99 1.87   3 3.07   7 3.10   8 3.15
  37  0.217  0.643  0.318-  74 1.57  70 1.66  90 1.68 135 1.88  30 2.79  12 2.93   5 3.10
  38  0.701  0.325  0.433- 107 1.74 103 1.79  60 1.89 131 2.27  73 2.41  14 2.84  27 3.10
  39  0.434  0.591  0.245- 106 1.52  91 1.59 114 1.86  70 1.92
  40  0.472  0.792  0.599- 133 1.40 113 1.50  69 1.74  71 1.94  33 2.66   8 3.08  22 3.15
  41  0.893  0.945  0.206- 124 1.53 128 1.61  94 2.39
  42  0.020  0.830  0.900-  83 1.54 123 1.63  75 1.65  77 1.66  32 2.32  46 2.69   9 2.83
  43  0.652  0.854  0.194- 132 1.66  98 1.79 129 1.87  72 1.95  17 2.78
  44  0.906  0.207  0.294- 125 1.63 131 1.65  55 1.71  23 2.67
  45  0.853  0.337  0.858-  96 1.51 116 1.54 122 1.62  76 1.77
  46  0.084  0.656  0.949-  75 1.57 110 1.63  58 1.75 102 1.77  42 2.69  21 2.90
  47  0.930  0.996  0.625-  95 1.52  66 1.58  78 1.83  80 2.29  49 2.79
  48  0.498  0.404  0.374- 114 1.60  97 1.62 103 1.77  92 1.93
  49  0.123  0.043  0.608-  84 1.54  87 1.57  80 1.66  66 2.34  47 2.79   9 2.89
  50  0.553  0.091  0.092-  79 1.65  82 1.75 108 2.00  28 3.00
  51  0.284  0.689  0.846- 111 1.57 120 1.64  58 2.03  86 2.34
  52  0.714  0.625  0.089- 127 1.58  59 1.72 101 1.72  98 2.11
  53  0.623  0.365  0.852-  89 1.48 134 1.88 112 2.00  96 2.04   1 2.98  10 3.09
  54  0.274  0.425  0.769- 104 1.49  64 1.64  86 1.81 121 2.05   7 2.71  24 3.05
  55  0.906  0.273  0.192-  44 1.71  13 2.49
  56  0.605  0.935  0.937-  28 1.64  16 2.14
  57  0.203  0.079  0.188-  29 1.86  23 2.18  26 2.23
  58  0.200  0.702  0.963-  46 1.75  51 2.03   5 2.15
  59  0.737  0.565  0.193-  52 1.72   2 1.96
  60  0.677  0.203  0.381-  38 1.89
  61  0.457  0.961  0.780-  35 1.59  22 2.29
  62  0.356  0.191  0.172-  29 1.49
  63  0.083  0.039  0.035-  32 1.88
  64  0.367  0.360  0.797-  54 1.64   7 2.50
  65  0.714  0.842  0.776-  31 1.57  33 1.74  16 2.43
  66  0.985  0.059  0.701-  47 1.58   9 2.14  49 2.34
  67  0.060  0.529  0.490-  30 1.56
  68  0.275  0.208  0.006-  34 1.81
  69  0.539  0.786  0.703-  33 1.59  40 1.74
  70  0.333  0.661  0.305-  37 1.66  39 1.92
  71  0.496  0.686  0.513-  36 1.67  40 1.94   8 2.49
  72  0.532  0.834  0.126-  43 1.95  19 2.10  17 2.22
  73  0.687  0.226  0.573-  27 2.16  38 2.41
  74  0.153  0.678  0.402-  37 1.57  30 2.54
  75  0.010  0.737  0.972-  46 1.57  42 1.65
  76  0.898  0.294  0.968-  45 1.77  15 2.39
  77  0.949  0.891  0.972-  42 1.66  32 1.75
  78  0.861  0.898  0.676-  31 1.81  47 1.83
  79  0.643  0.132  0.154-  50 1.65
  80  0.077  0.936  0.586-  49 1.66  47 2.29
  81  0.617  0.953  0.689-  33 1.45  35 1.57
  82  0.532  0.131  0.975-  50 1.75  28 2.04  10 2.52
  83  0.110  0.879  0.939-  42 1.54  32 1.73   9 2.55
  84  0.193  0.035  0.693-  49 1.54   9 2.30  22 2.44
  85  0.463  0.042  0.604-  35 1.80
  86  0.315  0.547  0.763-  54 1.81  51 2.34   7 2.54
  87  0.155  0.101  0.518-  49 1.57
  88  0.692  0.778  0.607-  33 1.72  31 1.87   8 2.19
  89  0.572  0.295  0.793-  53 1.48
  90  0.169  0.636  0.208-  37 1.68   5 2.02
  91  0.537  0.617  0.286-  39 1.59   2 2.17
  92  0.472  0.504  0.465-  36 1.63  48 1.93
  93  0.298  0.182  0.356-   6 2.07   4 2.16  29 2.29
[...]
 121  0.294  0.432  0.624-   7 1.98  54 2.05
 122  0.855  0.264  0.768-  45 1.62  18 2.13
 123  0.007  0.826  0.785-  42 1.63
 124  0.850  0.885  0.288-  41 1.53
 125  0.996  0.166  0.356-  44 1.63  23 2.34
 126  0.371  0.979  0.243-  29 1.81  17 2.57
 127  0.621  0.609  0.027-  52 1.58   1 2.36
 128  0.918  0.051  0.173-  41 1.61  23 2.48  15 2.52
 129  0.625  0.852  0.325-  43 1.87   8 2.19  17 2.31
 130  0.147  0.285  0.142-  34 1.71  23 2.42
 131  0.828  0.279  0.345-  44 1.65  38 2.27
 132  0.685  0.952  0.137-  43 1.66
 133  0.543  0.846  0.552-  40 1.40   8 2.15  33 2.24
 134  0.664  0.477  0.790-  53 1.88   1 2.07   3 2.18
 135  0.196  0.512  0.341-  30 1.74  37 1.88

IMPORTANT INFORMATION: All symmetrisations will be switched off!
NOSYMM: (Re-)initialisation of all symmetry stuff for point group C_1.

Automatic generation of k-mesh.
 generate k-points for:    2    2    2
Space group operators:
 irot       det(A)        alpha          n_x          n_y          n_z        tau_x        tau_y        tau_z
    1     1.000000     0.000000     1.000000     0.000000     0.000000     0.000000     0.000000     0.000000

 Subroutine IBZKPT returns following result:

 Found      8 irreducible k-points:

 Following reciprocal coordinates:
            Coordinates               Weight
  0.000000  0.000000  0.000000      1.000000
  0.500000  0.000000  0.000000      1.000000
  0.000000  0.500000  0.000000      1.000000
  0.500000  0.500000  0.000000      1.000000
  0.000000  0.000000  0.500000      1.000000
  0.500000  0.000000  0.500000      1.000000
  0.000000  0.500000  0.500000      1.000000
  0.500000  0.500000  0.500000      1.000000

 Following cartesian coordinates:
            Coordinates               Weight
  0.000000  0.000000  0.000000      1.000000
  0.035682  0.000000  0.000000      1.000000
  0.000000  0.035682  0.000000      1.000000
  0.035682  0.035682  0.000000      1.000000
  0.000000  0.000000  0.035682      1.000000
  0.035682  0.000000  0.035682      1.000000
  0.000000  0.035682  0.035682      1.000000
  0.035682  0.035682  0.035682      1.000000

 SYSTEM =  unknown system
 POSCAR =  Ca Si  O

 Startparameter for this run:
   NWRITE =      2    write-flag & timer
   PREC   = a         normal or accurate (medium, high low for compatibility)
   ISTART =      0    job   : 0-new  1-cont  2-samecut
   ICHARG =      2    charge: 1-file 2-atom 10-const
   ISPIN  =      1    spin polarized calculation?
   LNONCOLLINEAR =      F non collinear calculations
   LSORBIT =      F    spin-orbit coupling
   INIWAV =      1    electr: 0-lowe 1-rand  2-diag
   LASPH  =      F    aspherical Exc in radial PAW
   METAGGA=      F    non-selfconsistent MetaGGA calc.

 Electronic Relaxation 1
   ENCUT  =  600.0 eV  44.10 Ry    6.64 a.u.  27.99 27.99 27.99*2*pi/ulx,y,z
   ENINI  =  600.0     initial cutoff
   ENAUG  =  605.4 eV  augmentation charge cutoff
   NELM   =     60;   NELMIN=  2; NELMDL= -5     # of ELM steps
   EDIFF  = 0.1E-05   stopping-criterion for ELM
   LREAL  =      T    real-space projection
   NLSPLINE    = F    spline interpolate recip. space projectors
[...]
     0.000000000  0.000000000 14.012776000     0.000000000  0.000000000  0.071363447

  length of vectors
    14.012776000 14.012776000 14.012776000     0.071363447  0.071363447  0.071363447

 FORCES acting on ions
    electron-ion (+dipol)            ewald-force                    non-local-force                 convergence-correction
   0.108E+03 -.625E+02 -.616E+02   -.106E+03 0.574E+02 0.646E+02   -.300E+01 0.526E+01 -.160E+01   -.208E-03 -.138E-04 0.152E-02
   -.314E+03 0.740E+02 -.191E+02   0.309E+03 -.745E+02 0.172E+02   0.340E+01 -.256E+00 0.325E+01   0.806E-03 0.284E-02 -.100E-02
   -.415E+03 0.293E+02 0.102E+03   0.409E+03 -.282E+02 -.101E+03   0.695E+01 -.641E+00 -.170E+01   0.762E-03 0.207E-02 -.161E-03
   0.574E+02 0.125E+03 -.182E+03   -.595E+02 -.118E+03 0.179E+03   0.150E+01 -.654E+01 0.393E+01   -.297E-02 0.127E-03 0.182E-03
   -.220E+03 -.219E+03 -.151E+03   0.215E+03 0.212E+03 0.150E+03   0.568E+01 0.710E+01 0.559E+00   -.117E-02 -.760E-03 0.682E-03
   0.166E+03 -.108E+03 -.239E+03   -.157E+03 0.103E+03 0.238E+03   -.663E+01 0.511E+01 0.671E+00   0.135E-02 -.516E-03 0.785E-03
   0.998E+02 0.187E+03 0.296E+02   -.106E+03 -.186E+03 -.277E+02   0.570E+01 -.209E+01 -.307E+00   -.179E-02 -.768E-04 0.443E-03
   -.349E+03 -.784E+02 0.214E+03   0.345E+03 0.796E+02 -.213E+03   0.401E+01 -.204E+01 -.214E+01   0.241E-02 -.139E-02 -.124E-02
   -.130E+03 -.256E+03 0.143E+02   0.130E+03 0.254E+03 -.182E+02   0.752E+00 0.134E+01 0.476E+01   -.326E-03 -.137E-02 -.212E-02
   0.198E+03 0.776E+01 -.106E+03   -.195E+03 -.704E+01 0.104E+03   -.343E+01 -.171E+01 0.122E+01   -.185E-03 -.856E-03 0.222E-03
   0.561E+02 0.414E+02 0.290E+03   -.564E+02 -.360E+02 -.292E+03   -.545E+01 -.411E+01 -.134E+01   0.228E-02 -.193E-02 0.804E-03
   0.317E+03 -.339E+02 -.120E+03   -.320E+03 0.333E+02 0.118E+03   0.173E+01 0.204E+00 0.149E+01   -.241E-02 0.170E-03 -.655E-03
   0.593E+02 -.250E+01 -.144E+03   -.572E+02 -.638E+00 0.144E+03   -.173E+01 0.238E+01 0.291E+00   -.109E-02 0.247E-02 -.266E-03
   -.484E+03 0.161E+02 -.695E+02   0.479E+03 -.148E+02 0.666E+02   0.675E+01 -.359E+01 0.348E+01   0.148E-02 -.420E-03 0.990E-03
   -.191E+02 -.115E+02 -.109E+02   0.194E+02 0.167E+02 0.122E+02   -.542E+00 -.394E+01 -.936E+00   -.107E-02 -.259E-02 -.804E-03
   -.115E+03 0.399E+01 -.652E+00   0.113E+03 -.321E+01 0.508E+01   0.402E+01 -.130E+01 -.229E+01   0.264E-02 -.131E-02 0.359E-02
   0.243E+03 -.120E+03 -.175E+03   -.239E+03 0.122E+03 0.169E+03   -.512E+01 -.227E+01 0.482E+01   0.869E-03 -.950E-03 -.132E-02
   -.145E+03 0.157E+02 0.175E+03   0.144E+03 -.116E+02 -.171E+03   -.415E+00 -.351E+01 -.415E+01   0.336E-05 -.925E-03 0.119E-02
   0.108E+03 0.264E+02 0.670E+02   -.109E+03 -.262E+02 -.634E+02   0.129E+01 -.403E+00 -.359E+01   0.155E-02 -.182E-04 0.138E-02
   -.626E+02 0.125E+03 -.519E+03   0.600E+02 -.122E+03 0.511E+03   0.254E+01 -.299E+01 0.660E+01   -.351E-02 0.457E-02 -.155E-02
   0.253E+02 0.799E+02 0.264E+03   -.242E+02 -.806E+02 -.266E+03   -.158E+01 0.707E+00 0.757E+00   0.951E-03 0.270E-02 -.937E-04
   0.270E+03 -.173E+03 0.662E+02   -.265E+03 0.170E+03 -.654E+02   -.401E+01 0.278E+01 -.839E+00   -.295E-02 0.923E-03 -.583E-03
   0.176E+02 0.525E+01 -.156E+03   -.123E+02 -.763E+01 0.154E+03   -.339E+01 0.156E+01 0.574E+00   0.260E-02 -.155E-02 0.613E-04
   0.544E+02 0.196E+03 0.165E+03   -.523E+02 -.195E+03 -.168E+03   -.427E+01 -.937E+00 0.359E+01   0.119E-02 0.676E-03 -.125E-02
   -.793E+01 0.239E+03 -.182E+03   0.642E+01 -.233E+03 0.182E+03   0.125E+01 -.523E+01 0.304E+01   0.407E-03 0.190E-02 0.670E-03
   -.306E+02 0.605E+02 0.187E+03   0.304E+02 -.537E+02 -.182E+03   0.324E+00 -.537E+01 -.499E+01   0.499E-03 0.935E-03 0.126E-04
   0.312E+03 0.917E+02 0.816E+02   -.306E+03 -.970E+02 -.833E+02   -.614E+01 0.319E+01 0.148E+01   -.122E-02 -.264E-03 0.836E-03
   0.592E+02 -.226E+02 -.485E+02   -.522E+02 0.228E+02 0.503E+02   -.982E+01 0.353E+01 -.987E+00   0.362E-04 -.205E-03 0.645E-03
   -.432E+02 0.252E+02 -.108E+03   0.445E+02 -.123E+02 0.992E+02   -.440E+01 -.160E+02 0.118E+02   -.659E-04 0.288E-03 0.119E-03
   0.923E+02 0.712E+02 -.775E+02   -.965E+02 -.671E+02 0.851E+02   0.278E+01 -.124E+01 -.106E+02   -.846E-04 0.136E-02 0.454E-03
   -.189E+03 0.272E+02 0.999E+02   0.185E+03 -.360E+02 -.947E+02   0.891E+01 0.818E+01 -.931E+01   0.135E-02 0.106E-03 -.362E-03
   -.414E+02 -.195E+03 -.137E+03   0.442E+02 0.182E+03 0.137E+03   -.348E+01 0.220E+02 -.368E+01   -.188E-02 -.113E-02 -.583E-03
   -.537E+02 0.201E+02 0.119E+02   0.461E+02 -.164E+02 -.116E+02   0.645E+01 -.119E+02 -.208E+01   0.672E-03 -.163E-03 0.241E-03
   -.529E+02 0.409E+02 0.501E+02   0.506E+02 -.433E+02 -.477E+02   0.369E+01 -.429E+01 -.254E+00   0.606E-03 -.212E-03 -.146E-03
   0.123E+03 -.113E+03 0.105E+03   -.128E+03 0.110E+03 -.965E+02   -.504E+01 0.645E+00 -.146E+02   -.269E-03 0.766E-05 0.617E-03
   -.137E+02 0.236E+02 -.101E+02   0.116E+02 -.250E+02 0.841E+01   0.516E+01 0.101E+01 0.325E+01   0.315E-04 0.358E-03 -.468E-03
   0.364E+02 -.678E+02 -.728E+02   -.435E+02 0.699E+02 0.737E+02   0.564E+01 -.551E+01 -.446E+01   -.705E-03 0.287E-03 0.524E-03
   -.503E+01 0.253E+02 0.400E+02   0.413E+01 -.307E+02 -.409E+02   0.149E+01 0.101E+01 -.221E+01   -.467E-04 0.156E-03 -.235E-03
   0.472E+02 0.551E+02 0.133E+02   -.414E+02 -.544E+02 -.245E+02   -.506E+01 -.440E+01 0.144E+02   0.110E-03 0.242E-03 -.110E-03
   0.150E+03 0.737E+02 -.294E+02   -.148E+03 -.567E+02 0.187E+02   -.528E+01 -.242E+02 0.155E+02   -.241E-03 -.233E-03 0.202E-04
   -.608E+02 -.216E+02 -.105E+03   0.566E+02 0.191E+02 0.114E+03   0.265E+01 0.140E+01 -.121E+02   -.716E-03 -.270E-02 -.955E-03
   0.243E+02 0.131E+02 0.177E+03   -.220E+02 -.924E+01 -.178E+03   -.605E+01 -.578E+01 -.252E+01   -.116E-02 0.239E-03 0.299E-03
   -.196E+02 -.354E+02 -.996E+02   0.234E+02 0.411E+02 0.911E+02   -.310E+01 -.613E+01 0.588E+01   0.127E-02 -.104E-02 -.884E-03
   0.282E+02 0.636E+02 -.490E+02   -.263E+02 -.528E+02 0.535E+02   -.435E+01 -.588E+01 -.397E+01   0.310E-03 -.205E-03 0.168E-03
   -.993E+02 0.262E+01 0.466E+02   0.960E+02 -.173E+01 -.469E+02   0.686E+01 -.434E+01 0.103E+01   -.246E-04 0.942E-04 -.129E-03
   -.221E+02 0.109E+03 0.763E+02   0.222E+02 -.108E+03 -.764E+02   0.503E+01 -.434E+01 0.368E+01   -.590E-03 0.627E-03 0.138E-05
   -.839E+02 0.562E+02 0.997E+02   0.813E+02 -.466E+02 -.992E+02   0.530E+01 -.158E+02 0.189E+01   0.131E-02 -.128E-02 -.150E-03
   -.665E+01 0.118E+03 -.230E+02   -.659E+01 -.122E+03 0.121E+02   0.110E+02 0.508E+01 0.925E+01   -.828E-03 0.347E-03 -.551E-03
   0.287E+02 -.959E+02 0.739E+02   -.171E+02 0.914E+02 -.808E+02   -.120E+02 0.297E+01 0.312E+01   -.160E-03 -.696E-03 -.240E-03
   0.357E+02 -.490E+02 -.103E+03   -.287E+02 0.540E+02 0.104E+03   -.840E+01 -.639E+01 -.188E+01   0.475E-04 -.157E-03 -.155E-03
   0.968E+02 0.839E+02 0.447E+02   -.809E+02 -.723E+02 -.483E+02   -.134E+02 -.132E+02 0.532E+01   -.491E-03 -.152E-04 -.122E-03
   0.165E+02 0.403E+02 0.122E+01   -.147E+02 -.447E+02 -.325E+01   0.262E+01 0.643E+01 0.562E+01   0.422E-03 0.149E-02 0.548E-03
   -.215E+02 -.336E+02 -.785E+02   0.117E+02 0.245E+02 0.709E+02   0.141E+02 0.144E+02 0.141E+02   -.433E-03 -.653E-04 0.419E-03
   0.501E+02 0.476E+02 -.957E+01   -.527E+02 -.524E+02 0.597E+01   0.952E+01 0.806E+01 -.905E+00   -.155E-03 -.263E-03 -.210E-03
   -.879E+00 -.740E+02 -.186E+02   0.110E+01 0.883E+02 0.290E+01   0.850E+00 -.168E+02 0.153E+02   0.150E-03 0.816E-03 -.536E-03
   0.129E+03 0.298E+02 -.585E+02   -.140E+03 -.520E+02 0.718E+02   0.115E+02 0.239E+02 -.148E+02   0.594E-03 0.375E-03 0.104E-02
   0.523E+02 0.705E+02 -.151E+03   -.661E+02 -.718E+02 0.149E+03   0.167E+02 0.410E+00 0.244E+01   0.569E-03 0.268E-04 0.545E-03
   -.165E+03 0.813E+01 0.107E+03   0.177E+03 -.211E+00 -.994E+02   -.111E+02 -.862E+01 -.111E+02   -.978E-03 -.104E-03 -.240E-03
   -.113E+03 0.138E+03 -.253E+02   0.121E+03 -.146E+03 0.384E+02   -.740E+01 0.734E+01 -.176E+02   0.143E-03 0.245E-02 -.123E-03
   0.740E+02 0.145E+03 0.137E+03   -.769E+02 -.159E+03 -.150E+03   0.238E+01 0.170E+02 0.155E+02   -.237E-03 -.178E-03 -.638E-03
[...]
   -.260E+03 0.174E+02 0.166E+03   0.267E+03 -.315E+02 -.185E+03   -.598E+01 0.138E+02 0.183E+02   0.515E-03 -.581E-03 0.126E-04
   -.344E+02 0.899E+02 0.316E+03   0.310E+02 -.935E+02 -.350E+03   0.354E+01 0.398E+01 0.361E+02   -.785E-04 0.171E-03 -.110E-02
   -.891E+02 0.152E+02 -.296E+03   0.732E+02 -.362E+02 0.322E+03   0.163E+02 0.207E+02 -.253E+02   0.183E-04 -.341E-02 -.223E-03
   -.740E+02 0.556E+02 -.232E+03   0.947E+02 -.680E+02 0.254E+03   -.216E+02 0.129E+02 -.240E+02   0.228E-02 -.146E-02 0.160E-02
   0.262E+02 0.454E+02 -.139E+03   -.179E+02 -.614E+02 0.134E+03   -.988E+01 0.184E+02 0.680E+01   -.243E-03 0.299E-03 0.229E-03
   0.748E+02 0.105E+03 -.130E+02   -.101E+03 -.113E+03 0.345E+01   0.260E+02 0.917E+01 0.786E+01   0.396E-03 0.770E-03 0.124E-02
   0.280E+02 -.251E+02 -.134E+03   -.224E+02 0.478E+02 0.126E+03   -.580E+01 -.226E+02 0.835E+01   -.500E-03 -.141E-02 -.153E-02
   -.103E+03 -.178E+03 -.592E+02   0.104E+03 0.182E+03 0.731E+02   -.178E+01 -.479E+01 -.173E+02   0.121E-02 -.158E-02 -.179E-02
   0.136E+02 -.400E+02 -.634E+02   -.222E+02 0.329E+02 0.823E+02   0.935E+01 0.916E+01 -.210E+02   0.134E-02 -.328E-03 0.168E-03
   -.322E+02 -.472E+02 0.927E+01   0.175E+02 0.638E+02 -.675E+01   0.158E+02 -.172E+02 -.537E+00   -.280E-03 0.938E-03 0.421E-03
   -.439E+02 -.175E+03 -.101E+03   0.504E+02 0.200E+03 0.882E+02   -.618E+01 -.266E+02 0.134E+02   0.853E-03 -.198E-02 -.878E-03
   0.514E+02 -.244E+03 0.201E+03   -.269E+02 0.273E+03 -.222E+03   -.154E+02 -.198E+02 0.143E+02   0.279E-03 -.910E-03 0.218E-03
   -.107E+03 0.239E+02 -.207E+02   0.115E+03 -.168E+02 0.142E+02   -.817E+01 -.976E+01 0.817E+01   -.211E-03 0.283E-03 0.505E-03
   -.261E+01 0.175E+03 -.103E+03   0.215E+02 -.188E+03 0.976E+02   -.194E+02 0.125E+02 0.629E+01   -.270E-03 0.100E-02 0.508E-03
   -.132E+02 0.150E+03 -.125E+03   -.117E-12 -.131E-11 -.102E-11   0.132E+02 -.150E+03 0.125E+03   -.318E-02 0.153E-04 0.601E-03

 POSITION                                       TOTAL-FORCE (eV/Angst)
      8.17191      8.03783     12.15431        -1.405426      0.171442      1.379912
      9.49979      7.87542      4.48340        -1.192319     -0.750817      1.351837
      9.93675      7.09856      9.02689         0.592222      0.456382     -0.867502
      4.43646      0.57529      5.79184        -0.634494      1.086843      0.737713
      3.20412     10.15606      1.57442         0.133660     -0.040925     -0.457638
      2.90163      4.18817      5.02106         1.867766     -0.384728     -0.025886
      6.01667      6.35445      9.22386        -0.462811     -0.936859      1.532459
      8.98496     10.83045      6.43342        -0.129324     -0.878842     -0.784154
      1.10498     13.97627     11.27262         0.586073     -0.779182      0.832759
      6.23069      4.02399     13.37318        -0.617044     -0.992595     -0.683809
     10.39766      0.51604      7.07326        -5.731956      1.307526     -2.797795
      4.13243      8.86688      7.16915        -0.688628     -0.332145      0.273264
     11.51915      5.60647      1.40066         0.361235     -0.752690     -0.007391
     12.20402      4.13614      7.54807         1.659225     -2.329849      0.575595
     12.06935      1.92686      0.35129        -0.290626      1.200313      0.386132
     10.50769     12.41591     13.17222         1.163337     -0.522477      2.140726
      6.59943     11.60654      3.81181        -0.603203      0.574574     -0.531196
     10.28297      2.45713     10.46031        -1.289094      0.600521     -0.269224
      6.94178     10.67230     14.01017        -0.203184     -0.139739     -0.010542
     13.03231     10.02024      2.26242        -0.080374     -0.495186     -0.943186
     12.89493      8.51499     11.66337        -0.418714      0.000195     -0.560308
      4.45491     12.80600      9.92823         0.769531      0.397311      0.002211
      0.89105      2.06128      2.86145         1.846659     -0.829122     -1.829430
      1.07756      5.78951     12.07200        -2.171709      0.671991      0.834709
      1.76346      6.72277      1.70345        -0.263570      1.033601      2.988456
      3.74184      0.19080      0.81790         0.069093      1.375276     -0.300754
      7.50022      3.47138      7.81654         0.136805     -2.026710     -0.210370
      8.57481      0.59653     12.49187        -2.779211      3.671844      0.827500
      4.62685      1.38604      3.06928        -3.091923     -3.167245      2.686329
      1.10263      7.20666      5.34537        -1.474773      2.902816     -3.076436
     10.99424     11.16417      9.81764         4.530844     -0.694710     -4.086762
      0.70172     12.74132      0.59601        -0.771064      9.614312     -3.648695
      8.83524     11.92076      9.59918        -1.118348     -8.227738     -1.711402
      2.83550      4.34614      0.50731         1.354471     -6.709154      2.131454
      7.39398      0.22823      9.97218        -9.490058     -1.414690     -5.732599
      7.64400      8.09548      7.24076         3.089718     -0.354284      1.553600
      3.03765      9.00542      4.45278        -1.457592     -3.434173     -3.586797
      9.81668      4.55867      6.06858         0.587910     -4.391550     -3.159541
      6.08401      8.28217      3.43096         0.711988     -3.677684      3.254055
      6.61718     11.10510      8.38851        -2.927420     -7.176619      4.788459
     12.50799     13.23523      2.89336        -1.584325     -1.148942     -3.696193
      0.27342     11.62666     12.61417        -3.807664     -1.932261     -3.767865
      9.13439     11.96941      2.72377         0.670884     -0.357102     -2.593082
     12.70208      2.90227      4.12090        -2.424599      4.913989      0.514082
     11.95373      4.72069     12.02471         3.581108     -3.446845      0.805880
      1.18200      9.19125     13.29921         5.140140     -2.637879      3.528240
     13.03776     13.95638      8.75389         2.718632     -6.218479      2.417953
      6.97636      5.65829      5.24540        -2.268970      0.661751     -1.679288
      1.72769      0.59961      8.52478        -0.436176     -1.476784     -3.773476
      7.74425      1.26880      1.28498        -1.385935     -1.385587     -0.369650
      3.98233      9.65761     11.84974         2.522191     -1.550486      1.665571
     10.00547      8.75669      1.24506         4.399063      2.013987      3.590964
      8.73434      5.11982     11.93804         4.375427      5.403016      6.570133
      3.83459      5.95913     10.77350         6.964357      3.211478     -4.501064
     12.70255      3.82694      2.68542         1.066146     -2.410064     -0.444517
      8.47829     13.09851     13.13249         0.657263      1.666111     -1.462604
      2.83797      1.11138      2.63523         2.970151     -0.839872      0.912049
      2.80201      9.83171     13.49530         0.591391     -0.697784     -3.429102
     10.32218      7.91573      2.70990         0.486929     -0.487223     -4.503546
      9.49161      2.84239      5.34453        -0.526917      3.290953      2.934030
[...]
      4.11696      6.05992      8.74388        -0.810358      0.130820      0.354540
     11.98161      3.70611     10.76265         0.464158     -0.349779     -1.113208
      0.09937     11.57128     10.99866         0.098298      0.293707      2.302868
     11.91300     12.40300      4.03207         0.346153     -0.234923      1.540118
     13.95722      2.31938      4.98981        -0.935024      0.511864     -1.774295
      5.19674     13.71738      3.41156        -1.557265      2.423035      2.272124
      8.69778      8.53602      0.38528        -0.524083      0.885262     -1.675397
     12.86848      0.72111      2.41835        -0.234649      0.076699      0.438791
      8.75867     11.93778      4.55546        -0.163436     -0.126665     -3.418458
      2.05322      4.00035      1.99243         0.806525      2.063858     -2.055692
     11.60910      3.91063      4.82763         1.025903     -0.559158      1.982257
      9.60442     13.34130      1.92054         0.241769     -1.639400      1.071353
      7.60320     11.85141      7.72949         9.082630      8.430982     -7.150528
      9.30931      6.68374     11.07317        -0.485706     -2.619182      1.649759
      2.74109      7.17421      4.77509        -0.563999     -0.518516      0.593891
    total drift:                               -0.031231      0.008490     -0.009240

  FREE ENERGIE OF THE ION-ELECTRON SYSTEM (eV)
  free  energy   TOTEN  =      -877.66951371 eV

  energy  without entropy=     -877.64787125  energy(sigma->0) =     -877.65869248