 vasp.5.4.4.18Apr17-6-g9f103f2a35 (build Mar 16 2023 09:39:13) complex

 executed on             LinuxIFC date 2024.04.30  12:49:10

 INCAR:
 POTCAR:    PAW_PBE Ca_sv 06Sep2000
 POTCAR:    PAW_PBE Si 05Jan2001
 POTCAR:    PAW_PBE O 08Apr2002
 POTCAR:    PAW_PBE Ca_sv 06Sep2000
   VRHFIN =Ca: 3s3p4s

   TITEL  = PAW_PBE Ca_sv 06Sep2000
   POMASS =   40.078; ZVAL   =   10.000    mass and valenz
   ENMAX  =  266.622; ENMIN  =  199.967 eV

   TITEL  = PAW_PBE Si 05Jan2001
   POMASS =   28.085; ZVAL   =    4.000    mass and valenz
   ENMAX  =  245.345; ENMIN  =  184.009 eV

   TITEL  = PAW_PBE O 08Apr2002
   POMASS =   16.000; ZVAL   =    6.000    mass and valenz
   ENMAX  =  400.000; ENMIN  =  300.000 eV

 Optimization of the real space projectors (new method)

 maximal supplied QI-value         = 16.25
 optimisation between [QCUT,QGAM] = [ 12.51, 25.03] = [ 43.85,175.40] Ry
 Optimized for a Real-space Cutoff    1.47 Angstroem

   l    n(q)    QCUT    max X(q) W(low)/X(q) W(high)/X(q)  e(spline)
   0     11    12.514    11.817    0.25E-04    0.32E-05    0.87E-07
   0     11    12.514     8.461    0.39E-04    0.59E-05    0.18E-06
   1     11    12.514     3.957    0.97E-05    0.57E-05    0.28E-07
   1     11    12.514     4.314    0.42E-04    0.14E-04    0.23E-06
   2     10    12.514    14.565    0.79E-04    0.50E-03    0.16E-05
   2     10    12.514    14.552    0.75E-04    0.48E-03    0.15E-05
 Optimization of the real space projectors (new method)

[...]

   l    n(q)    QCUT    max X(q) W(low)/X(q) W(high)/X(q)  e(spline)
   0      9    12.501   159.560    0.10E-03    0.83E-04    0.71E-07
   0      9    12.501   115.863    0.99E-04    0.81E-04    0.70E-07
   1      8    12.501    88.339    0.20E-03    0.25E-03    0.76E-07
   1      8    12.501    48.592    0.20E-03    0.24E-03    0.75E-07
 Optimization of the real space projectors (new method)

 maximal supplied QI-value         = 24.76
 optimisation between [QCUT,QGAM] = [ 12.38, 25.00] = [ 42.90,175.06] Ry
 Optimized for a Real-space Cutoff    1.16 Angstroem

   l    n(q)    QCUT    max X(q) W(low)/X(q) W(high)/X(q)  e(spline)
   0      9    12.378    20.381    0.16E-03    0.67E-05    0.31E-06
   0      9    12.378    15.268    0.17E-03    0.81E-05    0.33E-06
   1      8    12.378     5.964    0.20E-03    0.16E-03    0.30E-06
   1      8    12.378     5.382    0.18E-03    0.14E-03    0.26E-06
  PAW_PBE Ca_sv 06Sep2000               :
  PAW_PBE Si 05Jan2001                  :
  PAW_PBE O 08Apr2002                   :

 POSCAR: Ca Si  O
  positions in direct lattice
 exchange correlation table for  LEXCH =        8
   RHO(1)=    0.500       N(1)  =     2000
   RHO(2)=  100.500       N(2)  =     4000

 ion  position               nearest neighbor table
   1  0.562  0.581  0.245-  81 1.94 124 2.30 111 2.31  87 2.54  34 2.91  40 3.08
   2  0.840  0.019  0.856-  63 2.09  85 2.14  77 2.29  36 2.95  49 3.11
   3  0.664  0.576  0.003-  57 2.30  81 2.35 127 2.35 100 2.54
   4  0.614  0.142  0.044- 123 2.34 119 2.42  90 2.45
   5  0.974  0.268  0.138- 132 2.07  45 3.04
   6  0.502  0.085  0.775-  86 2.28  94 2.31 119 2.41  56 2.48  30 2.91
   7  0.471  0.370  0.857- 119 2.17 128 2.30  30 2.96
   8  0.380  0.052  0.270- 130 2.12  99 2.37  92 2.40  50 3.01
   9  0.900  0.075  0.434-  64 2.02 121 2.03  66 2.34  61 2.37  14 3.12
  10  0.443  0.919  0.949-  56 2.24 123 2.30  86 2.31 120 2.35
  11  0.522  0.405  0.411- 113 2.08 124 2.26 125 2.50  87 2.52  32 2.86
  12  0.826  0.507  0.264- 132 2.32  87 2.44 115 2.47  71 2.47  42 2.54
  13  0.326  0.676  0.539- 101 1.99  70 2.29 134 2.33  29 3.05
  14  0.881  0.936  0.237-  55 2.24 133 2.24 121 2.37 104 2.38   9 3.12
  15  0.154  0.961  0.458-  64 2.44  59 2.51
  16  0.710  0.255  0.562- 113 2.04  61 2.15  97 2.41
  17  0.076  0.651  0.340-  75 2.26  83 2.27  71 2.36
  18  0.023  0.267  0.755- 118 2.17  63 2.45  39 3.06
  19  0.091  0.032  0.041- 106 2.18 129 2.24  55 2.36 108 2.40 135 2.55  45 2.80  41 2.94
  20  0.984  0.478  0.908-  98 2.24  69 2.32  93 2.42  31 3.13
  21  0.991  0.728  0.063- 126 2.13 108 2.21 115 2.53  41 3.15  38 3.16
  22  0.535  0.629  0.748- 122 2.10 127 2.20  67 2.34 102 2.43 134 2.46  52 3.16
  23  0.219  0.639  0.893-  95 2.31  72 2.36 102 2.37 126 2.45  44 2.63
  24  0.633  0.788  0.424-  88 2.00  73 2.09
  25  0.329  0.364  0.156-  92 2.40  82 2.42 124 2.51  34 3.10
  26  0.096  0.229  0.495-  59 2.10  66 2.16  79 2.32
  27  0.704  0.006  0.612-  77 2.11  89 2.20  94 2.36  37 3.11
  28  0.881  0.440  0.553-  97 1.61 110 1.61 107 1.68  58 1.76  32 2.97
  29  0.351  0.854  0.694- 134 1.66  86 1.67  76 1.69 105 1.92  13 3.05
  30  0.657  0.243  0.816- 103 1.60 119 1.70 117 1.73  94 1.74   6 2.91   7 2.96  31 3.01
  31  0.797  0.340  0.975-  93 1.58  57 1.74 103 1.84  90 1.96  30 3.01  20 3.13
  32  0.662  0.508  0.548- 116 1.48  67 1.55 113 1.70 107 1.98  11 2.86  52 2.87  28 2.97
  33  0.741  0.796  0.790- 122 1.50  60 1.62  77 1.74  62 1.76  37 2.64
  34  0.339  0.572  0.275-  65 1.57 111 1.66 124 1.70 101 1.78   1 2.91  35 2.95  25 3.10
  35  0.357  0.753  0.136- 120 1.55 131 1.65 111 1.72 114 1.82  34 2.95  41 3.07
  36  0.716  0.912  0.015-  85 1.57 123 1.60 104 1.68  62 1.78   2 2.95
  37  0.860  0.823  0.626-  80 1.61  60 1.73  73 1.86  89 1.87  48 2.34  33 2.64  27 3.11
  38  0.117  0.530  0.132- 126 1.62  82 1.66  71 1.77  65 1.93  72 2.48  21 3.16
  39  0.207  0.202  0.888- 118 1.52  68 1.52  91 1.81 129 1.83  51 2.61  18 3.06
  40  0.738  0.730  0.184-  81 1.58  88 1.59 115 1.61 104 1.83   1 3.08
  41  0.153  0.865  0.182-  75 1.60 108 1.60 114 1.64 135 1.72  19 2.94  35 3.07  21 3.15
  42  0.740  0.332  0.238-  84 1.53  87 1.56 132 1.62  90 1.92  12 2.54
  43  0.342  0.171  0.510- 109 1.63  96 1.65  59 1.72 125 1.82  50 3.01  46 3.09
  44  0.386  0.565  0.981-  72 1.57 102 1.63 100 1.67 131 1.76  23 2.63
  45  0.096  0.099  0.246-  55 1.59 112 1.61  64 1.74 135 2.03  19 2.80   5 3.04
  46  0.279  0.321  0.685- 128 1.55  79 1.63  68 1.79 109 1.85  43 3.09
  47  0.099  0.518  0.640-  70 1.53  69 1.61  58 1.67
  48  0.898  0.794  0.452-  83 1.63  80 1.65 121 1.67  73 2.08  37 2.34
  49  0.985  0.032  0.664-  63 1.56  66 1.58  78 1.72  89 1.77   2 3.11
  50  0.422  0.955  0.477-  99 1.52  74 1.56  96 1.77  76 2.03   8 3.01  43 3.01
  51  0.342  0.145  0.028-  92 1.55 129 1.58  56 1.64  91 2.03  39 2.61
  52  0.729  0.480  0.758-  98 1.61 127 1.69  67 1.85 117 1.88  97 2.10  32 2.87  22 3.16
  53  0.115  0.866  0.824- 106 1.65 105 1.67  78 1.73  95 1.75
  54  0.656  0.117  0.337- 130 1.66 133 1.73  84 1.73  61 1.77
  55  0.993  0.060  0.192-  45 1.59  14 2.24  19 2.36
  56  0.429  0.091  0.952-  51 1.64  10 2.24   6 2.48
  57  0.805  0.469  0.013-  31 1.74   3 2.30
  58  0.988  0.522  0.575-  47 1.67  28 1.76
  59  0.226  0.142  0.451-  43 1.72  26 2.10  15 2.51
  60  0.842  0.747  0.734-  33 1.62  37 1.73
[...]
 121  0.888  0.919  0.420-  48 1.67   9 2.03  14 2.37
 122  0.656  0.719  0.808-  33 1.50  22 2.10
 123  0.604  0.965  0.011-  36 1.60  10 2.30   4 2.34
 124  0.426  0.474  0.283-  34 1.70  11 2.26   1 2.30  25 2.51
 125  0.378  0.277  0.426-  43 1.82  11 2.50
 126  0.095  0.603  0.032-  38 1.62  21 2.13  23 2.45
 127  0.629  0.516  0.835-  52 1.69  22 2.20   3 2.35
 128  0.362  0.400  0.720-  46 1.55   7 2.30
 129  0.239  0.100  0.981-  51 1.58  39 1.83  19 2.24
 130  0.534  0.091  0.310-  54 1.66   8 2.12
 131  0.377  0.694  0.025-  35 1.65  44 1.76
 132  0.866  0.334  0.236-  42 1.62   5 2.07  12 2.32
 133  0.748  0.039  0.280-  54 1.73  14 2.24
 134  0.379  0.729  0.704-  29 1.66  13 2.33  22 2.46
 135  0.198  0.989  0.200-  41 1.72  45 2.03  19 2.55

IMPORTANT INFORMATION: All symmetrisations will be switched off!
NOSYMM: (Re-)initialisation of all symmetry stuff for point group C_1.

Automatic generation of k-mesh.
 generate k-points for:    2    2    2
Space group operators:
 irot       det(A)        alpha          n_x          n_y          n_z        tau_x        tau_y        tau_z
    1     1.000000     0.000000     1.000000     0.000000     0.000000     0.000000     0.000000     0.000000

 Subroutine IBZKPT returns following result:

 Found      8 irreducible k-points:

 Following reciprocal coordinates:
            Coordinates               Weight
  0.000000  0.000000  0.000000      1.000000
  0.500000  0.000000  0.000000      1.000000
  0.000000  0.500000  0.000000      1.000000
  0.500000  0.500000  0.000000      1.000000
  0.000000  0.000000  0.500000      1.000000
  0.500000  0.000000  0.500000      1.000000
  0.000000  0.500000  0.500000      1.000000
  0.500000  0.500000  0.500000      1.000000

 Following cartesian coordinates:
            Coordinates               Weight
  0.000000  0.000000  0.000000      1.000000
  0.038669  0.000000  0.000000      1.000000
  0.000000  0.038669  0.000000      1.000000
  0.038669  0.038669  0.000000      1.000000
  0.000000  0.000000  0.038669      1.000000
  0.038669  0.000000  0.038669      1.000000
  0.000000  0.038669  0.038669      1.000000
  0.038669  0.038669  0.038669      1.000000

 SYSTEM =  unknown system
 POSCAR =  Ca Si  O

 Startparameter for this run:
   NWRITE =      2    write-flag & timer
   PREC   = a         normal or accurate (medium, high low for compatibility)
   ISTART =      0    job   : 0-new  1-cont  2-samecut
   ICHARG =      2    charge: 1-file 2-atom 10-const
   ISPIN  =      1    spin polarized calculation?
   LNONCOLLINEAR =      F non collinear calculations
   LSORBIT =      F    spin-orbit coupling
   INIWAV =      1    electr: 0-lowe 1-rand  2-diag
   LASPH  =      F    aspherical Exc in radial PAW
   METAGGA=      F    non-selfconsistent MetaGGA calc.

 Electronic Relaxation 1
   ENCUT  =  600.0 eV  44.10 Ry    6.64 a.u.  25.83 25.83 25.83*2*pi/ulx,y,z
   ENINI  =  600.0     initial cutoff
   ENAUG  =  605.4 eV  augmentation charge cutoff
   NELM   =     60;   NELMIN=  2; NELMDL= -5     # of ELM steps
   EDIFF  = 0.1E-05   stopping-criterion for ELM
   LREAL  =      T    real-space projection
   NLSPLINE    = F    spline interpolate recip. space projectors
   LCOMPAT=      F    compatible to vasp.4.4
   GGA_COMPAT  = T    GGA compatible to vasp.4.4-vasp.4.6
   LMAXPAW     = -100 max onsite density
   LMAXMIX     =    2 max onsite mixed and CHGCAR
   VOSKOWN=      0    Vosko Wilk Nusair interpolation
   ROPT   =   -0.00025  -0.00025  -0.00025
 Ionic relaxation
   EDIFFG = -.1E-01   stopping-criterion for IOM
   NSW    =      1    number of steps for IOM
   NBLOCK =      1;   KBLOCK =      1    inner block; outer block
   IBRION =     -1    ionic relax: 0-MD 1-quasi-New 2-CG
   NFREE  =      0    steps in history (QN), initial steepest desc. (CG)
   ISIF   =      2    stress and relaxation
   IWAVPR =     10    prediction:  0-non 1-charg 2-wave 3-comb
   ISYM   =      0    0-nonsym 1-usesym 2-fastsym
   LCORR  =      T    Harris-Foulkes like correction to forces

   POTIM  = 1.0000    time-step for ionic-motion
   TEIN   =    0.0    initial temperature
   TEBEG  =    0.0;   TEEND  =   0.0 temperature during run
   SMASS  =  -3.00    Nose mass-parameter (am)
   estimated Nose-frequenzy (Omega)   =  0.10E-29 period in steps =****** mass=  -0.382E-26a.u.
[...]
     0.000000000  0.000000000 12.930412990     0.000000000  0.000000000  0.077337050

  length of vectors
    12.930412990 12.930412990 12.930412990     0.077337050  0.077337050  0.077337050

 FORCES acting on ions
    electron-ion (+dipol)            ewald-force                    non-local-force                 convergence-correction
   0.500E+02 0.359E+02 -.988E+02   -.519E+02 -.351E+02 0.967E+02   0.900E+00 -.233E+01 0.393E+01   -.121E-02 -.544E-03 0.136E-02
   -.100E+03 -.237E+02 -.107E+03   0.987E+02 0.232E+02 0.108E+03   0.708E+00 0.461E-01 -.304E+00   0.974E-03 0.326E-03 -.103E-02
   0.154E+02 -.727E+02 0.186E+02   -.151E+02 0.699E+02 -.206E+02   -.172E+00 0.258E+01 0.865E+00   -.757E-03 0.582E-04 -.160E-02
   0.604E+02 -.141E+02 -.241E+03   -.584E+02 0.133E+02 0.238E+03   -.152E+01 0.680E+00 0.297E+01   -.209E-03 -.863E-03 -.391E-03
   -.131E+03 -.770E+01 0.648E+01   0.130E+03 0.116E+02 -.448E+01   0.199E+01 -.335E+01 -.274E+01   0.123E-02 -.672E-03 0.513E-03
   0.147E+03 0.430E+02 0.188E+03   -.149E+03 -.441E+02 -.186E+03   0.379E+00 0.907E+00 -.226E+01   -.151E-02 -.121E-03 -.197E-02
   0.110E+03 -.364E+02 0.322E+02   -.112E+03 0.388E+02 -.323E+02   0.807E+00 0.200E-02 0.401E+00   -.126E-02 0.487E-03 -.250E-02
   -.412E+02 -.786E-01 0.127E+02   0.438E+02 0.435E+00 -.128E+02   -.328E+01 -.267E+00 -.562E+00   -.366E-03 0.132E-02 0.279E-02
   0.719E+02 -.188E+03 -.275E+01   -.724E+02 0.186E+03 0.120E+01   -.215E+01 0.375E+01 0.193E+01   0.355E-03 0.904E-03 0.955E-03
   0.462E+02 0.173E+03 0.193E+02   -.457E+02 -.172E+03 -.162E+02   -.977E+00 -.289E+01 -.204E+01   -.312E-03 0.634E-03 -.235E-02
   0.285E+03 0.975E+02 -.898E+02   -.287E+03 -.997E+02 0.891E+02   -.759E+00 0.104E+01 -.106E+00   -.180E-02 -.890E-03 0.147E-02
   -.118E+03 -.108E+02 -.113E+03   0.123E+03 0.138E+02 0.112E+03   -.216E+01 -.822E-01 0.142E+01   0.432E-03 0.430E-03 0.217E-02
   0.573E+02 0.706E+02 -.240E+02   -.589E+02 -.728E+02 0.240E+02   0.900E+00 0.236E+01 0.187E+01   -.145E-02 -.128E-02 0.192E-02
   0.693E+02 0.766E+02 0.381E+02   -.721E+02 -.725E+02 -.402E+02   0.204E+01 -.386E+01 0.867E+00   0.233E-03 0.594E-03 -.588E-04
   -.111E+03 0.228E+03 -.153E+03   0.113E+03 -.223E+03 0.150E+03   -.119E+01 -.435E+01 0.221E+01   0.165E-02 0.163E-02 0.165E-02
   0.761E+02 0.931E+02 -.291E+02   -.749E+02 -.875E+02 0.262E+02   -.169E+00 -.455E+01 0.421E+01   -.213E-03 0.529E-03 -.462E-03
   -.168E+03 0.171E+03 -.279E+03   0.164E+03 -.168E+03 0.274E+03   0.399E+01 -.294E+01 0.457E+01   0.108E-02 -.149E-02 0.265E-02
   0.237E+02 -.932E+02 0.104E+03   -.220E+02 0.905E+02 -.999E+02   -.208E+01 0.275E+01 -.429E+01   0.148E-02 0.981E-03 -.224E-02
   0.325E+02 -.145E+03 0.165E+03   -.319E+02 0.138E+03 -.167E+03   -.130E+01 0.600E+01 0.525E+00   -.296E-03 0.170E-03 -.591E-03
   -.130E+03 -.869E+02 0.659E+01   0.125E+03 0.870E+02 -.100E+02   0.377E+01 0.545E+00 0.333E+01   0.140E-02 0.585E-03 -.313E-02
   0.121E+03 0.332E+02 0.136E+03   -.119E+03 -.327E+02 -.136E+03   -.313E+01 0.220E+00 -.969E+00   0.520E-03 0.715E-03 -.124E-02
   0.221E+03 -.102E+03 0.182E+03   -.219E+03 0.102E+03 -.176E+03   -.359E+01 -.356E+00 -.508E+01   -.169E-02 -.209E-03 -.136E-02
   0.462E+02 -.104E+02 0.252E+03   -.480E+02 0.116E+02 -.252E+03   0.778E+00 -.292E+00 -.105E+01   -.619E-03 -.201E-03 -.311E-02
   0.276E+03 -.579E+02 -.254E+02   -.272E+03 0.566E+02 0.261E+02   -.555E+01 0.160E+01 0.588E+00   -.923E-03 0.751E-04 0.181E-02
   -.519E+02 0.107E+03 -.131E+03   0.473E+02 -.105E+03 0.129E+03   0.309E+01 -.933E+00 0.822E+00   -.485E-03 0.267E-04 0.172E-02
   -.749E+02 -.332E+03 0.901E+02   0.766E+02 0.331E+03 -.899E+02   -.220E+01 0.333E+01 -.137E+01   0.174E-02 0.153E-02 0.971E-03
   0.254E+03 0.421E+01 0.136E+03   -.253E+03 -.580E+01 -.134E+03   -.244E+01 0.157E+01 -.371E+01   -.783E-03 0.308E-03 -.442E-03
   -.128E+03 -.575E+02 0.100E+02   0.121E+03 0.504E+02 -.131E+02   0.690E+01 0.824E+01 0.121E+01   0.664E-03 0.309E-03 0.356E-03
   0.255E+02 -.931E+01 0.336E+02   -.219E+02 0.556E+01 -.306E+02   -.512E+01 0.369E+01 0.950E+00   -.322E-03 -.202E-03 -.311E-03
   -.614E+00 -.266E+02 0.488E+02   0.105E+01 0.255E+02 -.442E+02   -.115E+01 0.104E+01 -.660E+01   -.221E-03 0.991E-04 -.529E-03
   0.597E+02 -.613E+01 -.147E+02   -.467E+02 0.910E+01 0.162E+02   -.144E+02 -.228E+01 0.180E+01   -.146E-03 -.354E-04 -.724E-03
   0.212E+02 -.977E+00 -.124E+02   -.279E+02 0.104E+02 0.757E+01   0.143E+02 -.143E+02 0.162E+01   0.630E-04 -.351E-03 0.567E-04
   0.555E+01 0.804E+01 0.143E+02   -.126E+02 -.151E+02 -.107E+02   0.757E+01 0.114E+02 0.332E+00   0.794E-05 -.443E-04 -.327E-03
   0.763E+02 0.232E+02 -.112E+03   -.745E+02 -.227E+02 0.112E+03   0.154E+01 0.842E+00 0.467E+01   0.219E-04 -.348E-03 0.102E-02
   0.693E+01 -.133E+02 -.900E+02   0.157E+01 0.217E+02 0.797E+02   -.925E+01 -.880E+01 0.780E+01   -.270E-03 -.456E-03 0.813E-03
   0.818E+02 0.639E+02 -.102E+02   -.768E+02 -.540E+02 0.108E+02   -.290E+01 -.124E+02 -.904E+00   0.171E-03 0.114E-03 -.217E-03
   -.295E+02 0.547E+02 -.454E+02   0.321E+02 -.609E+02 0.434E+02   -.574E+01 0.671E+01 0.459E+01   0.622E-03 -.360E-04 0.368E-04
   0.581E+01 0.235E+02 -.626E+02   -.114E+02 -.320E+02 0.570E+02   0.611E+01 0.472E+01 0.694E+01   0.355E-03 0.814E-04 0.154E-03
   -.303E+02 0.461E+02 0.429E+01   0.224E+02 -.344E+02 -.798E+01   0.126E+02 -.100E+02 0.940E+01   0.284E-03 0.184E-03 -.106E-02
   -.948E+01 -.965E+02 0.148E+02   0.609E+01 0.850E+02 -.135E+02   0.446E+01 0.129E+02 -.359E+01   0.287E-03 0.183E-03 -.946E-04
   -.825E+02 0.648E+01 -.380E+02   0.765E+02 -.117E+02 0.394E+02   0.638E+01 0.514E+01 -.606E+00   -.222E-03 0.315E-03 0.577E-04
   0.138E+02 0.837E+01 0.469E+02   -.161E+02 -.119E+02 -.402E+02   0.249E+01 -.614E+00 -.112E+02   -.248E-03 -.167E-03 0.897E-03
   0.135E+02 -.245E+02 0.606E+01   -.982E+01 0.299E+02 -.732E+01   -.280E+01 -.142E+00 -.284E+01   -.928E-04 0.184E-04 0.435E-03
   -.520E+02 0.117E+02 0.999E+01   0.463E+02 -.153E+02 -.116E+02   0.810E+01 0.454E+01 0.240E+01   -.277E-03 -.486E-03 -.859E-03
   -.695E+02 -.561E+02 -.934E+01   0.655E+02 0.641E+02 0.104E+02   0.584E+01 -.855E+01 0.298E+01   0.358E-03 0.291E-03 0.695E-03
   -.603E+01 -.577E+02 0.542E+02   0.108E+02 0.636E+02 -.546E+02   -.399E+01 -.102E+02 -.413E+00   -.306E-03 0.114E-03 -.937E-03
   -.422E+02 0.519E+01 0.531E+02   0.439E+02 0.347E+01 -.505E+02   -.418E+01 -.935E+01 -.142E+01   0.624E-03 -.219E-04 -.503E-03
   -.397E+02 0.665E+02 -.393E+01   0.428E+02 -.677E+02 -.163E+01   -.548E+01 0.997E+00 0.221E+01   0.336E-03 -.449E-04 0.853E-03
   -.117E+03 0.516E+02 0.113E+02   0.113E+03 -.424E+02 -.548E+01   0.326E+01 -.123E+02 -.357E+01   0.343E-03 0.394E-04 -.504E-04
   0.157E+02 -.199E+01 -.107E+02   -.933E+01 -.543E+01 0.651E+01   -.579E+01 0.919E+01 0.970E+01   -.493E-03 0.716E-03 0.651E-03
   -.210E+02 -.580E+01 -.380E+02   0.230E+02 0.607E+01 0.386E+02   0.357E+00 0.308E+01 -.418E+01   -.260E-03 0.196E-03 -.382E-03
   -.451E+02 -.168E+02 0.275E+02   0.480E+02 0.211E+02 -.166E+02   -.377E+01 -.491E+01 -.115E+02   -.221E-04 -.626E-05 -.640E-03
   -.110E+02 -.940E+01 0.731E+02   0.121E+02 0.188E+01 -.661E+02   -.122E+01 0.330E+01 -.669E+01   0.385E-03 -.355E-03 -.938E-03
   0.102E+03 0.226E+02 0.896E+01   -.989E+02 -.268E+02 -.131E+02   0.600E+00 0.331E+01 0.295E+01   -.478E-03 0.143E-03 0.755E-03
   0.965E+02 -.111E+03 0.653E+02   -.121E+03 0.101E+03 -.739E+02   0.243E+02 0.118E+02 0.557E+01   -.529E-04 -.750E-05 0.690E-04
   0.233E+02 0.656E+01 -.295E+01   -.807E+01 -.116E+02 -.121E+02   -.151E+02 0.477E+01 0.164E+02   0.969E-04 0.139E-03 -.101E-02
   -.396E+02 -.484E+02 -.499E+02   0.447E+02 0.686E+02 0.560E+02   -.617E+01 -.231E+02 -.632E+01   -.984E-04 -.181E-03 -.997E-03
   -.913E+02 -.893E+02 0.583E+02   0.838E+02 0.107E+03 -.701E+02   0.754E+01 -.189E+02 0.121E+02   0.112E-02 -.308E-03 0.512E-03
   -.873E+02 -.318E+02 0.199E+02   0.733E+02 0.307E+02 -.360E+02   0.165E+02 -.142E+01 0.181E+02   0.367E-03 0.788E-04 0.257E-03
   -.152E+03 0.163E+03 -.292E+02   0.174E+03 -.193E+03 0.369E+02   -.203E+02 0.318E+02 -.106E+02   0.975E-03 -.320E-04 -.768E-03
[...]
   0.648E+02 -.450E+02 -.260E+02   -.854E+02 0.230E+02 0.359E+02   0.174E+02 0.205E+02 -.105E+02   -.851E-03 -.948E-03 -.488E-03
   0.722E+02 0.590E+02 -.713E+02   -.959E+02 -.488E+02 0.729E+02   0.229E+02 -.105E+02 -.206E+01   -.440E-03 0.516E-03 -.216E-03
   0.797E+02 0.135E+03 -.717E+02   -.682E+02 -.153E+03 0.741E+02   -.132E+02 0.184E+02 -.356E+01   -.110E-02 -.681E-03 0.155E-02
   0.424E+02 -.109E+03 0.395E+02   -.418E+02 0.122E+03 -.520E+02   -.407E+00 -.158E+02 0.142E+02   -.519E-03 0.680E-03 0.596E-03
   0.207E+02 0.352E+02 0.751E+02   -.205E+02 -.223E+02 -.958E+02   -.641E+00 -.136E+02 0.203E+02   0.681E-03 0.981E-04 -.102E-02
   0.429E+02 0.122E+02 -.531E+02   -.578E+02 -.863E+01 0.656E+02   0.155E+02 -.448E+01 -.116E+02   -.624E-03 -.154E-03 -.538E-03
   0.784E+01 -.134E+03 0.135E+03   0.135E+02 0.160E+03 -.129E+03   -.211E+02 -.253E+02 -.544E+01   -.163E-03 0.919E-03 -.974E-03
   0.172E+02 0.856E+02 0.550E+02   -.344E+02 -.108E+03 -.572E+02   0.139E+02 0.216E+02 0.350E+00   -.398E-03 0.669E-04 -.694E-03
   0.456E+01 0.128E+01 0.221E+02   -.253E+02 -.500E+01 -.261E+02   0.235E+02 0.439E+01 0.469E+01   -.588E-03 0.652E-03 0.138E-02
   -.828E+02 -.895E+02 0.769E+02   0.863E+02 0.976E+02 -.943E+02   -.261E+01 -.900E+01 0.164E+02   -.811E-03 -.889E-03 0.737E-04
   -.137E+03 0.142E+02 -.101E+03   0.162E+03 -.166E+02 0.106E+03   -.249E+02 0.440E+01 -.364E+01   0.590E-03 -.854E-04 0.107E-02
   0.122E+03 0.214E+02 0.833E+02   -.111E+03 -.316E+02 -.939E+02   -.126E+02 0.106E+02 0.112E+02   -.232E-03 0.136E-03 0.358E-03
   0.143E+02 0.551E+02 0.246E+02   -.117E+02 -.799E+02 -.151E+02   -.212E+01 0.265E+02 -.110E+02   -.746E-03 -.868E-03 -.784E-04
   -.151E+03 -.299E+02 -.464E+02   0.168E+03 0.420E+02 0.466E+02   -.186E+02 -.111E+02 0.312E+00   -.214E-03 0.550E-03 0.894E-03
   0.484E+02 -.726E+01 0.164E+02   -.853E-13 0.298E-12 -.412E-12   -.484E+02 0.726E+01 -.164E+02   0.522E-03 0.518E-02 -.604E-02

 POSITION                                       TOTAL-FORCE (eV/Angst)
      7.27075      7.51885      3.16355        -0.972139     -1.462169      1.815326
     10.86226      0.24413     11.06952        -0.686524     -0.453965      0.483283
      8.58121      7.45403      0.03705         0.049880     -0.171384     -1.142529
      7.94479      1.83728      0.57282         0.520108     -0.142330     -0.005562
     12.59086      3.46753      1.78022         1.352810      0.543117     -0.746774
      6.49633      1.10472     10.01842        -1.686576     -0.195035      0.045824
      6.09543      4.78443     11.08156        -1.220196      2.451517      0.291111
      4.90977      0.66939      3.48477        -0.676458      0.090594     -0.645631
     11.63108      0.96590      5.60828        -2.639724      2.193644      0.387056
      5.72984     11.88067     12.27734        -0.469569     -1.435143      1.069878
      6.75219      5.23317      5.31243        -2.474423     -1.231582     -0.796417
     10.68430      6.55295      3.41710         2.251175      2.921782      0.564899
      4.20911      8.74722      6.97576        -0.721407      0.132310      1.849049
     11.39304     12.10063      3.06704        -0.784592      0.243064     -1.162820
      1.99421     12.43176      5.91966         0.690596      0.754365     -0.599843
      9.18256      3.29187      7.26099         0.989628      1.013324      1.386320
      0.98106      8.42388      4.40066        -0.184822     -0.299645     -0.249824
      0.29590      3.45409      9.76831        -0.336774      0.007973      0.125802
      1.17378      0.41198      0.52411        -0.696837     -1.351457     -1.060599
     12.72413      6.17436     11.73965        -0.772035      0.625785     -0.095092
     12.81105      9.41009      0.81501        -1.151494      0.718052     -0.840550
      6.91727      8.13089      9.67461        -1.732801      0.110810      0.173287
      2.82531      8.26840     11.54849        -0.937371      0.879529     -0.819797
      8.18213     10.19438      5.48656        -2.210867      0.303409      1.312188
      4.24878      4.70389      2.02149        -1.488699      0.480984     -0.605115
      1.23795      2.96104      6.40144        -0.493023      1.974576     -1.236342
      9.09930      0.07984      7.91474        -1.704728     -0.021831     -1.210100
     11.39377      5.68752      7.14722         0.349200      1.174812     -1.902177
      4.54051     11.03679      8.96996        -1.584910     -0.054704      3.965710
      8.50141      3.14170     10.55744        -0.710170     -0.011016     -2.015077
     10.29989      4.39975     12.61199        -1.417772      0.693813      3.294846
      8.55555      6.57154      7.08995         7.604765     -4.840675     -3.260862
      9.58634     10.29362     10.21669         0.517424      4.347886      4.003789
      4.38623      7.39842      3.55433         3.373840      1.313875      4.985140
      4.61300      9.73104      1.75698        -0.749908     -0.327223     -2.452729
      9.25437     11.79387      0.19704         2.110727     -2.528966     -0.357533
     11.11659     10.64385      8.09252        -3.069950      0.561978      2.645907
      1.51554      6.85828      1.70437         0.554726     -3.710180      1.414553
      2.67936      2.61368     11.48544         4.730770      1.745830      5.709242
      9.54534      9.44501      2.37784         1.064133      1.306662     -2.246025
      1.97913     11.18515      2.35578         0.391607     -0.083817      0.780993
      9.57376      4.28779      3.08204         0.139069     -4.165722     -4.580185
      4.41589      2.20639      6.59807         0.863648      5.219300     -4.095411
      4.98776      7.30033     12.69093         2.429157      0.892027      0.751301
      1.23963      1.28252      3.18108         1.830990     -0.595535      4.028365
      3.60619      4.15199      8.86015         0.757657     -4.311920     -0.895025
      1.27692      6.70219      8.28091        -2.500188     -0.688169      1.222378
     11.60913     10.26620      5.83940        -2.367858     -0.234948     -3.340733
     12.73381      0.41395      8.59072        -0.458362     -3.129813      2.283571
      5.46134     12.34541      6.16295         0.554783      1.764042      5.472612
      4.42177      1.87463      0.35902         2.376014      3.349803     -3.603002
      9.42364      6.21019      9.80259        -0.911000     -0.551781     -0.609843
      1.48219     11.20055     10.65431        -0.146753     -4.223257      0.309056
      8.48851      1.51810      4.35860         3.788887     -0.892770     -1.237929
     12.83592      0.77474      2.48446        -0.476714      2.132706     -3.020876
      5.54700      1.18054     12.31218         0.096896     -0.313202      1.362516
     10.41000      6.06931      0.17029        -1.069810     -2.882712     -0.140451
     12.77494      6.74667      7.42897         0.076808     -1.348668      0.359598
      2.91982      1.83764      5.83519         2.496623     -2.506692      2.014061
     10.89038      9.65679      9.49524         1.374220      1.965805     -2.919357
[...]
     11.48140     11.88278      5.42915         1.124109     -4.071294     -0.334899
      8.48720      9.29278     10.45129        -3.203737     -1.520727     -0.538957
      7.80662     12.47234      0.14028        -0.844230     -0.351948     -0.508282
      5.51103      6.12889      3.65534        -1.678139      0.769008     -1.152505
      4.89004      3.57576      5.50196         0.223869     -2.037425      1.700808
      1.22489      7.80083      0.41469        -0.375794     -0.686182     -0.439744
      8.13110      6.67673     10.79242         0.587929     -0.936673      0.875193
      4.68059      5.17773      9.31045         0.231815      0.570343      0.603406
      3.08799      1.29120     12.68477        -3.365515     -0.862978     -1.913075
      6.90352      1.17625      4.00719         2.767844      0.678591      0.624477
      4.87514      8.97003      0.31893         0.856819     -0.925575     -0.906433
     11.19495      4.31669      3.05151        -0.525057      1.987735      0.968627
      9.67821      0.50971      3.61761        -1.402937      0.429027      0.679603
      4.90369      9.42591      9.09854         0.481520      1.694962     -1.567842
      2.55516     12.78869      2.59192        -1.268634      1.003833      0.547473
    total drift:                                0.023210      0.008324      0.002383

  FREE ENERGIE OF THE ION-ELECTRON SYSTEM (eV)
  free  energy   TOTEN  =      -939.70382052 eV

  energy  without entropy=     -939.70382052  energy(sigma->0) =     -939.70382052