 vasp.5.4.4.18Apr17-6-g9f103f2a35 (build Mar 16 2023 09:39:13) complex

 executed on             LinuxIFC date 2024.04.29  17:45:54

 INCAR:
 POTCAR:    PAW_PBE Ca_sv 06Sep2000
 POTCAR:    PAW_PBE Si 05Jan2001
 POTCAR:    PAW_PBE O 08Apr2002
 POTCAR:    PAW_PBE Ca_sv 06Sep2000
   VRHFIN =Ca: 3s3p4s

   TITEL  = PAW_PBE Ca_sv 06Sep2000
   POMASS =   40.078; ZVAL   =   10.000    mass and valenz
   ENMAX  =  266.622; ENMIN  =  199.967 eV

   TITEL  = PAW_PBE Si 05Jan2001
   POMASS =   28.085; ZVAL   =    4.000    mass and valenz
   ENMAX  =  245.345; ENMIN  =  184.009 eV

   TITEL  = PAW_PBE O 08Apr2002
   POMASS =   16.000; ZVAL   =    6.000    mass and valenz
   ENMAX  =  400.000; ENMIN  =  300.000 eV

 Optimization of the real space projectors (new method)

 maximal supplied QI-value         = 16.25
 optimisation between [QCUT,QGAM] = [ 12.51, 25.03] = [ 43.85,175.40] Ry
 Optimized for a Real-space Cutoff    1.47 Angstroem

   l    n(q)    QCUT    max X(q) W(low)/X(q) W(high)/X(q)  e(spline)
   0     11    12.514    11.817    0.25E-04    0.32E-05    0.87E-07
   0     11    12.514     8.461    0.39E-04    0.59E-05    0.18E-06
   1     11    12.514     3.957    0.97E-05    0.57E-05    0.28E-07
   1     11    12.514     4.314    0.42E-04    0.14E-04    0.23E-06
   2     10    12.514    14.565    0.79E-04    0.50E-03    0.16E-05
   2     10    12.514    14.552    0.75E-04    0.48E-03    0.15E-05
 Optimization of the real space projectors (new method)

[...]

   l    n(q)    QCUT    max X(q) W(low)/X(q) W(high)/X(q)  e(spline)
   0      9    12.501   159.560    0.10E-03    0.83E-04    0.71E-07
   0      9    12.501   115.863    0.99E-04    0.81E-04    0.70E-07
   1      8    12.501    88.339    0.20E-03    0.25E-03    0.76E-07
   1      8    12.501    48.592    0.20E-03    0.24E-03    0.75E-07
 Optimization of the real space projectors (new method)

 maximal supplied QI-value         = 24.76
 optimisation between [QCUT,QGAM] = [ 12.38, 25.00] = [ 42.90,175.06] Ry
 Optimized for a Real-space Cutoff    1.16 Angstroem

   l    n(q)    QCUT    max X(q) W(low)/X(q) W(high)/X(q)  e(spline)
   0      9    12.378    20.381    0.16E-03    0.67E-05    0.31E-06
   0      9    12.378    15.268    0.17E-03    0.81E-05    0.33E-06
   1      8    12.378     5.964    0.20E-03    0.16E-03    0.30E-06
   1      8    12.378     5.382    0.18E-03    0.14E-03    0.26E-06
  PAW_PBE Ca_sv 06Sep2000               :
  PAW_PBE Si 05Jan2001                  :
  PAW_PBE O 08Apr2002                   :

 POSCAR: Ca Si  O
  positions in direct lattice
 exchange correlation table for  LEXCH =        8
   RHO(1)=    0.500       N(1)  =     2000
   RHO(2)=  100.500       N(2)  =     4000

 ion  position               nearest neighbor table
   1  0.236  0.397  0.204- 104 2.02 123 2.08  81 2.19 131 2.32  84 2.42
   2  0.353  0.817  0.455-  56 1.93  76 2.49  31 3.09  38 3.14
   3  0.785  0.722  0.693-  88 2.04
   4  0.247  0.481  0.488-  63 2.25 104 2.30  40 2.67  52 2.87
   5  0.239  0.085  0.749-  90 2.14 118 2.24 111 2.51  39 3.12
   6  0.768  0.624  0.260-  66 2.14 109 2.29  44 3.14  19 3.15
   7  0.392  0.552  0.832- 106 2.25 133 2.25
   8  0.647  0.094  0.023- 105 2.19
   9  0.157  0.468  0.740-  67 2.25  58 2.31 106 2.32  50 2.97
  10  0.424  0.175  0.199-  86 2.19  84 2.28 101 2.37  68 2.37  31 3.02
  11  0.741  0.255  0.624- 107 2.19  83 2.34  24 3.15
  12  0.033  0.757  0.835- 132 1.98 119 2.17
  13  0.771  0.024  0.255-  70 2.27  96 2.36 129 2.37
  14  0.469  0.572  0.150- 131 2.20  79 2.23 114 2.34 112 2.47 109 2.54  49 3.10  37 3.15
  15  0.904  0.320  0.328-  98 2.22  60 2.26  16 3.16  43 3.16
  16  0.869  0.338  0.094- 125 2.10 130 2.19  98 2.43  92 2.54  15 3.16
  17  0.191  0.972  0.134-  94 2.17 115 2.41  47 2.93  48 3.11
  18  0.610  0.506  0.591- 102 2.25 107 2.29  72 2.33  36 2.98  35 3.07
  19  0.630  0.814  0.227-  91 2.03  75 2.18 109 2.51  41 2.99   6 3.15
  20  0.366  0.871  0.780-  99 2.16  69 2.32  76 2.46 133 2.56  32 3.00
  21  0.626  0.387  0.007- 124 2.09 114 2.36  51 2.73
  22  0.983  0.050  0.377-  96 1.90 103 2.10 115 2.32 113 2.49  46 3.12
  23  0.111  0.214  0.007-  59 2.04  78 2.38  45 2.64  33 2.78  39 3.09
  24  0.885  0.162  0.787- 121 1.81 127 2.16  11 3.15
  25  0.048  0.542  0.332-  87 2.04  60 2.51
  26  0.884  0.863  0.033-
  27  0.471  0.206  0.694-  71 1.94  83 2.37  51 2.70  52 3.00
  28  0.266  0.657  0.250-  87 1.69  77 1.72  73 1.75 131 1.76
  29  0.015  0.175  0.585- 111 1.56 113 1.60 121 1.62
  30  0.405  0.158  0.929- 126 1.58 118 1.59  86 1.62 134 1.71
  31  0.423  0.968  0.292-  93 1.56  56 1.62  68 1.77 101 1.88  10 3.02   2 3.09
  32  0.354  0.769  0.981- 133 1.49 108 1.57  55 1.76  79 1.97  41 2.22  20 3.00
  33  0.251  0.342  0.919-  59 1.59 106 1.60 126 1.71  81 1.72  23 2.78
  34  0.461  0.396  0.322- 116 1.45 123 1.63 112 1.69  57 1.81  52 3.12
  35  0.520  0.717  0.618-  72 1.58 110 1.66  76 1.85 100 1.86  18 3.07
  36  0.798  0.485  0.472-  60 1.57 102 1.57 107 1.87  82 2.35  18 2.98
  37  0.656  0.624  0.016-  80 1.59 109 1.71 135 1.75 114 1.86  14 3.15
  38  0.233  0.729  0.637-  95 1.55  99 1.81  58 1.91  76 2.15   2 3.14
  39  0.060  0.022  0.886- 127 1.56  90 1.69  78 1.71 132 1.73  23 3.09   5 3.12
  40  0.158  0.314  0.421- 104 1.49  61 1.59  63 1.83 128 1.95   4 2.67  47 3.04  52 3.12
  41  0.461  0.845  0.084-  79 1.60  97 1.61  93 1.76 108 1.78  32 2.22  53 2.98  19 2.99
  42  0.977  0.557  0.096-  64 1.64 130 1.67  66 1.69  74 1.74
  43  0.682  0.259  0.270-  98 1.55 129 1.60  57 1.76 105 1.89  15 3.16
  44  0.867  0.813  0.358- 122 1.51  65 1.56  91 1.64  96 1.74  46 2.76   6 3.14
  45  0.954  0.115  0.077-  92 1.52  70 1.59  78 1.59 125 2.02  23 2.64
  46  0.901  0.903  0.542-  88 1.60 103 1.61 122 1.72  44 2.76  22 3.12
  47  0.194  0.143  0.273- 115 1.65  84 1.68 128 1.70 101 1.98  17 2.93  40 3.04
  48  0.128  0.754  0.080-  94 1.53  55 1.62  64 1.69  73 1.86  17 3.11
  49  0.484  0.630  0.375- 112 1.57 100 1.64  75 1.65  77 1.76  14 3.10
  50  0.936  0.444  0.729-  67 1.58  89 1.68  82 1.75 120 1.94  54 2.87   9 2.97
  51  0.597  0.294  0.827- 117 1.53 124 1.65  83 1.71 134 1.75  27 2.70  21 2.73
  52  0.370  0.306  0.519-  71 1.62  62 1.66 116 1.70  63 1.82   4 2.87  27 3.00  40 3.12  34 3.12

  53  0.615  0.862  0.923-  69 1.63  85 1.66 135 1.73  97 1.97  41 2.98
  54  0.859  0.573  0.885-  74 1.73 120 1.76  80 1.77 119 1.85  89 2.32  50 2.87
  55  0.225  0.752  0.007-  48 1.62  32 1.76
  56  0.453  0.895  0.385-  31 1.62   2 1.93
  57  0.577  0.327  0.312-  43 1.76  34 1.81
  58  0.260  0.595  0.682-  38 1.91   9 2.31
  59  0.138  0.314  0.894-  33 1.59  23 2.04
  60  0.900  0.463  0.418-  36 1.57  15 2.26  25 2.51
  61  0.058  0.377  0.439-  40 1.59
  62  0.401  0.393  0.604-  52 1.66
  63  0.235  0.319  0.534-  52 1.82  40 1.83   4 2.25
  64  0.049  0.655  0.075-  42 1.64  48 1.69
  65  0.940  0.735  0.309-  44 1.56
  66  0.914  0.597  0.199-  42 1.69   6 2.14
  67  0.022  0.368  0.757-  50 1.58   9 2.25
  68  0.514  0.064  0.305-  31 1.77  10 2.37
  69  0.531  0.878  0.835-  53 1.63  20 2.32
  70  0.865  0.045  0.115-  45 1.59  13 2.27
  71  0.446  0.217  0.551-  52 1.62  27 1.94
  72  0.544  0.631  0.695-  35 1.58  18 2.33
  73  0.214  0.762  0.191-  28 1.75  48 1.86
  74  0.930  0.519  0.979-  54 1.73  42 1.74
  75  0.578  0.700  0.333-  49 1.65  19 2.18
  76  0.390  0.765  0.631-  35 1.85  38 2.15  20 2.46   2 2.49
  77  0.368  0.671  0.328-  28 1.72  49 1.76
  78  0.029  0.054  0.006-  45 1.59  39 1.71  23 2.38
  79  0.443  0.726  0.090-  41 1.60  32 1.97  14 2.23
  80  0.750  0.574  0.960-  37 1.59  54 1.77
  81  0.266  0.362  0.046-  33 1.72   1 2.19
  82  0.901  0.429  0.603-  50 1.75  36 2.35
  83  0.638  0.196  0.755-  51 1.71  11 2.34  27 2.37
  84  0.258  0.216  0.193-  47 1.68  10 2.28   1 2.42
  85  0.719  0.930  0.936-  53 1.66
  86  0.423  0.120  0.044-  30 1.62  10 2.19
  87  0.190  0.599  0.334-  28 1.69  25 2.04
  88  0.863  0.841  0.637-  46 1.60   3 2.04
  89  0.976  0.561  0.756-  50 1.68  54 2.32
  90  0.186  0.033  0.891-  39 1.69   5 2.14
  91  0.772  0.829  0.282-  44 1.64  19 2.03
  92  0.976  0.193  0.158-  45 1.52  16 2.54
  93  0.419  0.900  0.196-  31 1.56  41 1.76
  94  0.081  0.857  0.098-  48 1.53  17 2.17
  95  0.174  0.753  0.540-  38 1.55
  96  0.897  0.940  0.347-  44 1.74  22 1.90  13 2.36
  97  0.564  0.901  0.056-  41 1.61  53 1.97
  98  0.762  0.339  0.242-  43 1.55  15 2.22  16 2.43
  99  0.219  0.815  0.742-  38 1.81  20 2.16
 100  0.487  0.660  0.494-  49 1.64  35 1.86
 101  0.314  0.055  0.271-  31 1.88  47 1.98  10 2.37
 102  0.703  0.555  0.459-  36 1.57  18 2.25
 103  0.000  0.964  0.509-  46 1.61  22 2.10
 104  0.222  0.375  0.353-  40 1.49   1 2.02   4 2.30
 105  0.632  0.184  0.160-  43 1.89   8 2.19
 106  0.294  0.413  0.832-  33 1.60   7 2.25   9 2.32
 107  0.716  0.386  0.529-  36 1.87  11 2.19  18 2.29
 108  0.385  0.883  0.980-  32 1.57  41 1.78
 109  0.644  0.646  0.142-  37 1.71   6 2.29  19 2.51  14 2.54
 110  0.628  0.743  0.562-  35 1.66
 111  0.119  0.128  0.609-  29 1.56   5 2.51
 112  0.467  0.523  0.329-  49 1.57  34 1.69  14 2.47
[...]
 121  0.923  0.196  0.662-  29 1.62  24 1.81
 122  0.852  0.807  0.470-  44 1.51  46 1.72
 123  0.391  0.398  0.221-  34 1.63   1 2.08
 124  0.681  0.271  0.915-  51 1.65  21 2.09
 125  0.906  0.228  0.988-  45 2.02  16 2.10
 126  0.334  0.247  0.895-  30 1.58  33 1.71
 127  0.998  0.045  0.789-  39 1.56  24 2.16
 128  0.179  0.171  0.397-  47 1.70  40 1.95
 129  0.763  0.188  0.324-  43 1.60  13 2.37
 130  0.992  0.440  0.135-  42 1.67  16 2.19
 131  0.306  0.554  0.178-  28 1.76  14 2.20   1 2.32
 132  0.026  0.897  0.887-  39 1.73  12 1.98
 133  0.377  0.711  0.887-  32 1.49   7 2.25  20 2.56
 134  0.508  0.228  0.899-  30 1.71  51 1.75
 135  0.641  0.737  0.951-  53 1.73  37 1.75

IMPORTANT INFORMATION: All symmetrisations will be switched off!
NOSYMM: (Re-)initialisation of all symmetry stuff for point group C_1.

Automatic generation of k-mesh.
 generate k-points for:    2    2    2
Space group operators:
 irot       det(A)        alpha          n_x          n_y          n_z        tau_x        tau_y        tau_z
    1     1.000000     0.000001     1.000000     0.000000     0.000000     0.000000     0.000000     0.000000

 Subroutine IBZKPT returns following result:

 Found      8 irreducible k-points:

 Following reciprocal coordinates:
            Coordinates               Weight
  0.000000  0.000000  0.000000      1.000000
  0.500000  0.000000  0.000000      1.000000
  0.000000  0.500000  0.000000      1.000000
  0.500000  0.500000  0.000000      1.000000
  0.000000  0.000000  0.500000      1.000000
  0.500000  0.000000  0.500000      1.000000
  0.000000  0.500000  0.500000      1.000000
  0.500000  0.500000  0.500000      1.000000

 Following cartesian coordinates:
            Coordinates               Weight
  0.000000  0.000000  0.000000      1.000000
  0.037563  0.000000  0.000000      1.000000
  0.000000  0.037563  0.000000      1.000000
  0.037563  0.037563  0.000000      1.000000
  0.000000  0.000000  0.037563      1.000000
  0.037563  0.000000  0.037563      1.000000
  0.000000  0.037563  0.037563      1.000000
[...]
     0.000000000  0.000000000 13.310935620     0.000000000  0.000000000  0.075126199

  length of vectors
    13.310935620 13.310935620 13.310935620     0.075126199  0.075126199  0.075126199

 FORCES acting on ions
    electron-ion (+dipol)            ewald-force                    non-local-force                 convergence-correction
   0.227E+03 -.404E+02 0.149E+03   -.219E+03 0.397E+02 -.153E+03   -.788E+01 0.122E+01 0.416E+00   -.261E-03 -.605E-03 0.177E-03
   0.212E+03 -.269E+03 -.210E+03   -.208E+03 0.266E+03 0.210E+03   -.582E+01 0.704E-01 0.165E+01   0.418E-02 0.133E-03 0.925E-03
   0.497E+02 -.709E+02 0.219E+02   -.497E+02 0.760E+02 -.250E+02   -.121E+01 -.536E+01 0.290E+01   -.410E-02 0.222E-02 -.310E-02
   0.381E+02 -.293E+03 -.266E+03   -.368E+02 0.291E+03 0.264E+03   -.410E+00 0.384E+01 0.139E+01   0.173E-02 0.169E-03 -.588E-03
   -.228E+02 0.697E+02 0.396E+03   0.195E+02 -.685E+02 -.390E+03   0.192E+01 -.159E+00 -.639E+01   0.201E-02 0.376E-03 0.610E-03
   -.102E+02 0.609E+02 -.134E+03   0.134E+02 -.597E+02 0.133E+03   -.288E+01 -.115E+01 0.278E+01   -.496E-03 0.102E-02 0.261E-02
   -.674E+02 0.203E+02 0.613E+02   0.658E+02 -.196E+02 -.632E+02   0.239E+01 -.674E+00 0.845E+00   0.115E-02 -.481E-03 -.246E-02
   -.748E+02 0.987E+02 0.182E+03   0.739E+02 -.947E+02 -.180E+03   0.530E+00 -.314E+01 -.238E+01   -.138E-02 0.660E-03 -.436E-03
   0.527E+02 -.113E+03 0.839E+02   -.531E+02 0.111E+03 -.803E+02   -.253E-01 0.101E+01 -.275E+01   0.148E-02 -.104E-02 -.369E-03
   -.166E+03 -.149E+02 -.108E+03   0.165E+03 0.116E+02 0.107E+03   0.152E+01 0.394E+01 0.141E+01   0.343E-04 -.685E-03 0.177E-02
   0.697E+02 0.303E+03 0.113E+03   -.708E+02 -.297E+03 -.114E+03   0.139E+01 -.506E+01 0.206E+00   -.251E-02 -.203E-02 -.134E-03
   -.747E+02 0.884E+02 0.292E+03   0.714E+02 -.842E+02 -.292E+03   0.436E+01 -.534E+01 -.242E+01   -.487E-03 0.817E-03 -.954E-03
   0.202E+03 0.384E+02 -.200E+03   -.198E+03 -.353E+02 0.201E+03   -.472E+01 -.232E+01 -.863E+00   -.204E-02 0.107E-03 0.249E-02
   -.865E+02 0.102E+03 0.105E+03   0.825E+02 -.103E+03 -.107E+03   0.351E+01 -.394E+00 0.163E+01   -.105E-02 0.415E-03 0.191E-02
   0.145E+02 0.836E+02 -.107E+03   -.174E+02 -.829E+02 0.112E+03   0.340E+01 -.169E+01 -.286E+01   0.195E-03 0.671E-04 0.143E-03
   0.156E+03 -.871E+02 0.107E+03   -.149E+03 0.836E+02 -.109E+03   -.579E+01 0.320E+01 0.986E+00   0.123E-02 -.910E-03 0.298E-03
   -.825E+02 0.487E+02 -.584E+02   0.780E+02 -.500E+02 0.613E+02   0.456E+01 0.134E+01 -.251E+01   0.124E-02 0.175E-02 0.977E-03
   0.146E+02 0.368E+02 -.126E+03   -.138E+02 -.367E+02 0.125E+03   -.183E+01 -.524E+00 0.120E+01   -.139E-02 0.153E-02 -.390E-03
   -.163E+02 -.234E+03 -.880E+02   0.173E+02 0.228E+03 0.940E+02   -.311E+01 0.528E+01 -.542E+01   -.179E-02 0.961E-03 0.428E-02
   -.833E+02 -.190E+03 0.281E+03   0.852E+02 0.184E+03 -.281E+03   -.375E+00 0.536E+01 -.125E-01   0.320E-02 0.254E-03 -.271E-02
   0.649E+01 -.330E+02 -.737E+02   -.689E+01 0.319E+02 0.684E+02   0.232E-01 0.150E+01 0.567E+01   -.466E-03 -.145E-02 -.140E-02
   -.380E+02 0.327E+02 -.176E+03   0.414E+02 -.338E+02 0.177E+03   -.635E-01 0.517E+01 -.158E+01   -.871E-03 0.394E-03 0.218E-05
   -.320E+02 -.198E+02 0.321E+02   0.320E+02 0.265E+02 -.353E+02   0.622E+00 -.507E+01 0.404E+01   0.797E-03 0.132E-02 0.105E-02
   0.258E+03 0.150E+03 -.255E+02   -.251E+03 -.152E+03 0.297E+02   -.783E+01 0.970E+00 0.323E+01   -.138E-02 0.776E-03 -.116E-02
   0.111E+03 -.201E+03 -.163E+03   -.112E+03 0.203E+03 0.163E+03   -.191E+01 -.199E+01 -.149E+00   0.544E-03 -.724E-03 -.279E-03
   0.111E+03 0.666E+02 0.462E+02   -.109E+03 -.632E+02 -.503E+02   -.151E+01 -.269E+01 0.291E+01   -.438E-03 0.105E-02 0.364E-03
   -.440E+02 0.260E+03 0.137E+03   0.462E+02 -.260E+03 -.139E+03   -.201E+01 -.468E+00 0.441E+01   0.237E-02 -.219E-02 -.188E-02
   0.708E+02 -.107E+03 -.816E+01   -.717E+02 0.979E+02 0.893E+01   0.115E+01 0.544E+01 -.686E+00   0.427E-03 -.374E-03 0.555E-03
   0.877E+01 0.542E+02 -.383E+02   -.507E+01 -.555E+02 0.348E+02   -.417E+01 0.205E+01 0.245E+01   -.318E-03 0.178E-03 -.166E-03
   -.305E+02 0.647E+02 -.424E+01   0.278E+02 -.631E+02 0.216E+01   0.431E+01 -.600E+00 0.281E+01   0.206E-03 -.719E-04 -.125E-03
   0.200E+02 -.480E+02 -.138E+03   -.999E+01 0.472E+02 0.142E+03   -.735E+01 0.752E+01 -.553E-01   0.114E-02 0.471E-03 0.118E-02
   0.603E+02 0.389E+02 -.239E+01   -.576E+02 -.394E+02 -.134E+02   -.833E+01 -.341E+01 0.176E+02   0.691E-03 0.117E-03 -.106E-03
   -.159E+02 -.606E+02 0.110E+02   0.123E+02 0.612E+02 -.113E+02   0.606E+01 -.852E+00 0.355E+01   0.192E-03 -.217E-03 0.321E-03
   -.135E+03 0.246E+02 -.259E+02   0.123E+03 -.304E+02 0.246E+02   0.153E+02 0.786E+01 -.698E+01   -.256E-03 -.187E-03 0.492E-03
   -.539E+01 -.170E+03 -.507E+02   0.177E+02 0.161E+03 0.520E+02   -.124E+02 0.788E+01 -.494E+01   0.723E-03 0.118E-02 -.726E-03
   -.313E+02 -.492E+02 -.677E+02   0.281E+02 0.499E+02 0.624E+02   0.183E+01 -.552E+01 0.985E+01   -.548E-03 0.108E-03 -.231E-05
   -.274E+02 -.852E+01 0.512E+02   0.286E+02 0.777E+01 -.518E+02   -.559E+01 0.258E+01 -.502E+00   -.616E-03 0.607E-04 -.175E-04
   0.534E+02 -.139E+02 -.156E+01   -.621E+02 0.176E+02 -.544E+01   0.111E+02 -.486E+01 0.123E+02   0.121E-02 -.562E-04 -.492E-03
   0.139E+02 0.154E+02 0.767E+02   -.153E+02 -.204E+02 -.864E+02   0.267E+01 -.423E+00 0.986E+01   0.241E-03 0.543E-03 -.521E-04
   0.526E+02 0.147E+03 -.832E+02   -.522E+02 -.132E+03 0.780E+02   -.227E+01 -.220E+02 0.964E+01   0.278E-03 -.624E-05 -.224E-03
   0.153E+01 -.558E+02 -.142E+02   0.359E+01 0.551E+02 0.128E+02   -.522E+01 0.656E+01 0.411E+01   0.143E-03 0.282E-03 0.584E-03
   -.281E+02 -.357E+02 0.587E+02   0.235E+02 0.309E+02 -.518E+02   0.199E+01 0.260E+01 -.586E+01   0.177E-03 -.768E-03 0.805E-03
   0.109E+03 0.507E+02 -.748E+02   -.963E+02 -.486E+02 0.733E+02   -.171E+02 -.378E+01 -.341E+00   -.321E-03 -.603E-03 0.803E-03
   -.247E+02 0.571E+01 -.772E+02   0.301E+02 -.952E+01 0.762E+02   -.340E+01 0.684E+01 -.514E+01   -.926E-03 0.885E-04 0.403E-03
   0.519E+02 0.489E+02 0.491E+02   -.566E+02 -.436E+02 -.406E+02   -.101E+01 -.276E+01 -.105E+02   -.557E-04 0.544E-03 0.404E-03
   0.532E+02 -.719E+02 -.894E+02   -.466E+02 0.649E+02 0.920E+02   -.561E+01 0.328E+01 -.339E+01   -.150E-02 0.200E-03 0.650E-04
   -.114E+02 0.523E+02 -.777E+02   0.862E+01 -.500E+02 0.765E+02   0.512E+01 -.265E+01 0.238E+01   0.475E-03 0.444E-03 -.720E-04
   0.400E+02 0.715E+02 0.127E+02   -.399E+02 -.601E+02 -.106E+02   0.214E+01 -.142E+02 0.125E+01   0.337E-03 0.719E-04 0.754E-03
   -.329E+02 -.220E+02 -.833E+02   0.381E+02 0.257E+02 0.836E+02   -.433E+01 0.145E+01 0.835E+00   0.284E-03 0.678E-03 0.832E-03
   0.623E+02 -.719E+01 0.277E+02   -.525E+02 0.649E+01 -.312E+02   -.123E+02 0.288E+01 0.896E+00   -.245E-03 -.447E-03 -.100E-03
   0.381E+02 -.378E+01 0.601E+02   -.269E+02 0.640E+01 -.623E+02   -.815E+01 -.883E+01 0.414E+01   -.927E-04 -.657E-03 -.777E-03
   0.743E+01 0.121E+03 -.265E+02   0.366E+01 -.118E+03 0.369E+02   -.932E+01 -.223E+01 -.836E+01   0.696E-03 -.193E-03 -.976E-04
   -.570E+02 -.314E+02 0.128E+03   0.582E+02 0.346E+02 -.135E+03   -.500E+00 -.388E+01 0.711E+01   -.454E-03 0.570E-03 -.112E-02
   -.444E+01 -.459E+02 0.804E+02   0.457E+01 0.427E+02 -.781E+02   0.785E+00 0.312E+01 -.191E+01   -.228E-03 -.333E-03 -.368E-03
   0.519E+02 0.717E+02 0.139E+03   -.500E+02 -.758E+02 -.154E+03   0.157E+00 0.416E+01 0.126E+02   0.103E-02 0.218E-03 0.741E-03
   -.137E+03 -.155E+03 -.228E+03   0.155E+03 0.144E+03 0.246E+03   -.182E+02 0.118E+02 -.189E+02   0.304E-02 0.709E-03 0.206E-02
   -.724E+02 0.559E+02 -.106E+03   0.723E+02 -.551E+02 0.114E+03   -.103E+00 -.578E+00 -.911E+01   -.814E-03 -.114E-02 0.108E-02
   0.372E+02 -.593E+02 0.353E+02   -.295E+02 0.477E+02 -.316E+02   -.911E+01 0.146E+02 -.509E+01   0.190E-02 -.662E-04 -.972E-03
   0.109E+03 -.675E+02 0.141E+03   -.139E+03 0.671E+02 -.154E+03   0.297E+02 -.127E+00 0.127E+02   -.604E-03 -.710E-04 0.322E-03
   0.691E+01 -.128E+03 -.961E+02   0.231E+02 0.122E+03 0.906E+02   -.308E+02 0.671E+01 0.312E+01   0.561E-04 -.682E-04 -.445E-03
[...]
   0.506E+02 0.531E+02 -.185E+03   -.645E+02 -.750E+02 0.211E+03   0.133E+02 0.226E+02 -.209E+02   -.292E-02 0.892E-03 0.810E-03
   -.137E+03 0.859E+02 0.105E+03   0.124E+03 -.843E+02 -.128E+03   0.170E+02 -.323E+01 0.234E+02   -.593E-03 -.508E-03 0.464E-03
   -.167E+03 0.923E+02 0.383E+02   0.188E+03 -.103E+03 -.279E+02   -.195E+02 0.112E+02 -.832E+01   0.138E-03 -.110E-02 -.776E-03
   0.951E+02 0.810E+01 0.206E+03   -.997E+02 -.761E+00 -.216E+03   0.597E+01 -.109E+02 0.978E+01   0.484E-03 0.333E-03 -.231E-03
   0.622E+01 -.282E+02 0.961E+02   -.657E+01 0.366E+02 -.111E+03   -.335E+01 -.703E+01 0.151E+02   -.432E-04 0.763E-04 0.201E-03
   0.841E+02 0.115E+03 0.217E+03   -.971E+02 -.117E+03 -.246E+03   0.127E+02 0.521E+01 0.286E+02   -.447E-03 0.618E-03 -.925E-03
   -.743E+02 0.185E+03 -.192E+03   0.741E+02 -.198E+03 0.218E+03   -.812E-01 0.155E+02 -.273E+02   0.825E-03 0.963E-03 -.507E-03
   0.637E+02 0.140E+03 -.260E+03   -.455E+02 -.154E+03 0.274E+03   -.179E+02 0.106E+02 -.121E+02   -.825E-03 -.830E-03 0.956E-03
   -.107E+03 0.157E+02 0.948E+01   0.113E+03 -.372E+02 -.338E+01   -.315E+01 0.219E+02 -.535E+01   0.121E-02 -.826E-03 0.461E-03
   0.112E+03 -.519E+02 0.156E+03   -.108E+03 0.340E+02 -.167E+03   -.515E+01 0.222E+02 0.106E+02   -.105E-03 -.710E-03 0.899E-03
   0.648E+02 0.165E+02 0.123E+03   -.692E+02 -.283E+02 -.125E+03   0.428E+01 0.134E+02 0.390E+01   -.950E-04 0.843E-03 -.208E-03
   -.702E+00 0.711E+02 0.142E+03   0.950E+01 -.882E+02 -.173E+03   -.809E+01 0.151E+02 0.278E+02   0.133E-02 0.499E-04 -.155E-02
   -.350E+02 0.130E+02 0.291E+02   0.404E+02 -.124E+02 -.203E+02   -.450E+01 0.343E+00 -.960E+01   -.128E-03 -.509E-03 -.811E-03
   -.733E+02 -.255E+02 0.179E+03   0.764E+02 0.212E+02 -.188E+03   -.324E+01 0.435E+01 0.962E+01   -.113E-02 0.367E-03 -.964E-03
   0.202E+03 -.208E+02 -.643E+02   -.441E-12 -.568E-12 -.824E-12   -.202E+03 0.207E+02 0.643E+02   0.845E-02 0.117E-01 0.985E-02

 POSITION                                       TOTAL-FORCE (eV/Angst)
      3.13859      5.28363      2.70898        -0.055165      0.597966     -3.620994
      4.70171     10.87318      6.05456        -1.856108     -2.713467      1.783126
     10.44535      9.60668      9.22329        -1.200562     -0.321501     -0.217391
      3.28983      6.39894      6.49196         0.909192      2.211564      0.185539
      3.18000      1.13604      9.96867        -1.366342      0.974938     -0.226616
     10.22267      8.30316      3.45531         0.311910      0.079865      1.199201
      5.21408      7.34435     11.07752         0.807027      0.067166     -1.154144
      8.61853      1.25273      0.30535        -0.370103      0.944532     -0.676703
      2.09194      6.22948      9.84618        -0.398968     -0.750018      0.868604
      5.64672      2.32853      2.64674         0.895630      0.584267      0.443960
      9.85901      3.39005      8.31168         0.340889      1.457537     -0.788180
      0.44439     10.08128     11.11701         1.060822     -1.199397     -1.638101
     10.26049      0.31909      3.39600         0.028336      0.795234      0.703601
      6.23673      7.61110      1.99303        -0.486452     -1.223293      0.209038
     12.03472      4.25544      4.37044         0.517122     -0.995857      1.478229
     11.56862      4.49419      1.25570         0.555606     -0.252592     -0.634139
      2.53658     12.94151      1.78950         0.087262      0.000746      0.379999
      8.11414      6.74104      7.86921        -1.016342     -0.447778      0.566414
      8.38646     10.83104      3.02726        -2.138604     -0.793926      0.586267
      4.87518     11.59484     10.38619         1.522656     -0.590278      0.462721
      8.33563      5.14606      0.09899        -0.381673      0.353178      0.418342
     13.08618      0.66397      5.02431         3.287192      4.010285     -0.116340
      1.47340      2.84725      0.08691         0.663102      1.660664      0.814002
     11.77605      2.15115     10.48206        -1.383885     -1.042733      7.402120
      0.63800      7.21250      4.42147        -2.888014      0.178090      0.028735
     11.77245     11.48538      0.43778         0.637119      0.757623     -1.216837
      6.27069      2.74828      9.23652         0.224047     -0.327465      2.605377
      3.53432      8.74810      3.32541         0.259707     -3.579841      0.084522
      0.20413      2.32825      7.78748        -0.466853      0.715949     -1.061068
      5.38835      2.10045     12.37091         1.557227      0.948535      0.735892
      5.62741     12.88225      3.89010         2.636110      6.797711      3.665078
      4.70910     10.23861     13.05178        -5.626350     -3.932188      1.789973
      3.34287      4.55172     12.23621         2.431008     -0.283064      3.290936
      6.13217      5.27118      4.28740         4.139866      2.144781     -8.246502
      6.92258      9.54319      8.22037        -0.076632     -0.666982     -3.569947
     10.61593      6.46214      6.27837        -1.383041     -4.791197      4.529299
      8.73769      8.30017      0.20983        -4.307149      1.831351     -1.075809
      3.09740      9.69925      8.48461         2.413486     -1.159941      5.273138
      0.79873      0.29198     11.79321         1.219228     -5.425115      0.094985
      2.09887      4.17943      5.60153        -1.915142     -6.688924      4.431616
      6.13031     11.24691      1.11289        -0.096770      5.847065      2.716076
     13.00097      7.42046      1.27226        -2.683741     -2.256265      1.013002
      9.08193      3.44301      3.59520        -4.492577     -1.672105     -1.908598
     11.54530     10.82745      4.76197         2.008992      3.035111     -6.150260
     12.70159      1.52724      1.02203        -5.699490      2.530608     -1.960297
     11.99516     12.02536      7.20884         0.982667     -3.645057     -0.745601
      2.58145      1.90963      3.63452         2.337520     -0.438513      1.135576
      1.71018     10.03442      1.07012         2.273748     -2.792273      3.376170
      6.44846      8.39208      4.98952         0.921740      5.163774      1.120976
     12.45407      5.91395      9.70079        -2.443906      2.180524     -2.594691
      7.94211      3.91689     11.00921         3.067347     -6.205557      1.869293
      4.92590      4.07924      6.90926         1.768706      1.417956      2.022488
      8.18804     11.46743     12.28416         0.737921     -0.726237      0.293249
     11.43936      7.62093     11.77640         0.910359     -0.161359      0.370460
      2.99705     10.00648      0.09324         2.129730      0.049626     -1.857771
      6.02958     11.91440      5.12458         0.015421      1.280608     -1.323860
      7.68373      4.35264      4.14779        -0.188831      0.207822     -0.861436
      3.46576      7.91818      9.08229        -1.430807      2.961433     -1.397881
      1.83188      4.18559     11.90468        -0.305038     -0.510324     -0.427293
     11.97773      6.16950      5.56257        -0.802529      1.189484     -2.375575
[...]
     12.28949      2.61310      8.80969         0.658110      0.953271     -5.586355
     11.34376     10.74830      6.25752        -0.566242      0.797458      4.864802
      5.20310      5.29237      2.94232         3.857526     -1.663530      0.705901
      9.05867      3.61108     12.18249         1.229214      1.015136      2.105115
     12.05340      3.02996     13.14617         1.375838     -3.528318     -0.345599
      4.44162      3.28318     11.91582        -3.703604      1.371271      0.328085
     13.27812      0.59283     10.50288        -0.312828      2.520951     -0.379245
      2.38159      2.28003      5.28063        -0.276176      3.176778     -1.577870
     10.15355      2.50224      4.31761         0.335639     -2.763341      1.815221
     13.20450      5.85115      1.79658         1.952220      0.417049      0.748976
      4.07648      7.37304      2.36486        -1.567842      4.379608      0.395600
      0.34214     11.93369     11.80503        -0.117422      1.550044      2.255145
      5.01878      9.46844     11.80873         0.713640     -1.993694     -3.045044
      6.75618      3.04146     11.96159         0.885844      0.910495     -0.878198
      8.53755      9.81382     12.65846        -0.195716      0.145220      0.665896
    total drift:                               -0.009774     -0.000523     -0.010679

  FREE ENERGIE OF THE ION-ELECTRON SYSTEM (eV)
  free  energy   TOTEN  =      -916.80159933 eV

  energy  without entropy=     -916.80159933  energy(sigma->0) =     -916.80159933